exp_name	name	ref_position	reference	allele_variation	frequencies	counts	coverage	exp_name	name	ref_position	reference	allele_variation	frequencies	counts	coverage
controllo_4	POPTR_0004s09910.1	348	C	G/C	56,7/43,2	3704/2824	6530	stress_12	POPTR_0004s09910.1	348	C	G/C	60,1/39,9	2365/1568	3933
controllo_4	POPTR_0005s15660.1	228	T	C/T	51,2/48,7	2688/2556	5245	stress_12	POPTR_0005s15660.1	228	T	C/T	54,3/45,7	2753/2313	5066
controllo_4	POPTR_0005s15660.1	343	C	C/A	60,8/39,2	3107/2003	5114	stress_12	POPTR_0005s15660.1	343	C	C/A	56,3/43,6	2681/2076	4761
controllo_4	POPTR_0005s15660.1	344	A	A/G	60,6/39,4	3081/2006	5088	stress_12	POPTR_0005s15660.1	344	A	A/G	56,3/43,7	2678/2077	4756
controllo_4	POPTR_0005s15660.1	494	C	C/T	60,0/39,9	3031/2014	5049	stress_12	POPTR_0005s15660.1	494	C	C/T	55,2/44,7	2343/1899	4245
controllo_4	POPTR_0004s09910.1	331	T	T/C	56,9/42,9	2868/2158	5036	stress_12	POPTR_0004s09910.1	331	T	T/C	58,7/41,2	1680/1177	2860
controllo_4	POPTR_0005s15660.1	493	A	A/G	58,8/41,2	2921/2048	4971	stress_12	POPTR_0005s15660.1	493	A	A/G	53,8/46,1	2246/1924	4171
controllo_4	POPTR_0005s15660.1	469	A	G/A	50,4/49,6	2410/2372	4783	stress_12	POPTR_0005s15660.1	469	A	A/G	53,3/46,7	2134/1869	4006
controllo_4	POPTR_0005s15660.1	195	T	A/T	52,2/47,8	2414/2212	4627	stress_12	POPTR_0005s15660.1	195	T	A/T	56,3/43,6	2502/1938	4441
controllo_4	POPTR_0004s09910.1	99	T	T/G	55,7/44,1	2524/1999	4534	stress_12	POPTR_0004s09910.1	99	T	T/G	51,3/48,6	1321/1251	2576
controllo_4	POPTR_0004s09910.1	440	A	A/G	56,8/43,2	2283/1739	4022	stress_12	POPTR_0004s09910.1	440	A	A/G	57,7/42,3	1164/854	2018
controllo_4	POPTR_0005s15660.1	257	A	G/A	73,5/26,5	2944/1062	4007	stress_12	POPTR_0005s15660.1	257	A	G/A	71,0/28,9	2720/1108	3829
controllo_4	POPTR_0004s09910.1	270	T	T/G	76,0/24,0	3025/954	3982	stress_12	POPTR_0004s09910.1	270	T	T/G	64,0/35,9	1754/984	2741
controllo_4	POPTR_0004s09910.1	222	T	T/C	75,5/24,5	2679/868	3547	stress_12	POPTR_0004s09910.1	222	T	T/C	75,5/24,4	1443/467	1911
controllo_4	POPTR_0005s15660.1	256	C	C/A	66,7/32,2	2218/1071	3326	stress_12	POPTR_0005s15660.1	256	C	C/A	63,4/35,4	2006/1121	3164
controllo_4	POPTR_0004s09910.1	243	A	A/G	76,0/24,0	2384/754	3138	stress_12	POPTR_0004s09910.1	243	A	A/G	75,5/24,5	1323/429	1752
controllo_4	POPTR_0004s09910.1	248	A	A/C	74,5/25,3	2337/792	3135	stress_12	POPTR_0004s09910.1	248	A	A/C	73,6/26,3	1366/489	1857
controllo_4	POPTR_0004s09910.1	46	A	C/A	50,5/49,4	1276/1249	2527	stress_12	POPTR_0004s09910.1	46	A	A/C	50,0/49,9	859/858	1718
controllo_4	POPTR_0011s11960.1	50	T	T/G	83,4/16,6	2044/406	2452	stress_12	POPTR_0011s11960.1	50	T	T/G	84,8/15,2	5122/918	6040
controllo_4	POPTR_0004s09910.1	466	G	G/T	64,5/35,3	1520/832	2356	stress_12	POPTR_0004s09910.1	466	G	G/T	61,6/38,3	758/472	1231
controllo_4	POPTR_0011s11960.1	31	G	G/C	79,3/20,7	1308/342	1650	stress_12	POPTR_0011s11960.1	31	G	G/C	80,3/19,6	3161/772	3935
controllo_4	POPTR_0004s22810.1	342	T	C/T	53,1/46,8	807/712	1521	stress_12	POPTR_0004s22810.1	342	T	C/T	51,1/48,8	696/664	1361
controllo_4	POPTR_0004s22810.1	126	A	G/A	51,2/48,8	764/728	1493	stress_12	POPTR_0004s22810.1	126	A	A/G	51,9/48,0	806/746	1553
controllo_4	POPTR_0004s22810.1	196	G	G/A	60,1/39,9	857/568	1425	stress_12	POPTR_0004s22810.1	196	G	G/A	63,1/36,9	918/537	1455
controllo_4	POPTR_0004s22810.1	197	C	C/A	59,6/40,3	837/566	1404	stress_12	POPTR_0004s22810.1	197	C	C/A	62,7/37,2	897/533	1431
controllo_4	POPTR_0004s22810.1	100	T	G/T	52,2/47,8	680/622	1302	stress_12	POPTR_0004s22810.1	100	T	G/T	52,1/47,8	721/661	1384
controllo_4	POPTR_0004s22810.1	240	A	T/A	50,8/49,0	622/600	1225	stress_12	POPTR_0004s22810.1	240	A	A/T	53,3/46,4	619/539	1162
controllo_4	POPTR_0004s16920.1	1030	T	T/C	54,8/45,2	648/534	1182	stress_12	POPTR_0004s16920.1	1030	T	C/T	50,5/49,4	934/914	1851
controllo_4	POPTR_0004s16920.1	903	T	T/C	56,2/43,8	652/509	1161	stress_12	POPTR_0004s16920.1	903	T	T/C	51,0/48,9	947/909	1857
controllo_4	POPTR_0010s20810.1	173	T	C/T	60,2/39,8	683/451	1134	stress_12	POPTR_0010s20810.1	173	T	C/T	51,5/48,5	920/865	1785
controllo_4	POPTR_0004s16920.1	1017	C	C/T	58,5/41,4	585/414	1000	stress_12	POPTR_0004s16920.1	1017	C	C/T	54,9/45,1	907/746	1653
controllo_4	POPTR_0001s41080.1	65	A	A/T	61,8/38,1	617/380	998	stress_12	POPTR_0001s41080.1	65	A	A/T	52,3/47,7	1151/1049	2200
controllo_4	POPTR_0004s16920.1	972	G	G/A	73,3/26,7	681/248	929	stress_12	POPTR_0004s16920.1	972	G	G/A	68,7/31,3	1047/476	1523
controllo_4	POPTR_0004s16920.1	132	T	T/C	52,3/47,6	472/430	903	stress_12	POPTR_0004s16920.1	132	T	C/T	50,5/49,5	765/751	1516
controllo_4	POPTR_0004s16920.1	976	G	G/A	75,2/24,8	673/222	895	stress_12	POPTR_0004s16920.1	976	G	G/A	69,6/30,4	1047/457	1504
controllo_4	POPTR_0010s24290.1	225	C	C/A	55,7/44,2	487/386	874	stress_12	POPTR_0010s24290.1	225	C	A/C	53,5/46,5	473/411	884
controllo_4	POPTR_0004s22810.1	66	G	T/G	54,0/46,0	469/399	868	stress_12	POPTR_0004s22810.1	66	G	T/G	54,5/45,4	515/429	945
controllo_4	POPTR_0004s08380.1	928	G	A/G	50,3/49,5	433/426	860	stress_12	POPTR_0004s08380.1	928	G	A/G	51,4/48,6	373/352	725
controllo_4	POPTR_0010s20810.1	93	T	A/T	60,1/39,6	514/339	855	stress_12	POPTR_0010s20810.1	93	T	A/T	55,1/44,9	824/671	1495
controllo_4	POPTR_0004s16920.1	895	T	T/G	63,9/36,1	539/305	844	stress_12	POPTR_0004s16920.1	895	T	T/G	57,2/42,7	779/581	1361
controllo_4	POPTR_0004s09910.1	15	T	G/T	51,1/48,8	430/411	842	stress_12	POPTR_0004s09910.1	15	T	T/G	51,9/48,1	295/273	568
controllo_4	POPTR_0010s24290.1	39	C	T/C	50,1/49,9	415/413	828	stress_12	POPTR_0010s24290.1	39	C	C/T	57,8/42,2	436/318	754
controllo_4	POPTR_0005s26070.1	39	A	A/T	57,5/42,5	463/342	805	stress_12	POPTR_0005s26070.1	39	A	A/T	57,3/42,7	561/418	979
controllo_4	POPTR_0010s20810.1	225	T	C/T	61,6/38,2	487/302	790	stress_12	POPTR_0010s20810.1	225	T	C/T	54,6/45,3	665/551	1217
controllo_4	POPTR_0004s16920.1	94	G	A/G	50,6/49,4	364/356	720	stress_12	POPTR_0004s16920.1	94	G	G/A	51,4/48,6	689/651	1340
controllo_4	POPTR_0005s26070.2	140	T	T/C	54,7/45,3	394/326	720	stress_12	POPTR_0005s26070.2	140	T	T/C	59,0/41,0	564/392	956
controllo_4	POPTR_0003s06370.1	501	T	T/C	52,8/47,1	370/330	701	stress_12	POPTR_0003s06370.1	501	T	C/T	75,0/25,0	24/8	32
controllo_4	POPTR_0003s06370.1	516	A	A/G	56,2/43,8	392/306	698	stress_12	POPTR_0003s06370.1	516	A	G/A	71,4/28,6	25/10	35
controllo_4	POPTR_0004s08380.1	642	A	G/A	55,8/44,1	380/300	681	stress_12	POPTR_0004s08380.1	642	A	G/A	52,4/47,6	333/303	636
controllo_4	POPTR_0004s08380.1	708	C	C/T	54,9/45,1	373/307	680	stress_12	POPTR_0004s08380.1	708	C	C/T	54,6/45,2	314/260	575
controllo_4	POPTR_0002s08410.1	207	T	T/C	51,7/48,3	343/320	663	stress_12	POPTR_0002s08410.1	207	T	C/T	50,8/49,2	394/382	776
controllo_4	POPTR_0004s08380.1	361	G	G/T	50,8/49,2	335/325	660	stress_12	POPTR_0004s08380.1	361	G	T/G	51,5/48,4	298/280	579
controllo_4	POPTR_0004s08380.1	492	C	C/A	50,8/49,2	333/323	656	stress_12	POPTR_0004s08380.1	492	C	A/C	52,1/47,7	308/282	591
controllo_4	POPTR_0008s15780.1	164	A	A/G	77,6/22,4	474/137	611	stress_12	POPTR_0008s15780.1	164	A	A/G	75,2/24,8	1736/572	2308
controllo_4	POPTR_0002s08410.1	327	T	T/C	50,7/49,3	307/298	605	stress_12	POPTR_0002s08410.1	327	T	C/T	52,4/47,6	383/348	731
controllo_4	POPTR_0002s08410.1	146	C	T/C	53,5/46,5	315/274	589	stress_12	POPTR_0002s08410.1	146	C	T/C	50,8/49,2	404/392	796
controllo_4	POPTR_0008s15780.1	162	G	G/C	50,5/49,5	295/289	584	stress_12	POPTR_0008s15780.1	162	G	G/C	54,2/45,8	1192/1008	2201
controllo_4	POPTR_0004s08380.1	155	A	A/C	50,2/49,5	290/286	578	stress_12	POPTR_0004s08380.1	155	A	C/A	56,6/43,4	266/204	470
controllo_4	POPTR_0004s16920.1	328	G	A/G	58,9/41,1	340/237	577	stress_12	POPTR_0004s16920.1	328	G	A/G	51,3/48,7	474/450	924
controllo_4	POPTR_0004s08380.1	258	T	C/T	55,6/44,4	320/256	576	stress_12	POPTR_0004s08380.1	258	T	C/T	51,7/48,3	265/248	513
controllo_4	POPTR_0003s05110.1	111	A	C/A	50,7/49,3	291/283	574	stress_12	POPTR_0003s05110.1	111	A	C/A	58,3/41,7	338/242	580
controllo_4	POPTR_0001s42970.1	198	A	T/A	55,4/44,6	315/254	569	stress_12	POPTR_0001s42970.1	198	A	T/A	55,4/44,2	398/318	719
controllo_4	POPTR_0004s08380.1	113	G	G/A	54,5/45,5	305/255	560	stress_12	POPTR_0004s08380.1	113	G	G/A	51,5/48,5	241/227	468
controllo_4	POPTR_0002s22600.1	882	A	A/G	56,8/43,2	314/239	553	stress_12	POPTR_0002s22600.1	882	A	A/G	53,3/46,7	242/212	454
controllo_4	POPTR_0003s06370.1	472	G	G/T	51,8/48,2	284/264	548	stress_12	POPTR_0003s06370.1	472	G	G/T	64,3/35,7	18/10	28
controllo_4	POPTR_0002s22600.1	354	C	C/T	55,4/43,9	302/239	545	stress_12	POPTR_0002s22600.1	354	C	C/T	56,0/43,5	247/192	441
controllo_4	POPTR_0004s08380.1	333	T	C/T	50,1/49,4	271/267	541	stress_12	POPTR_0004s08380.1	333	T	C/T	52,8/46,6	258/228	489
controllo_4	POPTR_0008s06720.1	51	T	G/T	55,2/44,8	298/242	540	stress_12	POPTR_0008s06720.1	51	T	G/T	61,1/38,8	345/219	565
controllo_4	POPTR_0002s08410.1	519	A	A/T	50,5/49,5	270/265	535	stress_12	POPTR_0002s08410.1	519	A	A/T	50,3/49,6	359/354	714
controllo_4	POPTR_0008s19370.1	834	C	T/C	63,6/36,4	340/195	535	stress_12	POPTR_0008s19370.1	834	C	T/C	68,2/31,8	709/330	1039
controllo_4	POPTR_0004s08500.1	192	A	G/A	56,3/43,7	300/233	533	stress_12	POPTR_0004s08500.1	192	A	G/A	55,9/44,1	311/245	556
controllo_4	POPTR_0006s24570.1	2988	A	G/A	53,5/46,3	281/243	525	stress_12	POPTR_0006s24570.1	2988	A	G/A	54,8/44,9	393/322	717
controllo_4	POPTR_0014s17400.1	164	C	C/A	50,8/49,0	266/257	524	stress_12	POPTR_0014s17400.1	164	C	C/A	56,5/43,5	320/246	566
controllo_4	POPTR_0004s08380.1	426	A	A/G	50,9/49,1	266/257	523	stress_12	POPTR_0004s08380.1	426	A	G/A	51,0/49,0	200/192	392
controllo_4	POPTR_0014s17400.1	264	C	G/C	50,7/49,3	263/256	519	stress_12	POPTR_0014s17400.1	264	C	C/G	51,4/48,6	314/297	611
controllo_4	POPTR_0004s16920.1	42	C	T/C	51,6/48,4	265/249	514	stress_12	POPTR_0004s16920.1	42	C	C/T	51,3/48,7	479/455	934
controllo_4	POPTR_0008s19370.1	246	T	A/T	75,2/24,8	386/127	513	stress_12	POPTR_0008s19370.1	246	T	A/T	77,6/22,4	673/194	867
controllo_4	POPTR_0006s27170.1	100	T	C/T	52,5/47,5	269/243	512	stress_12	POPTR_0006s27170.1	100	T	C/T	64,3/35,7	295/164	459
controllo_4	POPTR_0008s06720.1	630	A	T/A	57,2/42,8	291/218	509	stress_12	POPTR_0008s06720.1	630	A	T/A	63,9/36,1	312/176	488
controllo_4	POPTR_0003s06370.1	321	C	C/T	52,4/47,6	265/241	506	stress_12	POPTR_0003s06370.1	321	C	C/T	73,7/26,3	28/10	38
controllo_4	POPTR_0001s42970.1	346	G	G/A	52,3/47,7	264/241	505	stress_12	POPTR_0001s42970.1	346	G	G/A	60,5/39,5	363/237	600
controllo_4	POPTR_0004s08380.1	1011	C	T/C	53,4/46,2	268/232	502	stress_12	POPTR_0004s08380.1	1011	C	T/C	54,1/45,9	250/212	462
controllo_4	POPTR_0014s17400.1	175	G	G/A	50,8/49,2	254/246	500	stress_12	POPTR_0014s17400.1	175	G	G/A	57,0/43,0	305/230	535
controllo_4	POPTR_0008s06720.1	162	T	G/T	52,5/46,1	261/229	497	stress_12	POPTR_0008s06720.1	162	T	G/T	57,9/40,4	305/213	527
controllo_4	POPTR_0002s22600.1	1158	T	G/T	54,4/45,2	270/224	496	stress_12	POPTR_0002s22600.1	1158	T	G/T	58,6/41,4	188/133	321
controllo_4	POPTR_0008s06720.1	339	A	A/G	55,8/44,0	277/218	496	stress_12	POPTR_0008s06720.1	339	A	G/A	52,7/47,3	264/237	501
controllo_4	POPTR_0014s17400.1	375	A	C/A	52,8/47,2	261/233	494	stress_12	POPTR_0014s17400.1	375	A	C/A	55,5/44,5	297/238	535
controllo_4	POPTR_0008s06720.1	211	A	T/A	52,3/47,3	258/233	493	stress_12	POPTR_0008s06720.1	211	A	T/A	59,3/40,5	313/214	528
controllo_4	POPTR_0008s19370.1	819	T	C/T	66,5/33,5	321/162	483	stress_12	POPTR_0008s19370.1	819	T	C/T	68,2/31,8	580/271	851
controllo_4	POPTR_0014s17400.1	466	A	G/A	50,1/49,9	242/241	483	stress_12	POPTR_0014s17400.1	466	A	A/G	55,0/45,0	240/196	436
controllo_4	POPTR_0002s01740.1	339	C	C/T	54,4/45,4	262/219	482	stress_12	POPTR_0002s01740.1	339	C	C/T	54,2/45,8	78/66	144
controllo_4	POPTR_0009s12710.1	1131	C	T/C	50,4/49,6	243/239	482	stress_12	POPTR_0009s12710.1	1131	C	T/C	55,9/44,0	552/435	988
controllo_4	POPTR_0003s05110.1	240	A	T/A	51,9/48,1	247/229	476	stress_12	POPTR_0003s05110.1	240	A	A/T	52,9/47,1	246/219	465
controllo_4	POPTR_0004s16920.1	561	T	T/C	53,4/46,4	254/221	476	stress_12	POPTR_0004s16920.1	561	T	C/T	53,8/46,2	490/420	910
controllo_4	POPTR_0002s22600.1	246	C	C/T	61,4/38,6	291/183	474	stress_12	POPTR_0002s22600.1	246	C	C/T	51,9/47,9	206/190	397
controllo_4	POPTR_0004s08380.1	99	A	A/G	65,3/34,7	309/164	473	stress_12	POPTR_0004s08380.1	99	A	A/G	63,8/36,2	248/141	389
controllo_4	POPTR_0002s08410.1	379	T	C/T	55,1/44,7	259/210	470	stress_12	POPTR_0002s08410.1	379	T	T/C	51,2/48,6	302/287	590
controllo_4	POPTR_0001s47590.1	136	G	G/A	52,6/47,4	246/222	468	stress_12	POPTR_0001s47590.1	136	G	A/G	51,4/48,6	107/101	208
controllo_4	POPTR_0003s06370.1	309	C	C/T	56,4/43,6	264/204	468	stress_12	POPTR_0003s06370.1	309	C	C/T	73,5/26,5	25/9	34
controllo_4	POPTR_0008s06720.1	351	G	G/T	56,0/44,0	262/206	468	stress_12	POPTR_0008s06720.1	351	G	G/T	51,5/48,5	238/224	462
controllo_4	POPTR_0008s15780.1	186	T	C/T	53,4/46,6	249/217	466	stress_12	POPTR_0008s15780.1	186	T	C/T	54,4/45,6	1003/841	1845
controllo_4	POPTR_0019s09140.1	264	G	G/A	53,0/47,0	247/219	466	stress_12	POPTR_0019s09140.1	264	G	A/G	57,5/42,5	285/211	496
controllo_4	POPTR_0014s17400.1	405	T	C/T	51,2/48,8	238/227	465	stress_12	POPTR_0014s17400.1	405	T	C/T	52,5/47,5	266/241	507
controllo_4	POPTR_0002s08410.1	705	A	G/A	52,9/46,9	245/217	463	stress_12	POPTR_0002s08410.1	705	A	A/G	50,1/48,9	300/293	599
controllo_4	POPTR_0014s17070.1	576	T	T/C	50,2/49,8	232/230	462	stress_12	POPTR_0014s17070.1	576	T	C/T	50,8/49,2	235/228	463
controllo_4	POPTR_0002s22600.1	843	A	A/G	51,8/48,2	239/222	461	stress_12	POPTR_0002s22600.1	843	A	G/A	50,3/49,7	173/171	344
controllo_4	POPTR_0008s06720.1	79	A	G/A	50,8/49,2	234/227	461	stress_12	POPTR_0008s06720.1	79	A	G/A	61,8/38,2	312/193	505
controllo_4	POPTR_0008s06720.1	41	G	G/C	58,6/41,4	270/191	461	stress_12	POPTR_0008s06720.1	41	G	G/C	62,7/37,3	294/175	469
controllo_4	POPTR_0001s42970.1	150	T	T/C	57,4/42,6	259/192	451	stress_12	POPTR_0001s42970.1	150	T	T/C	63,1/36,9	318/186	504
controllo_4	POPTR_0004s01510.1	480	A	A/G	63,0/37,0	279/164	443	stress_12	POPTR_0004s01510.1	480	A	A/G	67,6/32,4	23/11	34
controllo_4	POPTR_0004s08500.1	153	T	C/T	53,0/47,0	235/208	443	stress_12	POPTR_0004s08500.1	153	T	C/T	50,3/49,5	260/256	517
controllo_4	POPTR_0008s06720.1	315	G	G/A	59,8/40,2	265/178	443	stress_12	POPTR_0008s06720.1	315	G	A/G	51,3/48,5	232/219	452
controllo_4	POPTR_0009s12710.1	754	A	T/A	56,0/44,0	248/195	443	stress_12	POPTR_0009s12710.1	754	A	T/A	60,4/39,5	497/325	823
controllo_4	POPTR_0008s19370.1	198	T	T/C	79,5/20,2	350/89	440	stress_12	POPTR_0008s19370.1	198	T	T/C	81,9/17,8	681/148	831
controllo_4	POPTR_0011s11390.1	714	A	A/G	56,4/43,6	248/192	440	stress_12	POPTR_0011s11390.1	714	A	A/G	55,6/44,4	312/249	561
controllo_4	POPTR_0014s17070.1	513	G	G/A	53,1/46,9	233/206	439	stress_12	POPTR_0014s17070.1	513	G	G/A	51,7/48,3	260/243	503
controllo_4	POPTR_0008s03950.1	786	C	C/T	59,2/40,8	258/178	436	stress_12	POPTR_0008s03950.1	786	C	C/T	56,6/43,4	56/43	99
controllo_4	POPTR_0003s06370.1	547	T	T/C	61,1/38,9	266/169	435	stress_12	POPTR_0003s06370.1	547	T	T/C	80,0/20,0	16/4	20
controllo_4	POPTR_0008s03950.1	675	C	A/C	64,4/35,6	280/155	435	stress_12	POPTR_0008s03950.1	675	C	A/C	67,6/32,4	73/35	108
controllo_4	POPTR_0002s08410.1	447	C	C/T	50,8/49,2	219/212	431	stress_12	POPTR_0002s08410.1	447	C	C/T	53,0/47,0	296/263	559
controllo_4	POPTR_0008s19370.1	321	C	C/T	74,0/26,0	316/111	427	stress_12	POPTR_0008s19370.1	321	C	C/T	73,6/26,4	587/211	798
controllo_4	POPTR_0019s09140.1	512	A	A/G	57,6/42,4	245/180	425	stress_12	POPTR_0019s09140.1	512	A	G/A	56,7/43,3	301/230	531
controllo_4	POPTR_0008s19370.1	733	T	T/C	75,5/24,5	320/104	424	stress_12	POPTR_0008s19370.1	733	T	T/C	75,5/24,5	624/202	826
controllo_4	POPTR_0008s05870.1	1353	T	C/T	55,6/44,4	233/186	419	stress_12	POPTR_0008s05870.1	1353	T	C/T	50,7/49,2	423/411	835
controllo_4	POPTR_0008s19370.1	720	G	G/C	69,9/30,1	292/126	418	stress_12	POPTR_0008s19370.1	720	G	G/C	74,1/25,7	605/210	816
controllo_4	POPTR_0006s24570.1	2601	G	G/A	53,5/46,5	220/191	411	stress_12	POPTR_0006s24570.1	2601	G	G/A	52,4/47,6	358/325	683
controllo_4	POPTR_0006s08530.1	192	C	T/C	68,3/31,7	278/129	407	stress_12	POPTR_0006s08530.1	192	C	C/T	53,7/46,3	1755/1512	3268
controllo_4	POPTR_0006s14400.1	825	G	A/G	53,8/45,9	219/187	407	stress_12	POPTR_0006s14400.1	825	G	G/A	50,9/49,1	223/215	438
controllo_4	POPTR_0001s42970.1	138	C	C/T	66,2/33,8	268/137	405	stress_12	POPTR_0001s42970.1	138	C	C/T	69,1/30,9	291/130	421
controllo_4	POPTR_0008s06720.1	552	T	T/C	53,5/46,5	215/187	402	stress_12	POPTR_0008s06720.1	552	T	C/T	52,8/47,2	227/203	430
controllo_4	POPTR_0011s02770.1	510	T	C/T	66,6/33,2	267/133	401	stress_12	POPTR_0011s02770.1	510	T	T/C	74,1/25,9	60/21	81
controllo_4	POPTR_0004s03160.1	613	C	C/T	51,8/47,8	207/191	400	stress_12	POPTR_0004s03160.1	613	C	T/C	61,7/38,3	92/57	149
controllo_4	POPTR_0014s17070.1	255	T	T/C	54,6/45,1	218/180	399	stress_12	POPTR_0014s17070.1	255	T	T/C	50,4/49,6	205/202	407
controllo_4	POPTR_0019s09140.1	369	T	T/C	56,0/44,0	223/175	398	stress_12	POPTR_0019s09140.1	369	T	C/T	53,1/46,9	238/210	448
controllo_4	POPTR_0004s03160.1	423	A	A/T	57,0/43,0	225/170	395	stress_12	POPTR_0004s03160.1	423	A	T/A	54,9/45,1	79/65	144
controllo_4	POPTR_0019s09140.1	345	C	C/A	57,2/42,8	226/169	395	stress_12	POPTR_0019s09140.1	345	C	A/C	53,8/45,9	238/203	442
controllo_4	POPTR_0006s24570.1	2512	T	C/T	52,5/47,5	207/187	394	stress_12	POPTR_0006s24570.1	2512	T	C/T	50,1/49,9	349/347	696
controllo_4	POPTR_0014s17070.1	585	G	G/A	51,3/48,7	202/192	394	stress_12	POPTR_0014s17070.1	585	G	A/G	51,9/48,1	207/192	399
controllo_4	POPTR_0014s17070.1	723	T	C/T	51,3/48,7	202/192	394	stress_12	POPTR_0014s17070.1	723	T	T/C	54,5/45,5	223/186	409
controllo_4	POPTR_0006s08530.1	290	C	C/A	72,4/27,4	283/107	391	stress_12	POPTR_0006s08530.1	290	C	C/A	56,2/43,7	1697/1319	3019
controllo_4	POPTR_0008s15800.1	116	G	G/A	77,2/22,8	302/89	391	stress_12	POPTR_0008s15800.1	116	G	G/A	71,3/28,7	963/387	1350
controllo_4	POPTR_0004s03160.1	433	C	C/G	57,9/42,1	226/164	390	stress_12	POPTR_0004s03160.1	433	C	G/C	55,4/44,6	72/58	130
controllo_4	POPTR_0019s09140.1	109	T	T/A	50,3/49,7	195/193	388	stress_12	POPTR_0019s09140.1	109	T	T/A	55,5/44,3	261/208	470
controllo_4	POPTR_0014s17070.1	240	C	C/T	54,2/45,8	208/176	384	stress_12	POPTR_0014s17070.1	240	C	C/T	53,5/46,5	234/203	437
controllo_4	POPTR_0001s42970.1	69	A	A/G	75,5/24,5	289/94	383	stress_12	POPTR_0001s42970.1	69	A	A/G	76,1/23,9	337/106	443
controllo_4	POPTR_0008s19370.1	866	C	A/C	64,4/35,6	246/136	382	stress_12	POPTR_0008s19370.1	866	C	A/C	68,8/31,2	545/247	792
controllo_4	POPTR_0011s11390.1	611	C	G/C	52,9/47,1	202/180	382	stress_12	POPTR_0011s11390.1	611	C	G/C	57,8/42,2	300/219	519
controllo_4	POPTR_0014s17400.1	582	T	T/C	52,1/47,9	199/183	382	stress_12	POPTR_0014s17400.1	582	T	T/C	55,0/45,0	236/193	429
controllo_4	POPTR_0003s06370.1	105	G	G/T	71,6/28,4	272/108	380	stress_12	POPTR_0003s06370.1	105	G	T/G	69,6/30,4	16/7	23
controllo_4	POPTR_0004s01510.1	660	A	A/C	66,2/33,8	251/128	379	stress_12	POPTR_0004s01510.1	660	A	A/C	69,2/30,8	18/8	26
controllo_4	POPTR_0006s24570.1	2403	T	T/C	55,0/44,4	208/168	378	stress_12	POPTR_0006s24570.1	2403	T	C/T	51,8/48,2	314/292	606
controllo_4	POPTR_0008s19370.1	225	G	G/A	80,6/19,4	304/73	377	stress_12	POPTR_0008s19370.1	225	G	G/A	82,5/17,4	597/126	724
controllo_4	POPTR_0006s24570.1	2700	C	C/T	63,3/36,7	238/138	376	stress_12	POPTR_0006s24570.1	2700	C	C/T	61,2/38,8	380/241	621
controllo_4	POPTR_0019s09140.1	157	C	C/G	50,8/49,2	191/185	376	stress_12	POPTR_0019s09140.1	157	C	C/G	58,7/41,3	314/221	535
controllo_4	POPTR_0009s05720.1	106	G	A/G	58,4/41,6	219/156	375	stress_12	POPTR_0009s05720.1	106	G	A/G	73,0/27,0	165/61	226
controllo_4	POPTR_0006s27170.1	286	T	T/C	55,6/44,1	208/165	374	stress_12	POPTR_0006s27170.1	286	T	T/C	64,3/35,7	261/145	406
controllo_4	POPTR_0014s13660.1	306	C	T/C	52,1/47,9	195/179	374	stress_12	POPTR_0014s13660.1	306	C	T/C	50,3/49,7	168/166	334
controllo_4	POPTR_0006s08530.1	310	G	G/A	74,4/25,6	276/95	371	stress_12	POPTR_0006s08530.1	310	G	G/A	62,1/37,8	1663/1011	2677
controllo_4	POPTR_0008s15100.1	117	C	C/T	67,4/32,6	250/121	371	stress_12	POPTR_0008s15100.1	117	C	C/T	59,7/40,3	216/146	362
controllo_4	POPTR_0008s15100.1	210	A	A/G	57,0/43,0	211/159	370	stress_12	POPTR_0008s15100.1	210	A	A/G	53,3/46,5	203/177	381
controllo_4	POPTR_0011s02770.1	495	C	C/A	60,0/40,0	222/148	370	stress_12	POPTR_0011s02770.1	495	C	A/C	75,0/22,6	63/19	84
controllo_4	POPTR_0008s06720.1	26	C	T/C	61,5/38,5	227/142	369	stress_12	POPTR_0008s06720.1	26	C	T/C	63,7/36,3	232/132	364
controllo_4	POPTR_0006s08530.1	231	A	A/G	57,9/42,1	212/154	366	stress_12	POPTR_0006s08530.1	231	A	G/A	61,8/38,2	1814/1120	2935
controllo_4	POPTR_0003s08760.1	250	G	T/C	52,3/47,7	191/174	365	stress_12	POPTR_0003s08760.1	250	G	C/T	52,7/47,3	117/105	222
controllo_4	POPTR_0006s27170.1	234	G	A/G	54,0/46,0	197/168	365	stress_12	POPTR_0006s27170.1	234	G	A/G	66,5/33,5	270/136	406
controllo_4	POPTR_0011s11390.1	993	T	A/T	52,9/46,8	193/171	365	stress_12	POPTR_0011s11390.1	993	T	A/T	59,0/41,0	271/188	459
controllo_4	POPTR_0004s01510.1	571	C	C/G	67,5/32,5	245/118	363	stress_12	POPTR_0004s01510.1	571	C	C/G	66,7/33,3	18/9	27
controllo_4	POPTR_0011s11390.1	969	G	G/T	56,6/43,4	205/157	362	stress_12	POPTR_0011s11390.1	969	G	G/T	60,6/39,4	320/208	528
controllo_4	POPTR_0001s25670.1	153	C	C/T	53,9/46,1	194/166	360	stress_12	POPTR_0001s25670.1	153	C	C/T	52,4/47,6	100/91	191
controllo_4	POPTR_0001s42970.1	48	C	G/C	62,5/37,5	225/135	360	stress_12	POPTR_0001s42970.1	48	C	G/C	60,0/40,0	249/166	415
controllo_4	POPTR_0019s14100.1	388	T	T/A	50,3/49,7	181/179	360	stress_12	POPTR_0019s14100.1	388	T	T/A	52,2/47,8	245/224	469
controllo_4	POPTR_0010s24290.1	141	T	C/T	54,5/45,5	195/163	358	stress_12	POPTR_0010s24290.1	141	T	T/C	55,4/44,3	169/135	305
controllo_4	POPTR_0011s02770.1	711	A	G/A	63,6/36,4	227/130	357	stress_12	POPTR_0011s02770.1	711	A	A/G	70,0/30,0	49/21	70
controllo_4	POPTR_0006s14400.1	993	C	C/T	56,7/43,3	202/154	356	stress_12	POPTR_0006s14400.1	993	C	C/T	49,9/49,9	183/183	367
controllo_4	POPTR_0005s24030.1	126	A	G/A	50,7/49,3	180/175	355	stress_12	POPTR_0005s24030.1	126	A	G/A	51,6/48,4	149/140	289
controllo_4	POPTR_0006s14400.1	740	G	G/A	54,7/45,3	192/159	351	stress_12	POPTR_0006s14400.1	740	G	G/A	53,1/46,9	199/176	375
controllo_4	POPTR_0004s01510.1	291	A	A/G	62,0/38,0	217/133	350	stress_12	POPTR_0004s01510.1	291	A	A/G	77,3/22,7	17/5	22
controllo_4	POPTR_0006s27170.1	476	A	A/C	56,6/43,4	198/152	350	stress_12	POPTR_0006s27170.1	476	A	A/C	64,8/35,2	245/133	378
controllo_4	POPTR_0006s14400.1	948	T	T/C	52,7/47,3	184/165	349	stress_12	POPTR_0006s14400.1	948	T	C/T	49,9/49,9	188/188	377
controllo_4	POPTR_0008s19370.1	420	A	G/A	69,3/30,7	241/107	348	stress_12	POPTR_0008s19370.1	420	A	G/A	75,9/24,1	472/150	622
controllo_4	POPTR_0008s19370.1	36	G	G/T	73,7/26,3	255/91	346	stress_12	POPTR_0008s19370.1	36	G	G/T	76,2/23,8	500/156	656
controllo_4	POPTR_0002s01740.1	227	G	G/C	59,3/40,7	204/140	344	stress_12	POPTR_0002s01740.1	227	G	G/C	63,6/36,4	70/40	110
controllo_4	POPTR_0002s19710.1	69	A	G/A	56,4/43,6	194/150	344	stress_12	POPTR_0002s19710.1	69	A	G/A	55,1/44,9	357/291	648
controllo_4	POPTR_0008s19370.1	912	C	T/C	57,3/42,7	197/147	344	stress_12	POPTR_0008s19370.1	912	C	T/C	63,5/36,5	394/226	620
controllo_4	POPTR_0006s14400.1	231	A	G/A	58,2/41,8	199/143	342	stress_12	POPTR_0006s14400.1	231	A	G/A	56,3/43,7	200/155	355
controllo_4	POPTR_0019s09140.1	753	C	A/C	51,2/48,8	175/167	342	stress_12	POPTR_0019s09140.1	753	C	C/A	53,8/46,2	214/184	398
controllo_4	POPTR_0014s17070.1	699	T	T/A	50,0/49,7	170/169	340	stress_12	POPTR_0014s17070.1	699	T	T/A	53,9/45,8	192/163	356
controllo_4	POPTR_0019s09140.1	749	T	T/A	51,2/48,8	174/166	340	stress_12	POPTR_0019s09140.1	749	T	A/T	54,0/46,0	215/183	398
controllo_4	POPTR_0011s02770.1	207	C	T/C	63,1/36,6	214/124	339	stress_12	POPTR_0011s02770.1	207	C	C/T	75,0/25,0	75/25	100
controllo_4	POPTR_0004s08500.1	249	T	C/T	62,4/37,6	211/127	338	stress_12	POPTR_0004s08500.1	249	T	T/C	50,3/49,4	216/212	429
controllo_4	POPTR_0003s05110.1	375	T	T/C	50,4/49,6	170/167	337	stress_12	POPTR_0003s05110.1	375	T	C/T	56,9/43,1	224/170	394
controllo_4	POPTR_0002s08410.1	786	T	T/C	52,4/47,6	176/160	336	stress_12	POPTR_0002s08410.1	786	T	T/C	55,7/44,1	244/193	438
controllo_4	POPTR_0005s24030.1	128	G	A/G	50,3/49,7	169/167	336	stress_12	POPTR_0005s24030.1	128	G	A/G	50,4/49,6	129/127	256
controllo_4	POPTR_0006s14630.1	138	T	T/G	50,7/49,3	170/165	335	stress_12	POPTR_0006s14630.1	138	T	T/G	53,6/46,4	81/70	151
controllo_4	POPTR_0006s27170.1	526	A	A/C	65,4/34,6	219/116	335	stress_12	POPTR_0006s27170.1	526	A	A/C	70,7/29,0	222/91	314
controllo_4	POPTR_0006s14400.1	939	A	T/A	52,4/47,6	175/159	334	stress_12	POPTR_0006s14400.1	939	A	A/T	50,8/49,2	180/174	354
controllo_4	POPTR_0011s02770.1	73	C	G/C	65,8/34,2	219/114	333	stress_12	POPTR_0011s02770.1	73	C	C/G	67,9/32,1	55/26	81
controllo_4	POPTR_0019s09140.1	591	T	C/T	59,8/40,2	199/134	333	stress_12	POPTR_0019s09140.1	591	T	T/C	54,8/44,7	228/186	416
controllo_4	POPTR_0004s16920.1	633	C	C/T	52,4/47,6	172/156	328	stress_12	POPTR_0004s16920.1	633	C	C/T	50,0/49,8	290/289	580
controllo_4	POPTR_0006s27170.1	469	T	C/T	57,0/43,0	187/141	328	stress_12	POPTR_0006s27170.1	469	T	C/T	64,0/35,8	229/128	358
controllo_4	POPTR_0001s40480.1	891	A	A/G	52,8/47,2	172/154	326	stress_12	POPTR_0001s40480.1	891	A	A/G	56,1/43,9	222/174	396
controllo_4	POPTR_0006s14400.1	218	G	G/A	57,4/42,6	187/139	326	stress_12	POPTR_0006s14400.1	218	G	G/A	54,7/45,0	180/148	329
controllo_4	POPTR_0001s11600.1	189	A	T/A	63,0/36,7	204/119	324	stress_12	POPTR_0001s11600.1	189	A	T/A	57,0/43,0	142/107	249
controllo_4	POPTR_0013s00850.1	252	T	C/T	51,4/48,6	166/157	323	stress_12	POPTR_0013s00850.1	252	T	T/C	63,6/36,4	49/28	77
controllo_4	POPTR_0008s18230.1	120	A	A/G	53,1/46,9	171/151	322	stress_12	POPTR_0008s18230.1	120	A	G/A	50,6/49,4	86/84	170
controllo_4	POPTR_0011s11390.1	108	A	G/A	54,3/45,7	175/147	322	stress_12	POPTR_0011s11390.1	108	A	G/A	55,9/44,1	227/179	406
controllo_4	POPTR_0008s03950.1	447	C	C/T	60,3/39,7	193/127	320	stress_12	POPTR_0008s03950.1	447	C	C/T	67,2/32,8	43/21	64
controllo_4	POPTR_0011s17170.1	128	T	A/T	62,7/37,3	200/119	319	stress_12	POPTR_0011s17170.1	128	T	A/T	63,9/36,1	115/65	180
controllo_4	POPTR_0008s15100.1	394	T	T/C	54,3/45,7	172/145	317	stress_12	POPTR_0008s15100.1	394	T	T/C	53,1/46,9	154/136	290
controllo_4	POPTR_0008s18230.1	118	C	A/C	52,4/47,3	166/150	317	stress_12	POPTR_0008s18230.1	118	C	C/A	51,7/48,3	92/86	178
controllo_4	POPTR_0004s08380.1	1047	A	A/G	50,8/49,2	160/155	315	stress_12	POPTR_0004s08380.1	1047	A	A/G	52,4/47,6	153/139	292
controllo_4	POPTR_0005s13860.1	771	A	A/T	61,7/38,0	193/119	313	stress_12	POPTR_0005s13860.1	771	A	A/T	76,0/24,0	174/55	229
controllo_4	POPTR_0008s03950.1	414	T	G/T	62,2/37,8	194/118	312	stress_12	POPTR_0008s03950.1	414	T	G/T	62,9/37,1	56/33	89
controllo_4	POPTR_0009s05720.1	140	G	A/G	56,3/43,7	175/136	311	stress_12	POPTR_0009s05720.1	140	G	A/G	67,4/32,1	151/72	224
controllo_4	POPTR_0002s22220.1	378	T	C/T	62,6/36,8	194/114	310	stress_12	POPTR_0002s22220.1	378	T	C/T	63,6/36,4	89/51	140
controllo_4	POPTR_0009s12710.1	511	T	T/A	53,5/45,8	166/142	310	stress_12	POPTR_0009s12710.1	511	T	T/A	51,2/48,3	349/329	681
controllo_4	POPTR_0011s11390.1	549	T	T/C	50,2/49,8	155/154	309	stress_12	POPTR_0011s11390.1	549	T	T/C	53,6/46,2	237/204	442
controllo_4	POPTR_0008s05480.1	1605	T	C/T	61,4/38,6	189/119	308	stress_12	POPTR_0008s05480.1	1605	T	C/T	58,6/41,4	248/175	423
controllo_4	POPTR_0011s17170.1	97	A	A/C	56,5/43,2	174/133	308	stress_12	POPTR_0011s17170.1	97	A	A/C	69,4/30,1	120/52	173
controllo_4	POPTR_0013s00850.1	432	A	A/G	51,6/48,4	159/149	308	stress_12	POPTR_0013s00850.1	432	A	G/A	59,4/40,6	41/28	69
controllo_4	POPTR_0004s18190.1	903	T	T/C	53,9/45,7	164/139	304	stress_12	POPTR_0004s18190.1	903	T	C/T	55,1/44,9	234/191	425
controllo_4	POPTR_0001s11600.1	378	T	T/C	52,1/47,5	158/144	303	stress_12	POPTR_0001s11600.1	378	T	T/C	58,8/41,2	141/99	240
controllo_4	POPTR_0006s14400.1	756	C	G/C	50,2/49,8	152/151	303	stress_12	POPTR_0006s14400.1	756	C	C/G	51,7/48,3	170/159	329
controllo_4	POPTR_0004s08380.1	196	C	C/G	75,7/24,3	228/73	301	stress_12	POPTR_0004s08380.1	196	C	C/G	71,9/28,1	189/74	263
controllo_4	POPTR_0014s17400.1	600	C	C/T	56,2/43,8	168/131	299	stress_12	POPTR_0014s17400.1	600	C	C/T	61,1/38,5	181/114	296
controllo_4	POPTR_0002s22220.1	210	C	C/T	61,4/38,3	183/114	298	stress_12	POPTR_0002s22220.1	210	C	C/T	57,8/42,2	74/54	128
controllo_4	POPTR_0004s03160.1	270	T	T/C	51,0/49,0	152/146	298	stress_12	POPTR_0004s03160.1	270	T	T/C	50,8/49,2	65/63	128
controllo_4	POPTR_0004s16920.1	627	T	T/C	53,0/47,0	158/140	298	stress_12	POPTR_0004s16920.1	627	T	T/C	50,5/49,5	258/253	511
controllo_4	POPTR_0008s18230.1	357	T	A/T	51,3/48,7	153/145	298	stress_12	POPTR_0008s18230.1	357	T	A/T	50,8/48,6	94/90	185
controllo_4	POPTR_0014s17070.1	157	A	A/G	54,4/45,6	161/135	296	stress_12	POPTR_0014s17070.1	157	A	G/A	54,7/45,3	158/131	289
controllo_4	POPTR_0005s26740.1	300	C	C/T	58,0/42,0	171/124	295	stress_12	POPTR_0005s26740.1	300	C	C/T	62,0/38,0	150/92	242
controllo_4	POPTR_0006s27030.1	174	G	A/G	53,6/46,4	158/137	295	stress_12	POPTR_0006s27030.1	174	G	G/A	52,0/48,0	131/121	252
controllo_4	POPTR_0010s09960.1	201	G	G/A	80,5/19,5	236/57	293	stress_12	POPTR_0010s09960.1	201	G	G/A	79,3/20,7	295/77	372
controllo_4	POPTR_0003s06370.1	571	T	T/A	65,8/34,2	192/100	292	stress_12	POPTR_0003s06370.1	571	T	T/A	75,0/25,0	9/3	12
controllo_4	POPTR_0008s05480.1	1626	C	C/T	66,8/33,2	195/97	292	stress_12	POPTR_0008s05480.1	1626	C	C/T	59,2/40,8	255/176	431
controllo_4	POPTR_0017s06920.1	1698	T	C/T	60,3/39,7	176/116	292	stress_12	POPTR_0017s06920.1	1698	T	C/T	60,5/39,5	205/134	339
controllo_4	POPTR_0004s08380.1	54	A	G/A	82,4/17,6	238/51	289	stress_12	POPTR_0004s08380.1	54	A	G/A	80,4/19,6	176/43	219
controllo_4	POPTR_0007s12070.1	673	A	G/A	62,6/37,4	181/108	289	stress_12	POPTR_0007s12070.1	673	A	G/A	55,1/44,9	226/184	410
controllo_4	POPTR_0008s05480.1	1702	C	C/T	66,0/34,0	190/98	288	stress_12	POPTR_0008s05480.1	1702	C	C/T	56,2/43,5	209/162	372
controllo_4	POPTR_0001s38810.1	402	A	A/G	55,1/44,9	158/129	287	stress_12	POPTR_0001s38810.1	402	A	A/G	52,5/47,5	128/116	244
controllo_4	POPTR_0008s15100.1	149	T	T/C	64,8/35,2	186/101	287	stress_12	POPTR_0008s15100.1	149	T	T/C	57,6/42,4	170/125	295
controllo_4	POPTR_0003s09830.1	783	C	C/T	53,1/46,9	152/134	286	stress_12	POPTR_0003s09830.1	783	C	C/T	54,9/44,5	100/81	182
controllo_4	POPTR_0008s15100.1	408	T	T/C	51,7/48,3	148/138	286	stress_12	POPTR_0008s15100.1	408	T	C/T	53,7/46,3	138/119	257
controllo_4	POPTR_0011s11390.1	924	T	C/T	55,6/44,4	159/127	286	stress_12	POPTR_0011s11390.1	924	T	C/T	56,2/43,8	245/191	436
controllo_4	POPTR_0001s38810.1	225	T	T/A	51,9/48,1	148/137	285	stress_12	POPTR_0001s38810.1	225	T	A/T	55,1/44,9	136/111	247
controllo_4	POPTR_0001s38810.1	550	A	A/G	54,4/45,6	155/130	285	stress_12	POPTR_0001s38810.1	550	A	A/G	54,0/46,0	121/103	224
controllo_4	POPTR_0004s18190.1	1098	A	A/T	58,0/42,0	164/119	283	stress_12	POPTR_0004s18190.1	1098	A	T/A	57,4/42,6	234/174	408
controllo_4	POPTR_0005s26740.1	237	A	C/A	56,2/43,8	159/124	283	stress_12	POPTR_0005s26740.1	237	A	C/A	60,9/38,6	142/90	233
controllo_4	POPTR_0014s10200.1	355	A	A/G	55,5/44,5	157/126	283	stress_12	POPTR_0014s10200.1	355	A	G/A	53,5/46,5	144/125	269
controllo_4	POPTR_0002s05660.1	615	G	G/A	58,2/41,8	164/118	282	stress_12	POPTR_0002s05660.1	615	G	G/A	54,9/45,1	173/142	315
controllo_4	POPTR_0002s01080.1	1368	C	T/C	56,9/43,1	160/121	281	stress_12	POPTR_0002s01080.1	1368	C	T/C	53,4/46,6	358/313	671
controllo_4	POPTR_0004s01220.1	387	A	G/A	53,7/46,3	151/130	281	stress_12	POPTR_0004s01220.1	387	A	A/G	55,1/44,9	38/31	69
controllo_4	POPTR_0004s01470.1	765	G	T/G	56,2/43,4	158/122	281	stress_12	POPTR_0004s01470.1	765	G	T/G	56,8/42,1	147/109	259
controllo_4	POPTR_0006s14400.1	415	C	G/C	52,7/47,3	148/133	281	stress_12	POPTR_0006s14400.1	415	C	G/C	56,3/43,7	197/153	350
controllo_4	POPTR_0001s38810.1	560	G	G/C	53,6/46,4	150/130	280	stress_12	POPTR_0001s38810.1	560	G	G/C	51,6/47,9	113/105	219
controllo_4	POPTR_0002s05660.1	558	G	A/G	52,9/47,1	148/132	280	stress_12	POPTR_0002s05660.1	558	G	A/G	54,5/45,5	150/125	275
controllo_4	POPTR_0008s15100.1	566	C	C/T	54,3/45,7	152/128	280	stress_12	POPTR_0008s15100.1	566	C	T/C	53,4/46,6	148/129	277
controllo_4	POPTR_0004s01510.1	325	T	T/C	64,2/35,8	179/100	279	stress_12	POPTR_0004s01510.1	325	T	T/C	84,2/15,8	16/3	19
controllo_4	POPTR_0001s35230.1	87	A	A/G	53,2/46,8	148/130	278	stress_12	POPTR_0001s35230.1	87	A	A/G	50,3/49,7	155/153	308
controllo_4	POPTR_0004s03160.1	204	G	G/A	58,5/41,5	162/115	277	stress_12	POPTR_0004s03160.1	204	G	A/G	58,7/41,3	71/50	121
controllo_4	POPTR_0004s01510.1	418	T	G/T	69,8/29,8	192/82	275	stress_12	POPTR_0004s01510.1	418	T	G/T	83,9/16,1	26/5	31
controllo_4	POPTR_0007s12070.1	892	G	G/A	50,5/49,5	139/136	275	stress_12	POPTR_0007s12070.1	892	G	A/G	52,8/47,2	199/178	377
controllo_4	POPTR_0002s05660.1	525	T	C/T	51,1/48,9	140/134	274	stress_12	POPTR_0002s05660.1	525	T	T/C	51,6/48,4	142/133	275
controllo_4	POPTR_0017s06920.1	1509	T	C/T	62,6/37,4	171/102	273	stress_12	POPTR_0017s06920.1	1509	T	C/T	60,7/39,3	287/186	473
controllo_4	POPTR_0004s15440.1	216	T	T/A	53,3/46,7	145/127	272	stress_12	POPTR_0004s15440.1	216	T	A/T	57,4/42,6	35/26	61
controllo_4	POPTR_0006s27170.1	333	T	C/T	60,7/39,0	165/106	272	stress_12	POPTR_0006s27170.1	333	T	C/T	60,1/39,6	164/108	273
controllo_4	POPTR_0008s15780.1	428	C	T/C	52,0/48,0	141/130	271	stress_12	POPTR_0008s15780.1	428	C	C/T	61,4/38,6	607/382	989
controllo_4	POPTR_0001s35230.1	42	C	A/C	55,4/44,6	149/120	269	stress_12	POPTR_0001s35230.1	42	C	A/C	55,5/44,5	106/85	191
controllo_4	POPTR_0002s14730.1	1017	T	T/A	61,3/38,7	165/104	269	stress_12	POPTR_0002s14730.1	1017	T	T/A	60,3/39,7	158/104	262
controllo_4	POPTR_0014s13660.1	167	G	G/A	80,7/19,3	217/52	269	stress_12	POPTR_0014s13660.1	167	G	G/A	84,6/15,4	176/32	208
controllo_4	POPTR_0004s01470.1	187	C	G/C	51,1/48,9	137/131	268	stress_12	POPTR_0004s01470.1	187	C	C/G	50,2/49,8	141/140	281
controllo_4	POPTR_0004s08380.1	49	G	G/A	77,6/22,0	208/59	268	stress_12	POPTR_0004s08380.1	49	G	G/A	74,1/25,9	157/55	212
controllo_4	POPTR_0006s14400.1	504	C	T/C	56,7/43,3	152/116	268	stress_12	POPTR_0006s14400.1	504	C	C/T	54,8/45,2	166/137	303
controllo_4	POPTR_0013s00850.1	282	T	C/T	56,0/43,7	150/117	268	stress_12	POPTR_0013s00850.1	282	T	T/C	62,5/37,5	30/18	48
controllo_4	POPTR_0005s26740.1	234	T	C/T	56,6/43,4	151/116	267	stress_12	POPTR_0005s26740.1	234	T	C/T	64,3/35,7	146/81	227
controllo_4	POPTR_0006s23890.1	84	T	T/G	61,4/38,6	164/103	267	stress_12	POPTR_0006s23890.1	84	T	T/G	67,1/32,9	147/72	219
controllo_4	POPTR_0008s18230.1	150	T	G/T	50,2/49,8	133/132	265	stress_12	POPTR_0008s18230.1	150	T	G/T	53,2/46,8	83/73	156
controllo_4	POPTR_0002s22600.1	980	A	A/T	76,8/23,2	202/61	263	stress_12	POPTR_0002s22600.1	980	A	A/T	82,6/17,4	147/31	178
controllo_4	POPTR_0004s01470.1	642	A	G/A	52,9/47,1	138/123	261	stress_12	POPTR_0004s01470.1	642	A	G/A	55,3/44,4	157/126	284
controllo_4	POPTR_0002s14730.1	1026	A	A/C	57,7/42,3	150/110	260	stress_12	POPTR_0002s14730.1	1026	A	A/C	58,0/42,0	153/111	264
controllo_4	POPTR_0005s13860.1	674	G	A/G	54,2/45,8	141/119	260	stress_12	POPTR_0005s13860.1	674	G	G/A	52,9/47,1	126/112	238
controllo_4	POPTR_0008s06720.1	14	C	C/T	65,3/34,7	169/90	259	stress_12	POPTR_0008s06720.1	14	C	C/T	67,6/32,4	175/84	259
controllo_4	POPTR_0017s06920.1	1731	A	C/A	51,7/48,3	134/125	259	stress_12	POPTR_0017s06920.1	1731	A	C/A	66,4/33,6	237/120	357
controllo_4	POPTR_0006s14400.1	36	C	C/T	57,8/42,2	149/109	258	stress_12	POPTR_0006s14400.1	36	C	C/T	51,6/48,4	128/120	248
controllo_4	POPTR_0007s12070.1	813	G	G/A	59,7/40,3	154/104	258	stress_12	POPTR_0007s12070.1	813	G	G/A	56,4/43,6	190/147	337
controllo_4	POPTR_0013s00850.1	354	A	A/G	63,2/36,8	163/95	258	stress_12	POPTR_0013s00850.1	354	A	A/G	68,4/29,8	39/17	57
controllo_4	POPTR_0014s13660.1	897	T	T/C	56,2/43,8	145/113	258	stress_12	POPTR_0014s13660.1	897	T	C/T	50,6/49,4	131/128	259
controllo_4	POPTR_0004s15440.1	261	T	C/T	53,7/46,3	138/119	257	stress_12	POPTR_0004s15440.1	261	T	C/T	58,5/41,5	31/22	53
controllo_4	POPTR_0004s15440.1	256	A	A/G	52,7/47,3	135/121	256	stress_12	POPTR_0004s15440.1	256	A	A/G	54,5/45,5	30/25	55
controllo_4	POPTR_0001s40480.1	784	G	G/T	55,7/44,3	142/113	255	stress_12	POPTR_0001s40480.1	784	G	G/T	53,2/46,8	200/176	376
controllo_4	POPTR_0005s13860.1	138	T	T/C	51,0/49,0	130/125	255	stress_12	POPTR_0005s13860.1	138	T	T/C	58,5/41,5	134/95	229
controllo_4	POPTR_0014s10200.1	136	C	C/G	55,3/44,3	141/113	255	stress_12	POPTR_0014s10200.1	136	C	G/C	62,1/37,9	174/106	280
controllo_4	POPTR_0001s40480.1	785	T	T/C	54,3/45,7	138/116	254	stress_12	POPTR_0001s40480.1	785	T	T/C	52,8/47,0	201/179	381
controllo_4	POPTR_0002s22600.1	979	G	G/T	78,0/22,0	198/56	254	stress_12	POPTR_0002s22600.1	979	G	G/T	84,4/15,6	146/27	173
controllo_4	POPTR_0011s02770.1	765	A	C/A	59,3/40,7	150/103	253	stress_12	POPTR_0011s02770.1	765	A	A/C	73,4/26,6	47/17	64
controllo_4	POPTR_0014s13660.1	195	C	C/T	53,4/46,6	135/118	253	stress_12	POPTR_0014s13660.1	195	C	C/T	60,0/40,0	141/94	235
controllo_4	POPTR_0008s15100.1	33	C	C/G	50,0/50,0	126/126	252	stress_12	POPTR_0008s15100.1	33	C	G/C	50,2/49,8	106/105	211
controllo_4	POPTR_0014s10200.1	253	G	T/G	57,5/42,5	145/107	252	stress_12	POPTR_0014s10200.1	253	G	G/T	55,0/45,0	169/138	307
controllo_4	POPTR_0001s38810.1	369	T	C/T	54,6/45,4	137/114	251	stress_12	POPTR_0001s38810.1	369	T	C/T	51,8/48,2	100/93	193
controllo_4	POPTR_0008s18230.1	208	T	T/A	53,4/46,6	134/117	251	stress_12	POPTR_0008s18230.1	208	T	T/A	56,0/44,0	75/59	134
controllo_4	POPTR_0007s12070.1	687	T	T/A	58,8/41,2	147/103	250	stress_12	POPTR_0007s12070.1	687	T	T/A	57,4/42,6	221/164	385
controllo_4	POPTR_0014s02410.1	555	T	A/T	55,2/44,8	138/112	250	stress_12	POPTR_0014s02410.1	555	T	A/T	61,2/38,8	85/54	139
controllo_4	POPTR_0014s02410.1	1263	G	G/T	52,0/48,0	129/119	248	stress_12	POPTR_0014s02410.1	1263	G	T/G	54,8/45,2	85/70	155
controllo_4	POPTR_0001s38810.1	576	T	C/T	50,8/49,2	125/121	246	stress_12	POPTR_0001s38810.1	576	T	T/C	52,5/47,1	107/96	204
controllo_4	POPTR_0002s05660.1	318	T	C/T	57,7/42,3	142/104	246	stress_12	POPTR_0002s05660.1	318	T	C/T	59,8/40,2	150/101	251
controllo_4	POPTR_0002s22220.1	562	A	C/A	55,5/44,1	136/108	245	stress_12	POPTR_0002s22220.1	562	A	C/A	61,1/38,2	80/50	131
controllo_4	POPTR_0008s18230.1	165	C	C/T	55,9/44,1	137/108	245	stress_12	POPTR_0008s18230.1	165	C	C/T	59,6/40,4	84/57	141
controllo_4	POPTR_0017s06920.1	69	A	G/A	59,2/40,8	145/100	245	stress_12	POPTR_0017s06920.1	69	A	G/A	57,0/43,0	154/116	270
controllo_4	POPTR_0003s09830.1	1062	A	A/G	50,2/49,8	122/121	243	stress_12	POPTR_0003s09830.1	1062	A	A/G	52,7/47,3	79/71	150
controllo_4	POPTR_0004s18190.1	711	A	C/A	60,9/37,0	148/90	243	stress_12	POPTR_0004s18190.1	711	A	A/C	51,7/47,3	203/186	393
controllo_4	POPTR_0004s18190.1	1064	G	A/G	63,0/37,0	153/90	243	stress_12	POPTR_0004s18190.1	1064	G	G/A	55,0/45,0	191/156	347
controllo_4	POPTR_0003s08760.1	219	A	A/G	54,1/45,9	131/111	242	stress_12	POPTR_0003s08760.1	219	A	A/G	51,3/48,7	77/73	150
controllo_4	POPTR_0004s15440.1	306	T	A/T	52,1/47,9	126/116	242	stress_12	POPTR_0004s15440.1	306	T	A/T	51,8/48,2	29/27	56
controllo_4	POPTR_0002s01080.1	1299	G	G/A	60,0/39,6	144/95	240	stress_12	POPTR_0002s01080.1	1299	G	G/A	50,8/49,2	321/311	632
controllo_4	POPTR_0008s15100.1	291	T	T/A	51,2/48,8	123/117	240	stress_12	POPTR_0008s15100.1	291	T	A/T	55,0/44,6	138/112	251
controllo_4	POPTR_0008s18230.1	196	A	A/G	53,3/46,7	128/112	240	stress_12	POPTR_0008s18230.1	196	A	A/G	56,7/43,3	72/55	127
controllo_4	POPTR_0010s21270.1	1776	T	C/T	58,8/41,2	141/99	240	stress_12	POPTR_0010s21270.1	1776	T	C/T	57,4/42,6	152/113	265
controllo_4	POPTR_0005s13860.1	856	C	C/T	62,3/37,7	149/90	239	stress_12	POPTR_0005s13860.1	856	C	C/T	55,9/44,1	124/98	222
controllo_4	POPTR_0011s17170.1	297	C	T/C	65,3/34,7	156/83	239	stress_12	POPTR_0011s17170.1	297	C	T/C	66,4/33,6	77/39	116
controllo_4	POPTR_0002s14730.1	1783	T	T/G	52,5/47,5	125/113	238	stress_12	POPTR_0002s14730.1	1783	T	T/G	52,6/47,4	113/102	215
controllo_4	POPTR_0004s01470.1	581	G	G/A	52,9/47,1	126/112	238	stress_12	POPTR_0004s01470.1	581	G	G/A	56,5/43,1	143/109	253
controllo_4	POPTR_0001s40480.1	978	A	G/A	50,6/49,4	120/117	237	stress_12	POPTR_0001s40480.1	978	A	A/G	54,6/45,4	184/153	337
controllo_4	POPTR_0002s14730.1	1088	A	A/T	60,3/39,7	143/94	237	stress_12	POPTR_0002s14730.1	1088	A	A/T	58,6/41,4	147/104	251
controllo_4	POPTR_0002s14730.1	902	C	C/A	75,5/24,5	179/58	237	stress_12	POPTR_0002s14730.1	902	C	C/A	73,2/26,8	167/61	228
controllo_4	POPTR_0005s26740.1	441	C	T/C	56,4/43,6	133/103	236	stress_12	POPTR_0005s26740.1	441	C	T/C	58,0/42,0	112/81	193
controllo_4	POPTR_0006s27170.1	381	T	T/C	55,5/44,5	131/105	236	stress_12	POPTR_0006s27170.1	381	T	C/T	55,0/45,0	154/126	280
controllo_4	POPTR_0004s01470.1	597	T	A/T	56,6/43,4	133/102	235	stress_12	POPTR_0004s01470.1	597	T	A/T	57,7/42,3	150/110	260
controllo_4	POPTR_0004s18190.1	654	C	G/C	51,5/48,1	121/113	235	stress_12	POPTR_0004s18190.1	654	C	C/G	64,7/35,0	229/124	354
controllo_4	POPTR_0010s20810.1	333	T	C/T	52,8/47,2	124/111	235	stress_12	POPTR_0010s20810.1	333	T	C/T	53,6/46,4	195/169	364
controllo_4	POPTR_0001s41080.1	198	T	T/C	59,4/40,6	139/95	234	stress_12	POPTR_0001s41080.1	198	T	T/C	63,5/36,5	353/203	556
controllo_4	POPTR_0005s13860.1	712	T	T/A	55,6/44,4	130/104	234	stress_12	POPTR_0005s13860.1	712	T	T/A	62,3/37,7	132/80	212
controllo_4	POPTR_0003s08760.1	354	T	G/T	56,5/43,5	131/101	232	stress_12	POPTR_0003s08760.1	354	T	G/T	60,0/40,0	84/56	140
controllo_4	POPTR_0008s08410.1	192	C	T/C	51,7/48,3	120/112	232	stress_12	POPTR_0008s08410.1	192	C	T/C	54,4/45,6	112/94	206
controllo_4	POPTR_0006s23890.1	107	C	T/C	60,6/39,4	140/91	231	stress_12	POPTR_0006s23890.1	107	C	T/C	63,7/36,3	135/77	212
controllo_4	POPTR_0008s08410.1	1170	C	A/C	54,1/45,9	125/106	231	stress_12	POPTR_0008s08410.1	1170	C	A/C	56,5/43,5	104/80	184
controllo_4	POPTR_0002s14730.1	1836	T	T/A	71,3/15,2	164/35	230	stress_12	POPTR_0002s14730.1	1836	T	T/A/C	60,4/24,0/15,7	131/52/34	217
controllo_4	POPTR_0004s01220.1	281	T	C/T	51,7/48,3	119/111	230	stress_12	POPTR_0004s01220.1	281	T	T/C	57,1/42,9	36/27	63
controllo_4	POPTR_0019s14100.1	296	G	G/C	50,9/49,1	117/113	230	stress_12	POPTR_0019s14100.1	296	G	G/C	51,5/48,5	157/148	305
controllo_4	POPTR_0007s12070.1	615	T	T/C	54,1/45,9	124/105	229	stress_12	POPTR_0007s12070.1	615	T	T/C	52,8/47,2	182/163	345
controllo_4	POPTR_0002s00840.1	666	C	C/T	72,8/27,2	166/62	228	stress_12	POPTR_0002s00840.1	666	C	C/T	67,9/32,1	144/68	212
controllo_4	POPTR_0017s06920.1	1647	T	T/C	60,5/39,5	138/90	228	stress_12	POPTR_0017s06920.1	1647	T	T/C	61,0/38,7	214/136	351
controllo_4	POPTR_0019s11720.1	149	C	T/C	50,7/49,3	115/112	227	stress_12	POPTR_0019s11720.1	149	C	C/T	50,5/49,5	49/48	97
controllo_4	POPTR_0001s11600.1	48	T	T/C	56,9/43,1	128/97	225	stress_12	POPTR_0001s11600.1	48	T	T/C	55,8/44,2	101/80	181
controllo_4	POPTR_0005s26740.1	182	C	T/C	53,8/46,2	121/104	225	stress_12	POPTR_0005s26740.1	182	C	T/C	63,4/36,1	121/69	191
controllo_4	POPTR_0002s14730.1	1647	G	G/A	73,7/26,3	165/59	224	stress_12	POPTR_0002s14730.1	1647	G	G/A	70,1/29,9	169/72	241
controllo_4	POPTR_0005s11500.1	196	G	G/C	59,4/40,6	133/91	224	stress_12	POPTR_0005s11500.1	196	G	G/C	50,6/49,4	123/120	243
controllo_4	POPTR_0007s12070.1	159	C	C/T	58,5/41,5	131/93	224	stress_12	POPTR_0007s12070.1	159	C	C/T	57,3/42,7	161/120	281
controllo_4	POPTR_0017s06920.1	1633	T	C/T	58,3/41,7	130/93	223	stress_12	POPTR_0017s06920.1	1633	T	C/T	58,2/41,8	205/147	352
controllo_4	POPTR_0003s09830.1	948	C	C/T	59,5/40,5	132/90	222	stress_12	POPTR_0003s09830.1	948	C	C/T	50,6/49,4	88/86	174
controllo_4	POPTR_0006s27170.1	347	A	A/G	70,7/29,3	157/65	222	stress_12	POPTR_0006s27170.1	347	A	A/G	68,0/32,0	157/74	231
controllo_4	POPTR_0001s11600.1	315	T	C/T	57,0/43,0	126/95	221	stress_12	POPTR_0001s11600.1	315	T	T/C	54,5/45,5	108/90	198
controllo_4	POPTR_0006s10130.1	321	A	G/A	54,3/45,2	120/100	221	stress_12	POPTR_0006s10130.1	321	A	A/G	52,3/47,0	69/62	132
controllo_4	POPTR_0010s20060.1	754	A	G/A	59,7/40,3	132/89	221	stress_12	POPTR_0010s20060.1	754	A	G/A	58,1/41,9	147/106	253
controllo_4	POPTR_0014s08960.1	160	C	C/G	56,8/42,7	125/94	220	stress_12	POPTR_0014s08960.1	160	C	C/G	60,2/39,2	100/65	166
controllo_4	POPTR_0002s05660.1	131	T	C/T	53,0/47,0	116/103	219	stress_12	POPTR_0002s05660.1	131	T	C/T	50,6/49,4	118/115	233
controllo_4	POPTR_0001s40480.1	69	C	C/T	56,9/43,1	124/94	218	stress_12	POPTR_0001s40480.1	69	C	C/T	50,2/49,8	146/145	291
controllo_4	POPTR_0003s09830.1	384	G	A/G	53,2/46,3	116/101	218	stress_12	POPTR_0003s09830.1	384	G	A/G	52,5/47,5	74/67	141
controllo_4	POPTR_0004s03160.1	141	G	C/G	56,9/43,1	124/94	218	stress_12	POPTR_0004s03160.1	141	G	G/C	55,4/44,6	56/45	101
controllo_4	POPTR_0004s10660.1	690	T	T/C	69,7/29,8	152/65	218	stress_12	POPTR_0004s10660.1	690	T	T/C	66,9/33,1	87/43	130
controllo_4	POPTR_0014s13660.1	939	T	T/C	53,2/46,8	116/102	218	stress_12	POPTR_0014s13660.1	939	T	T/C	50,9/49,1	87/84	171
controllo_4	POPTR_0002s19710.1	216	G	T/G	54,8/44,2	119/96	217	stress_12	POPTR_0002s19710.1	216	G	G/T	52,2/47,6	214/195	410
controllo_4	POPTR_0010s21270.1	1785	A	C/A	59,0/40,6	128/88	217	stress_12	POPTR_0010s21270.1	1785	A	C/A	60,4/39,6	139/91	230
controllo_4	POPTR_0014s14370.1	329	C	C/T	53,9/46,1	117/100	217	stress_12	POPTR_0014s14370.1	329	C	C/T	70,2/29,8	33/14	47
controllo_4	POPTR_0010s20060.1	756	C	T/C	60,0/39,5	129/85	215	stress_12	POPTR_0010s20060.1	756	C	T/C	56,6/43,4	138/106	244
controllo_4	POPTR_0002s14730.1	837	T	T/C	68,7/31,3	147/67	214	stress_12	POPTR_0002s14730.1	837	T	T/C	65,9/34,1	139/72	211
controllo_4	POPTR_0004s18190.1	372	A	T/A	50,9/49,1	109/105	214	stress_12	POPTR_0004s18190.1	372	A	A/T	62,6/37,4	164/98	262
controllo_4	POPTR_0008s18230.1	273	A	T/A	54,7/45,3	117/97	214	stress_12	POPTR_0008s18230.1	273	A	T/A	52,8/47,2	65/58	123
controllo_4	POPTR_0004s01220.1	99	C	G/C	57,3/42,7	122/91	213	stress_12	POPTR_0004s01220.1	99	C	C/G	52,2/47,8	35/32	67
controllo_4	POPTR_0014s13660.1	208	T	C/A	63,2/36,8	134/78	212	stress_12	POPTR_0014s13660.1	208	T	A/C	52,2/47,8	107/98	205
controllo_4	POPTR_0004s01470.1	1086	A	A/G	51,0/49,0	107/103	210	stress_12	POPTR_0004s01470.1	1086	A	A/G	59,1/40,4	133/91	225
controllo_4	POPTR_0002s14730.1	807	T	T/C	66,0/34,0	138/71	209	stress_12	POPTR_0002s14730.1	807	T	T/C	75,0/25,0	150/50	200
controllo_4	POPTR_0010s05530.1	1281	C	C/A	51,2/48,8	107/102	209	stress_12	POPTR_0010s05530.1	1281	C	C/A	52,2/47,8	154/141	295
controllo_4	POPTR_0014s14370.1	99	T	T/C	56,9/43,1	119/90	209	stress_12	POPTR_0014s14370.1	99	T	T/C	54,2/45,8	26/22	48
controllo_4	POPTR_0002s14730.1	1184	C	C/T	52,9/47,1	110/98	208	stress_12	POPTR_0002s14730.1	1184	C	C/T	52,6/47,4	92/83	175
controllo_4	POPTR_0005s11500.1	873	G	G/A	54,3/45,7	113/95	208	stress_12	POPTR_0005s11500.1	873	G	G/A	51,3/48,7	161/153	314
controllo_4	POPTR_0017s06920.1	357	G	A/G	54,8/45,2	114/94	208	stress_12	POPTR_0017s06920.1	357	G	A/G	56,4/43,6	186/144	330
controllo_4	POPTR_0002s01080.1	588	A	G/A	50,7/49,3	105/102	207	stress_12	POPTR_0002s01080.1	588	A	G/A	51,4/48,4	273/257	531
controllo_4	POPTR_0002s14730.1	922	G	G/T	59,9/40,1	124/83	207	stress_12	POPTR_0002s14730.1	922	G	G/T	58,2/41,8	96/69	165
controllo_4	POPTR_0014s14370.1	181	A	G/A	55,6/44,4	115/92	207	stress_12	POPTR_0014s14370.1	181	A	A/G	52,5/47,5	21/19	40
controllo_4	POPTR_0001s47590.1	27	G	G/T	53,4/46,6	110/96	206	stress_12	POPTR_0001s47590.1	27	G	G/T	53,6/46,4	37/32	69
controllo_4	POPTR_0004s03160.1	145	G	G/A	58,7/41,3	121/85	206	stress_12	POPTR_0004s03160.1	145	G	A/G	52,2/47,8	47/43	90
controllo_4	POPTR_0008s15770.1	93	T	T/C	85,0/15,0	175/31	206	stress_12	POPTR_0008s15770.1	93	T	T/C	50,9/49,0	607/585	1193
controllo_4	POPTR_0018s01830.1	162	T	C/T	72,8/27,2	150/56	206	stress_12	POPTR_0018s01830.1	162	T	C/T	76,6/23,4	144/44	188
controllo_4	POPTR_0004s15440.1	286	G	A/G	54,1/45,9	111/94	205	stress_12	POPTR_0004s15440.1	286	G	A/G	58,1/41,9	25/18	43
controllo_4	POPTR_0005s13860.1	729	A	A/G	72,7/27,3	149/56	205	stress_12	POPTR_0005s13860.1	729	A	A/G	74,5/25,0	140/47	188
controllo_4	POPTR_0008s05480.1	1353	T	C/T	53,2/46,8	109/96	205	stress_12	POPTR_0008s05480.1	1353	T	T/C	54,3/45,7	153/129	282
controllo_4	POPTR_0012s07060.1	1053	C	C/T	54,6/45,4	112/93	205	stress_12	POPTR_0012s07060.1	1053	C	T/C	56,6/43,4	98/75	173
controllo_4	POPTR_0014s10200.1	63	G	A/G	62,0/38,0	127/78	205	stress_12	POPTR_0014s10200.1	63	G	G/A	65,4/34,6	172/91	263
controllo_4	POPTR_0018s00850.1	306	A	C/A	59,0/41,0	121/84	205	stress_12	POPTR_0018s00850.1	306	A	C/A	57,6/42,4	53/39	92
controllo_4	POPTR_0002s22220.1	489	C	C/T	70,9/29,1	144/59	203	stress_12	POPTR_0002s22220.1	489	C	C/T	80,2/19,8	89/22	111
controllo_4	POPTR_0004s01990.1	757	A	A/C	50,2/49,3	102/100	203	stress_12	POPTR_0004s01990.1	757	A	A/C	54,4/40,4	31/23	57
controllo_4	POPTR_0006s27170.1	355	T	T/G	78,8/21,2	160/43	203	stress_12	POPTR_0006s27170.1	355	T	T/G	76,4/22,0	146/42	191
controllo_4	POPTR_0009s08520.1	1011	G	G/A	51,7/47,8	105/97	203	stress_12	POPTR_0009s08520.1	1011	G	G/A	53,7/46,3	116/100	216
controllo_4	POPTR_0014s08960.1	261	T	C/T	56,9/43,1	115/87	202	stress_12	POPTR_0014s08960.1	261	T	C/T	58,3/41,7	60/43	103
controllo_4	POPTR_0017s06920.1	1117	G	G/A	70,3/29,7	142/60	202	stress_12	POPTR_0017s06920.1	1117	G	G/A	66,1/33,9	183/94	277
controllo_4	POPTR_0002s14730.1	987	T	T/A	62,2/37,8	125/76	201	stress_12	POPTR_0002s14730.1	987	T	T/A	67,7/32,3	134/64	198
controllo_4	POPTR_0003s09830.1	579	G	A/G	53,2/46,8	107/94	201	stress_12	POPTR_0003s09830.1	579	G	G/A	51,7/48,3	75/70	145
controllo_4	POPTR_0008s08410.1	982	A	A/T	55,2/44,8	111/90	201	stress_12	POPTR_0008s08410.1	982	A	A/T	58,0/41,4	101/72	174
controllo_4	POPTR_0014s08960.1	270	A	A/G	54,7/45,3	110/91	201	stress_12	POPTR_0014s08960.1	270	A	A/G	54,5/45,5	60/50	110
controllo_4	POPTR_0014s10200.1	471	A	A/G	51,7/48,3	104/97	201	stress_12	POPTR_0014s10200.1	471	A	A/G	63,8/36,2	136/77	213
controllo_4	POPTR_0017s06920.1	1377	A	T/A	62,2/37,8	125/76	201	stress_12	POPTR_0017s06920.1	1377	A	T/A	69,1/30,9	186/83	269
controllo_4	POPTR_0003s09830.1	741	T	C/T	60,0/40,0	120/80	200	stress_12	POPTR_0003s09830.1	741	T	C/T	64,7/35,3	88/48	136
controllo_4	POPTR_0004s15440.1	135	C	C/T	63,5/36,5	127/73	200	stress_12	POPTR_0004s15440.1	135	C	C/T	68,4/31,6	26/12	38
controllo_4	POPTR_0006s10130.1	531	T	T/A	53,5/46,0	107/92	200	stress_12	POPTR_0006s10130.1	531	T	T/A	56,2/43,8	95/74	169
controllo_4	POPTR_0011s14410.1	59	T	C/T	53,5/46,5	107/93	200	stress_12	POPTR_0011s14410.1	59	T	C/T	50,7/49,3	76/74	150
controllo_4	POPTR_0002s14730.1	831	A	A/G	69,3/30,7	138/61	199	stress_12	POPTR_0002s14730.1	831	A	A/G	68,8/31,2	139/63	202
controllo_4	POPTR_0004s01220.1	753	A	A/G	60,3/39,7	120/79	199	stress_12	POPTR_0004s01220.1	753	A	G/A	56,2/43,8	27/21	48
controllo_4	POPTR_0010s21270.1	1842	C	C/G	54,8/45,2	109/90	199	stress_12	POPTR_0010s21270.1	1842	C	C/G	55,3/44,7	115/93	208
controllo_4	POPTR_0003s09830.1	642	T	C/T	54,0/45,5	107/90	198	stress_12	POPTR_0003s09830.1	642	T	T/C	61,0/38,2	83/52	136
controllo_4	POPTR_0005s11500.1	188	T	T/C	59,6/40,4	118/80	198	stress_12	POPTR_0005s11500.1	188	T	T/C	52,3/47,7	125/114	239
controllo_4	POPTR_0006s10130.1	555	G	G/T	56,6/42,9	112/85	198	stress_12	POPTR_0006s10130.1	555	G	G/T	56,7/43,3	85/65	150
controllo_4	POPTR_0012s07060.1	1272	A	A/G	51,8/48,2	102/95	197	stress_12	POPTR_0012s07060.1	1272	A	G/A	59,3/40,7	86/59	145
controllo_4	POPTR_0007s13800.1	937	G	A/G	52,0/48,0	102/94	196	stress_12	POPTR_0007s13800.1	937	G	G/A	68,3/31,7	41/19	60
controllo_4	POPTR_0010s19930.1	242	C	C/A	53,6/46,4	105/91	196	stress_12	POPTR_0010s19930.1	242	C	C/A	56,7/43,3	17/13	30
controllo_4	POPTR_0011s17170.1	42	G	A/G	61,2/38,8	120/76	196	stress_12	POPTR_0011s17170.1	42	G	A/G	59,0/41,0	62/43	105
controllo_4	POPTR_0017s06920.1	969	C	T/C	58,2/41,8	114/82	196	stress_12	POPTR_0017s06920.1	969	C	T/C	57,3/42,7	168/125	293
controllo_4	POPTR_0002s14730.1	1309	A	A/C	53,3/46,7	104/91	195	stress_12	POPTR_0002s14730.1	1309	A	A/C	52,1/47,9	111/102	213
controllo_4	POPTR_0017s06920.1	699	A	A/G	62,9/36,6	122/71	194	stress_12	POPTR_0017s06920.1	699	A	A/G	59,0/41,0	160/111	271
controllo_4	POPTR_0002s19710.1	252	C	C/T	79,3/20,7	153/40	193	stress_12	POPTR_0002s19710.1	252	C	C/T	80,9/19,1	263/62	325
controllo_4	POPTR_0004s01470.1	300	T	T/C	57,0/43,0	110/83	193	stress_12	POPTR_0004s01470.1	300	T	T/C	51,0/49,0	106/102	208
controllo_4	POPTR_0005s11500.1	702	C	C/T	59,6/40,4	115/78	193	stress_12	POPTR_0005s11500.1	702	C	C/T	56,7/43,3	174/133	307
controllo_4	POPTR_0012s07060.1	1257	G	G/A	52,8/47,2	102/91	193	stress_12	POPTR_0012s07060.1	1257	G	A/G	60,7/39,3	82/53	135
controllo_4	POPTR_0017s06920.1	1200	A	C/A	57,0/43,0	110/83	193	stress_12	POPTR_0017s06920.1	1200	A	C/A	61,7/38,3	169/105	274
controllo_4	POPTR_0001s38810.1	62	A	G/A	51,6/48,4	99/93	192	stress_12	POPTR_0001s38810.1	62	A	A/G	56,5/43,5	108/83	191
controllo_4	POPTR_0002s01080.1	1428	A	A/G	50,0/50,0	96/96	192	stress_12	POPTR_0002s01080.1	1428	A	G/A	54,9/45,1	286/235	521
controllo_4	POPTR_0004s15440.1	111	T	C/T	51,6/48,4	99/93	192	stress_12	POPTR_0004s15440.1	111	T	C/T	52,5/47,5	31/28	59
controllo_4	POPTR_0010s19930.1	232	T	G/T	57,3/42,7	110/82	192	stress_12	POPTR_0010s19930.1	232	T	T/G	55,2/44,8	16/13	29
controllo_4	POPTR_0014s10200.1	82	G	G/C	55,7/43,8	107/84	192	stress_12	POPTR_0014s10200.1	82	G	C/G	68,0/32,0	155/73	228
controllo_4	POPTR_0001s40480.1	106	G	T/G	59,7/40,3	114/77	191	stress_12	POPTR_0001s40480.1	106	G	T/G	52,5/47,5	156/141	297
controllo_4	POPTR_0003s08760.1	447	A	C/A	53,4/46,6	102/89	191	stress_12	POPTR_0003s08760.1	447	A	A/C	52,1/47,9	63/58	121
controllo_4	POPTR_0017s06920.1	511	G	G/A	53,9/46,1	103/88	191	stress_12	POPTR_0017s06920.1	511	G	G/A	50,4/49,6	131/129	260
controllo_4	POPTR_0006s14400.1	621	G	A/G	53,7/46,3	102/88	190	stress_12	POPTR_0006s14400.1	621	G	G/A	51,8/48,2	130/121	251
controllo_4	POPTR_0007s04160.1	165	T	T/C	55,8/44,2	106/84	190	stress_12	POPTR_0007s04160.1	165	T	C/T	51,4/48,6	56/53	109
controllo_4	POPTR_0008s05480.1	1852	C	A/C	55,8/44,2	106/84	190	stress_12	POPTR_0008s05480.1	1852	C	A/C	53,8/46,2	155/133	288
controllo_4	POPTR_0009s05720.1	154	G	A/G	78,9/21,1	150/40	190	stress_12	POPTR_0009s05720.1	154	G	A/G	81,5/17,8	110/24	135
controllo_4	POPTR_0010s20060.1	699	C	T/C	56,8/43,2	108/82	190	stress_12	POPTR_0010s20060.1	699	C	T/C	56,7/43,3	118/90	208
controllo_4	POPTR_0011s12680.1	519	C	G/C	56,3/43,7	107/83	190	stress_12	POPTR_0011s12680.1	519	C	G/C	56,0/44,0	51/40	91
controllo_4	POPTR_0013s00760.1	429	A	A/G	54,7/45,3	104/86	190	stress_12	POPTR_0013s00760.1	429	A	G/A	51,1/48,9	93/89	182
controllo_4	POPTR_0017s06920.1	339	T	T/C	56,6/43,4	107/82	189	stress_12	POPTR_0017s06920.1	339	T	T/C	58,6/41,1	191/134	326
controllo_4	POPTR_0001s40480.1	44	A	T/A	52,7/47,3	99/89	188	stress_12	POPTR_0001s40480.1	44	A	T/A	50,2/49,8	106/105	211
controllo_4	POPTR_0007s04160.1	164	C	C/G	55,3/44,7	104/84	188	stress_12	POPTR_0007s04160.1	164	C	G/C	51,4/48,6	56/53	109
controllo_4	POPTR_0011s14410.1	597	C	T/C	52,1/47,9	98/90	188	stress_12	POPTR_0011s14410.1	597	C	C/T	51,1/48,9	70/67	137
controllo_4	POPTR_0002s22220.1	477	C	C/A	73,3/26,7	137/50	187	stress_12	POPTR_0002s22220.1	477	C	C/A	80,6/19,4	83/20	103
controllo_4	POPTR_0005s13860.1	176	G	G/A	68,4/31,6	128/59	187	stress_12	POPTR_0005s13860.1	176	G	G/A	73,5/26,5	144/52	196
controllo_4	POPTR_0008s05470.1	1599	A	G/A	61,0/39,0	114/73	187	stress_12	POPTR_0008s05470.1	1599	A	G/A	65,2/34,8	43/23	66
controllo_4	POPTR_0017s06920.1	1311	C	A/C	56,1/43,9	105/82	187	stress_12	POPTR_0017s06920.1	1311	C	A/C	56,2/43,8	172/134	306
controllo_4	POPTR_0004s10660.1	586	G	A/G	54,8/45,2	102/84	186	stress_12	POPTR_0004s10660.1	586	G	A/G	58,6/41,4	92/65	157
controllo_4	POPTR_0006s23890.1	39	A	G/A	63,4/36,6	118/68	186	stress_12	POPTR_0006s23890.1	39	A	G/A	74,4/25,6	116/40	156
controllo_4	POPTR_0019s11720.1	654	A	G/A	52,2/47,8	97/89	186	stress_12	POPTR_0019s11720.1	654	A	A/G	53,8/46,2	35/30	65
controllo_4	POPTR_0003s09830.1	921	T	T/C	57,3/42,7	106/79	185	stress_12	POPTR_0003s09830.1	921	T	T/C	60,2/39,8	77/51	128
controllo_4	POPTR_0003s09830.1	92	G	G/A	51,9/48,1	96/89	185	stress_12	POPTR_0003s09830.1	92	G	G/A	61,2/38,8	79/50	129
controllo_4	POPTR_0011s14410.1	286	T	G/T	51,9/48,1	96/89	185	stress_12	POPTR_0011s14410.1	286	T	T/G	51,9/48,1	80/74	154
controllo_4	POPTR_0014s02410.1	1074	C	G/C	51,9/47,6	96/88	185	stress_12	POPTR_0014s02410.1	1074	C	C/G	55,6/43,7	79/62	142
controllo_4	POPTR_0018s11820.1	1212	T	T/C	50,3/49,7	93/92	185	stress_12	POPTR_0018s11820.1	1212	T	T/C	56,4/43,6	84/65	149
controllo_4	POPTR_0001s36560.1	585	G	T/G	65,8/34,2	121/63	184	stress_12	POPTR_0001s36560.1	585	G	T/G	57,0/43,0	73/55	128
controllo_4	POPTR_0005s11500.1	218	A	T/A	53,8/46,2	99/85	184	stress_12	POPTR_0005s11500.1	218	A	T/A	50,0/49,6	119/118	238
controllo_4	POPTR_0014s02410.1	1128	T	T/C	53,8/46,2	99/85	184	stress_12	POPTR_0014s02410.1	1128	T	T/C	53,4/46,6	78/68	146
controllo_4	POPTR_0001s36560.1	573	A	A/G	65,4/34,6	119/63	182	stress_12	POPTR_0001s36560.1	573	A	A/G	59,2/40,8	77/53	130
controllo_4	POPTR_0002s19710.1	264	G	G/A	80,8/18,7	147/34	182	stress_12	POPTR_0002s19710.1	264	G	G/A	81,6/18,4	270/61	331
controllo_4	POPTR_0009s05240.1	1059	C	T/C	62,1/37,9	113/69	182	stress_12	POPTR_0009s05240.1	1059	C	T/C	52,5/47,5	104/94	198
controllo_4	POPTR_0009s05240.1	930	T	T/A	52,2/47,8	95/87	182	stress_12	POPTR_0009s05240.1	930	T	T/A	60,5/39,5	118/77	195
controllo_4	POPTR_0001s36560.1	390	C	T/C	59,7/40,3	108/73	181	stress_12	POPTR_0001s36560.1	390	C	T/C	54,5/45,5	72/60	132
controllo_4	POPTR_0006s10130.1	600	C	A/C	56,9/43,1	103/78	181	stress_12	POPTR_0006s10130.1	600	C	A/C	56,5/43,5	65/50	115
controllo_4	POPTR_0007s12070.1	846	T	C/T	64,6/35,4	117/64	181	stress_12	POPTR_0007s12070.1	846	T	C/T	59,2/40,8	129/89	218
controllo_4	POPTR_0008s05480.1	1575	C	C/G	63,0/37,0	114/67	181	stress_12	POPTR_0008s05480.1	1575	C	C/G	62,2/37,8	168/102	270
controllo_4	POPTR_0009s05240.1	803	C	A/C	51,4/48,6	93/88	181	stress_12	POPTR_0009s05240.1	803	C	C/A	53,1/46,9	95/84	179
controllo_4	POPTR_0010s20060.1	348	A	G/A	63,5/36,5	115/66	181	stress_12	POPTR_0010s20060.1	348	A	G/A	65,8/34,2	129/67	196
controllo_4	POPTR_0001s36560.1	1225	G	G/C	65,6/34,4	118/62	180	stress_12	POPTR_0001s36560.1	1225	G	G/C	59,6/40,4	102/69	171
controllo_4	POPTR_0008s05470.1	1698	T	T/G	60,0/40,0	108/72	180	stress_12	POPTR_0008s05470.1	1698	T	T/G	72,3/27,7	47/18	65
controllo_4	POPTR_0014s02410.1	1008	T	T/A	51,7/48,3	93/87	180	stress_12	POPTR_0014s02410.1	1008	T	A/T	54,9/45,1	62/51	113
controllo_4	POPTR_0017s06920.1	796	G	G/A	65,6/34,4	118/62	180	stress_12	POPTR_0017s06920.1	796	G	G/A	56,3/43,7	143/111	254
controllo_4	POPTR_0001s36560.1	328	C	A/C	68,2/31,8	122/57	179	stress_12	POPTR_0001s36560.1	328	C	A/C	69,7/29,7	108/46	155
controllo_4	POPTR_0002s01320.1	1761	T	T/A	60,3/39,7	108/71	179	stress_12	POPTR_0002s01320.1	1761	T	T/A	55,4/44,6	134/108	242
controllo_4	POPTR_0002s14730.1	969	A	C/A	55,9/44,1	100/79	179	stress_12	POPTR_0002s14730.1	969	A	C/A	58,8/41,2	87/61	148
controllo_4	POPTR_0008s05480.1	1833	T	T/C	56,4/43,6	101/78	179	stress_12	POPTR_0008s05480.1	1833	T	T/C	53,8/46,2	148/127	275
controllo_4	POPTR_0013s00760.1	104	G	G/A	53,1/46,9	95/84	179	stress_12	POPTR_0013s00760.1	104	G	A/G	54,3/45,7	95/80	175
controllo_4	POPTR_0001s11600.1	648	C	T/C	55,6/44,4	99/79	178	stress_12	POPTR_0001s11600.1	648	C	T/C	57,3/42,7	71/53	124
controllo_4	POPTR_0004s15440.1	51	A	C/A	50,6/49,4	90/88	178	stress_12	POPTR_0004s15440.1	51	A	C/A	61,2/38,8	30/19	49
controllo_4	POPTR_0006s10040.1	363	G	A/G	50,6/49,4	90/88	178	stress_12	POPTR_0006s10040.1	363	G	G/A	58,2/41,8	113/81	194
controllo_4	POPTR_0008s05480.1	1213	T	T/C	57,9/42,1	103/75	178	stress_12	POPTR_0008s05480.1	1213	T	T/C	64,8/35,2	188/102	290
controllo_4	POPTR_0001s38810.1	649	T	A/T	53,1/46,9	94/83	177	stress_12	POPTR_0001s38810.1	649	T	T/A	53,3/46,7	64/56	120
controllo_4	POPTR_0002s14730.1	964	T	T/A	58,2/41,8	103/74	177	stress_12	POPTR_0002s14730.1	964	T	T/A	59,4/40,6	92/63	155
controllo_4	POPTR_0002s14730.1	975	G	G/C	78,5/21,5	139/38	177	stress_12	POPTR_0002s14730.1	975	G	G/C	74,0/26,0	111/39	150
controllo_4	POPTR_0002s14730.1	1330	C	C/T	83,1/16,9	147/30	177	stress_12	POPTR_0002s14730.1	1330	C	C/T	81,6/18,4	155/35	190
controllo_4	POPTR_0002s19710.1	360	C	A/T	59,9/40,1	106/71	177	stress_12	POPTR_0002s19710.1	360	C	A/T	54,6/45,1	179/148	328
controllo_4	POPTR_0008s05480.1	879	C	C/G	62,1/37,9	110/67	177	stress_12	POPTR_0008s05480.1	879	C	C/G	58,6/41,4	130/92	222
controllo_4	POPTR_0018s01830.1	150	G	C/G	71,2/28,8	126/51	177	stress_12	POPTR_0018s01830.1	150	G	C/G	73,1/26,9	117/43	160
controllo_4	POPTR_0001s35230.1	305	C	G/C	58,0/42,0	102/74	176	stress_12	POPTR_0001s35230.1	305	C	G/C	57,5/42,5	130/96	226
controllo_4	POPTR_0010s20060.1	693	A	C/A	54,5/45,5	96/80	176	stress_12	POPTR_0010s20060.1	693	A	C/A	52,9/47,1	100/89	189
controllo_4	POPTR_0003s09830.1	56	C	C/A	51,4/48,6	90/85	175	stress_12	POPTR_0003s09830.1	56	C	C/A	53,4/46,6	55/48	103
controllo_4	POPTR_0016s12370.1	828	T	T/C	72,0/28,0	126/49	175	stress_12	POPTR_0016s12370.1	828	T	T/C	59,0/41,0	98/68	166
controllo_4	POPTR_0002s14730.1	1950	G	G/A	58,6/41,4	102/72	174	stress_12	POPTR_0002s14730.1	1950	G	G/A	63,6/36,4	119/68	187
controllo_4	POPTR_0004s01220.1	116	A	C/A	54,6/45,4	95/79	174	stress_12	POPTR_0004s01220.1	116	A	C/A	53,2/46,8	33/29	62
controllo_4	POPTR_0007s12070.1	282	A	A/T	66,1/33,9	115/59	174	stress_12	POPTR_0007s12070.1	282	A	A/T	65,3/34,7	179/95	274
controllo_4	POPTR_0008s05480.1	1239	A	A/G	59,8/40,2	104/70	174	stress_12	POPTR_0008s05480.1	1239	A	A/G	63,0/37,0	174/102	276
controllo_4	POPTR_0011s08940.1	1203	T	T/C	52,3/47,7	91/83	174	stress_12	POPTR_0011s08940.1	1203	T	C/T	52,1/47,9	208/191	399
controllo_4	POPTR_0012s07060.1	1230	T	T/A	51,1/48,9	89/85	174	stress_12	POPTR_0012s07060.1	1230	T	A/T	60,3/39,7	73/48	121
controllo_4	POPTR_0016s12370.1	573	A	G/A	70,1/29,9	122/52	174	stress_12	POPTR_0016s12370.1	573	A	G/A	57,8/42,2	100/73	173
controllo_4	POPTR_0016s12370.1	838	T	T/C	71,3/28,7	124/50	174	stress_12	POPTR_0016s12370.1	838	T	T/C	59,2/40,8	106/73	179
controllo_4	POPTR_0018s11820.1	1176	A	G/A	50,6/49,4	88/86	174	stress_12	POPTR_0018s11820.1	1176	A	G/A	52,4/47,6	99/90	189
controllo_4	POPTR_0006s08530.1	360	T	T/C	65,9/34,1	114/59	173	stress_12	POPTR_0006s08530.1	360	T	C/T	54,5/45,5	806/673	1480
controllo_4	POPTR_0011s08940.1	1207	A	T/A	50,3/48,0	87/83	173	stress_12	POPTR_0011s08940.1	1207	A	A/T	51,4/48,4	205/193	399
controllo_4	POPTR_0014s02410.1	945	G	G/T	54,9/45,1	95/78	173	stress_12	POPTR_0014s02410.1	945	G	T/G	55,4/43,6	56/44	101
controllo_4	POPTR_0002s14730.1	943	T	T/G	51,7/48,3	89/83	172	stress_12	POPTR_0002s14730.1	943	T	T/G	51,9/48,1	68/63	131
controllo_4	POPTR_0004s18190.1	46	T	T/C	51,2/48,8	88/84	172	stress_12	POPTR_0004s18190.1	46	T	C/T	59,3/40,7	128/88	216
controllo_4	POPTR_0004s18190.1	47	A	T/A	51,2/48,8	88/84	172	stress_12	POPTR_0004s18190.1	47	A	A/T	59,7/40,3	129/87	216
controllo_4	POPTR_0011s08940.1	888	C	T/C	55,2/44,8	95/77	172	stress_12	POPTR_0011s08940.1	888	C	C/T	55,1/44,9	231/188	419
controllo_4	POPTR_0018s01830.1	234	G	A/G	75,0/25,0	129/43	172	stress_12	POPTR_0018s01830.1	234	G	A/G	72,1/27,9	132/51	183
controllo_4	POPTR_0019s11720.1	42	C	C/G	51,2/48,8	88/84	172	stress_12	POPTR_0019s11720.1	42	C	C/G	52,9/47,1	45/40	85
controllo_4	POPTR_0018s00850.1	285	A	A/T	70,2/29,2	120/50	171	stress_12	POPTR_0018s00850.1	285	A	A/T	67,6/32,4	48/23	71
controllo_4	POPTR_0004s01990.1	699	T	T/C	58,2/41,8	99/71	170	stress_12	POPTR_0004s01990.1	699	T	C/T	50,0/50,0	24/24	48
controllo_4	POPTR_0002s01320.1	292	A	C/A	56,2/43,8	95/74	169	stress_12	POPTR_0002s01320.1	292	A	C/A	60,9/39,1	148/95	243
controllo_4	POPTR_0003s09830.1	963	T	T/C	59,2/40,8	100/69	169	stress_12	POPTR_0003s09830.1	963	T	T/C	56,5/43,5	74/57	131
controllo_4	POPTR_0004s01220.1	561	C	T/C	55,0/45,0	93/76	169	stress_12	POPTR_0004s01220.1	561	C	T/C	59,3/40,7	32/22	54
controllo_4	POPTR_0009s05720.1	220	A	A/G	77,5/22,5	131/38	169	stress_12	POPTR_0009s05720.1	220	A	A/G	77,0/22,0	77/22	100
controllo_4	POPTR_0011s14410.1	450	C	T/C	56,2/43,8	95/74	169	stress_12	POPTR_0011s14410.1	450	C	C/T	55,6/44,4	94/75	169
controllo_4	POPTR_0014s10200.1	180	A	A/G	60,9/39,1	103/66	169	stress_12	POPTR_0014s10200.1	180	A	A/G	76,3/23,7	161/50	211
controllo_4	POPTR_0016s07280.1	672	C	C/T	50,9/49,1	86/83	169	stress_12	POPTR_0016s07280.1	672	C	C/T	55,4/44,6	62/50	112
controllo_4	POPTR_0001s36560.1	1285	G	A/G	52,4/47,6	88/80	168	stress_12	POPTR_0001s36560.1	1285	G	G/A	52,7/46,6	78/69	148
controllo_4	POPTR_0002s14730.1	1638	T	T/A	79,8/20,2	134/34	168	stress_12	POPTR_0002s14730.1	1638	T	T/A	76,4/23,6	152/47	199
controllo_4	POPTR_0008s05480.1	246	T	T/C	51,2/48,8	86/82	168	stress_12	POPTR_0008s05480.1	246	T	T/C	50,2/49,8	118/117	235
controllo_4	POPTR_0013s00760.1	723	A	A/T	53,0/47,0	89/79	168	stress_12	POPTR_0013s00760.1	723	A	A/T	58,6/41,4	109/77	186
controllo_4	POPTR_0002s01080.1	357	A	G/A	56,3/43,7	94/73	167	stress_12	POPTR_0002s01080.1	357	A	G/A	59,7/40,2	309/208	518
controllo_4	POPTR_0007s09630.1	812	A	G/A	61,1/38,9	102/65	167	stress_12	POPTR_0007s09630.1	812	A	G/A	57,2/42,8	95/71	166
controllo_4	POPTR_0008s06580.1	348	T	C/T	74,3/25,7	124/43	167	stress_12	POPTR_0008s06580.1	348	T	T/C	57,6/42,4	76/56	132
controllo_4	POPTR_0009s08520.1	114	A	G/A	53,3/46,7	89/78	167	stress_12	POPTR_0009s08520.1	114	A	A/G	54,7/45,3	105/87	192
controllo_4	POPTR_0014s15710.1	156	A	A/G	63,5/36,5	106/61	167	stress_12	POPTR_0014s15710.1	156	A	G/A	57,4/42,6	167/124	291
controllo_4	POPTR_0003s09830.1	702	G	G/A	64,5/35,5	107/59	166	stress_12	POPTR_0003s09830.1	702	G	G/A	69,2/30,8	90/40	130
controllo_4	POPTR_0005s22830.1	153	T	T/C	52,4/47,6	87/79	166	stress_12	POPTR_0005s22830.1	153	T	C/T	53,2/46,8	82/72	154
controllo_4	POPTR_0006s27170.1	360	C	C/T	83,1/16,9	138/28	166	stress_12	POPTR_0006s27170.1	360	C	C/T	76,6/22,9	134/40	175
controllo_4	POPTR_0008s06580.1	378	A	G/A	72,3/27,7	120/46	166	stress_12	POPTR_0008s06580.1	378	A	A/G	54,5/45,5	60/50	110
controllo_4	POPTR_0010s21270.1	333	T	T/C	54,8/45,2	91/75	166	stress_12	POPTR_0010s21270.1	333	T	T/C	57,5/42,0	104/76	181
controllo_4	POPTR_0016s12370.1	690	A	A/G	71,1/28,9	118/48	166	stress_12	POPTR_0016s12370.1	690	A	A/G	51,6/48,4	97/91	188
controllo_4	POPTR_0004s01470.1	456	A	A/T	53,9/45,5	89/75	165	stress_12	POPTR_0004s01470.1	456	A	T/A	51,7/47,8	105/97	203
controllo_4	POPTR_0007s09630.1	762	A	A/G	55,2/43,6	91/72	165	stress_12	POPTR_0007s09630.1	762	A	A/G	55,7/44,3	78/62	140
controllo_4	POPTR_0007s09630.1	768	T	T/C	55,8/44,2	92/73	165	stress_12	POPTR_0007s09630.1	768	T	T/C	55,3/44,7	78/63	141
controllo_4	POPTR_0009s05240.1	60	C	C/T	57,0/43,0	94/71	165	stress_12	POPTR_0009s05240.1	60	C	C/T	54,9/45,1	84/69	153
controllo_4	POPTR_0018s11820.1	1218	A	A/G	50,3/49,7	83/82	165	stress_12	POPTR_0018s11820.1	1218	A	A/G	54,7/45,3	70/58	128
controllo_4	POPTR_0001s47020.1	1569	A	A/T	56,1/43,9	92/72	164	stress_12	POPTR_0001s47020.1	1569	A	A/T	52,8/47,2	75/67	142
controllo_4	POPTR_0009s02070.1	705	T	C/T	54,3/45,7	89/75	164	stress_12	POPTR_0009s02070.1	705	T	T/C	50,5/49,5	53/52	105
controllo_4	POPTR_0010s08290.1	411	A	A/T	65,2/34,8	107/57	164	stress_12	POPTR_0010s08290.1	411	A	A/T	70,5/29,5	225/94	319
controllo_4	POPTR_0010s21280.1	741	T	T/C	62,2/37,8	102/62	164	stress_12	POPTR_0010s21280.1	741	T	T/C	70,3/29,7	175/74	249
controllo_4	POPTR_0014s14370.1	657	T	T/G	51,2/48,8	84/80	164	stress_12	POPTR_0014s14370.1	657	T	G/T	68,6/31,4	24/11	35
controllo_4	POPTR_0019s11720.1	224	C	T/C	54,3/45,7	89/75	164	stress_12	POPTR_0019s11720.1	224	C	C/T	51,2/48,8	44/42	86
controllo_4	POPTR_0004s01990.1	837	T	C/T	55,2/44,2	90/72	163	stress_12	POPTR_0004s01990.1	837	T	C/T	64,1/35,9	41/23	64
controllo_4	POPTR_0002s01080.1	42	T	T/C	62,3/37,7	101/61	162	stress_12	POPTR_0002s01080.1	42	T	T/C	53,2/46,8	183/161	344
controllo_4	POPTR_0004s01470.1	435	T	C/T	50,6/49,4	82/80	162	stress_12	POPTR_0004s01470.1	435	T	C/T	60,5/39,5	101/66	167
controllo_4	POPTR_0006s23890.1	35	C	C/T	62,3/37,7	101/61	162	stress_12	POPTR_0006s23890.1	35	C	C/T	71,9/28,1	97/38	135
controllo_4	POPTR_0009s05240.1	939	T	T/C	58,0/42,0	94/68	162	stress_12	POPTR_0009s05240.1	939	T	C/T	54,8/45,2	97/80	177
controllo_4	POPTR_0014s14370.1	656	A	A/T	51,2/48,8	83/79	162	stress_12	POPTR_0014s14370.1	656	A	T/A	68,6/31,4	24/11	35
controllo_4	POPTR_0014s14370.1	593	G	G/A	58,6/41,4	95/67	162	stress_12	POPTR_0014s14370.1	593	G	G/A	65,4/34,6	17/9	26
controllo_4	POPTR_0014s15710.1	285	T	C/T	61,1/38,9	99/63	162	stress_12	POPTR_0014s15710.1	285	T	T/C	50,5/48,0	139/132	275
controllo_4	POPTR_0001s35230.1	267	G	A/G	57,8/42,2	93/68	161	stress_12	POPTR_0001s35230.1	267	G	A/G	50,5/49,5	110/108	218
controllo_4	POPTR_0002s01320.1	1830	C	C/T	59,0/41,0	95/66	161	stress_12	POPTR_0002s01320.1	1830	C	C/T	56,3/43,7	130/101	231
controllo_4	POPTR_0002s03020.1	159	T	T/C	59,0/41,0	95/66	161	stress_12	POPTR_0002s03020.1	159	T	C/T	52,5/47,5	84/76	160
controllo_4	POPTR_0010s07730.1	72	T	C/T	54,0/45,3	87/73	161	stress_12	POPTR_0010s07730.1	72	T	C/T	58,3/41,7	120/86	206
controllo_4	POPTR_0013s00760.1	281	C	A/C	52,8/47,2	85/76	161	stress_12	POPTR_0013s00760.1	281	C	A/C	59,9/40,1	94/63	157
controllo_4	POPTR_0004s01990.1	45	C	T/C	53,8/46,2	86/74	160	stress_12	POPTR_0004s01990.1	45	C	T/C	64,6/35,4	31/17	48
controllo_4	POPTR_0004s03160.1	91	T	T/A	62,5/37,5	100/60	160	stress_12	POPTR_0004s03160.1	91	T	A/T	54,9/45,1	28/23	51
controllo_4	POPTR_0006s10130.1	510	G	C/G	53,8/45,6	86/73	160	stress_12	POPTR_0006s10130.1	510	G	C/G	57,4/42,6	89/66	155
controllo_4	POPTR_0010s21270.1	411	T	A/T	56,2/43,8	90/70	160	stress_12	POPTR_0010s21270.1	411	T	T/A	51,6/48,4	80/75	155
controllo_4	POPTR_0010s21270.1	1908	T	T/A	58,8/41,2	94/66	160	stress_12	POPTR_0010s21270.1	1908	T	T/A	55,9/44,1	100/79	179
controllo_4	POPTR_0005s13860.1	63	T	T/C	52,8/47,2	84/75	159	stress_12	POPTR_0005s13860.1	63	T	T/C	50,3/49,7	76/75	151
controllo_4	POPTR_0009s02070.1	624	G	G/A	52,8/47,2	84/75	159	stress_12	POPTR_0009s02070.1	624	G	A/G	53,5/46,5	68/59	127
controllo_4	POPTR_0010s21270.1	375	A	A/G	58,5/41,5	93/66	159	stress_12	POPTR_0010s21270.1	375	A	A/G	56,7/43,3	85/65	150
controllo_4	POPTR_0010s22790.1	228	T	C/T	51,6/48,4	82/77	159	stress_12	POPTR_0010s22790.1	228	T	C/T	51,2/48,8	108/103	211
controllo_4	POPTR_0015s06410.1	102	A	T/A	52,2/47,8	83/76	159	stress_12	POPTR_0015s06410.1	102	A	A/T	54,8/45,2	92/76	168
controllo_4	POPTR_0001s36560.1	279	G	C/G	61,4/38,6	97/61	158	stress_12	POPTR_0001s36560.1	279	G	C/G	51,1/48,2	72/68	141
controllo_4	POPTR_0001s36560.1	511	G	G/A	62,7/36,7	99/58	158	stress_12	POPTR_0001s36560.1	511	G	G/A	56,3/43,7	85/66	151
controllo_4	POPTR_0006s04960.1	3732	A	G/A	54,4/45,6	86/72	158	stress_12	POPTR_0006s04960.1	3732	A	G/A	52,1/47,9	49/45	94
controllo_4	POPTR_0009s08520.1	261	T	T/C	52,5/47,5	83/75	158	stress_12	POPTR_0009s08520.1	261	T	T/C	54,5/45,5	126/105	231
controllo_4	POPTR_0010s05530.1	1350	A	G/A	51,3/48,7	81/77	158	stress_12	POPTR_0010s05530.1	1350	A	G/A	53,0/47,0	116/103	219
controllo_4	POPTR_0010s20060.1	390	C	T/C	62,7/37,3	99/59	158	stress_12	POPTR_0010s20060.1	390	C	T/C	51,9/48,1	107/99	206
controllo_4	POPTR_0005s26740.1	72	T	C/T	80,9/19,1	127/30	157	stress_12	POPTR_0005s26740.1	72	T	C/T	74,0/26,0	125/44	169
controllo_4	POPTR_0009s08520.1	738	A	A/C	59,9/40,1	94/63	157	stress_12	POPTR_0009s08520.1	738	A	A/C	58,3/41,7	98/70	168
controllo_4	POPTR_0010s21280.1	1449	C	C/T	65,6/34,4	103/54	157	stress_12	POPTR_0010s21280.1	1449	C	C/T	68,7/31,3	145/66	211
controllo_4	POPTR_0013s10250.1	96	C	C/T	61,1/38,9	96/61	157	stress_12	POPTR_0013s10250.1	96	C	C/T	59,7/40,3	126/85	211
controllo_4	POPTR_0003s12160.1	201	C	T/C	51,3/48,7	80/76	156	stress_12	POPTR_0003s12160.1	201	C	C/T	51,0/48,0	104/98	204
controllo_4	POPTR_0005s22830.1	541	C	C/A	55,1/44,9	86/70	156	stress_12	POPTR_0005s22830.1	541	C	A/C	53,0/47,0	79/70	149
controllo_4	POPTR_0010s20060.1	543	C	T/C	75,6/24,4	118/38	156	stress_12	POPTR_0010s20060.1	543	C	T/C	76,7/23,3	125/38	163
controllo_4	POPTR_0010s21280.1	564	T	C/T	57,7/42,3	90/66	156	stress_12	POPTR_0010s21280.1	564	T	C/T	67,1/32,9	153/75	228
controllo_4	POPTR_0013s10250.1	99	C	C/A	63,5/36,5	99/57	156	stress_12	POPTR_0013s10250.1	99	C	C/A	56,6/43,4	124/95	219
controllo_4	POPTR_0017s06920.1	1407	A	T/A	52,6/47,4	82/74	156	stress_12	POPTR_0017s06920.1	1407	A	T/A	55,4/44,6	133/107	240
controllo_4	POPTR_0001s13800.1	94	T	C/T	51,0/49,0	79/76	155	stress_12	POPTR_0001s13800.1	94	T	C/T	51,3/48,7	102/97	199
controllo_4	POPTR_0001s35230.1	321	T	T/A	67,7/32,3	105/50	155	stress_12	POPTR_0001s35230.1	321	T	T/A	67,9/31,5	125/58	184
controllo_4	POPTR_0002s14730.1	1356	T	C/T	51,0/49,0	79/76	155	stress_12	POPTR_0002s14730.1	1356	T	T/C	53,6/46,4	90/78	168
controllo_4	POPTR_0002s25510.2	292	G	T/G	52,9/47,1	82/73	155	stress_12	POPTR_0002s25510.2	292	G	T/G	57,3/42,7	106/79	185
controllo_4	POPTR_0004s15440.1	99	A	A/G	56,1/43,9	87/68	155	stress_12	POPTR_0004s15440.1	99	A	G/A	55,4/44,6	31/25	56
controllo_4	POPTR_0008s05470.1	1683	T	C/T	60,6/39,4	94/61	155	stress_12	POPTR_0008s05470.1	1683	T	C/T	66,0/34,0	33/17	50
controllo_4	POPTR_0010s21270.1	1197	A	T/A	51,0/49,0	79/76	155	stress_12	POPTR_0010s21270.1	1197	A	A/T	50,3/49,7	92/91	183
controllo_4	POPTR_0011s08940.1	794	C	C/G	60,0/40,0	93/62	155	stress_12	POPTR_0011s08940.1	794	C	C/G	50,7/49,3	138/134	272
controllo_4	POPTR_0011s14410.1	372	A	G/A	52,3/47,7	81/74	155	stress_12	POPTR_0011s14410.1	372	A	A/G	58,1/41,0	68/48	117
controllo_4	POPTR_0014s15710.1	453	T	C/T	65,2/34,8	101/54	155	stress_12	POPTR_0014s15710.1	453	T	T/C	54,5/45,5	150/125	275
controllo_4	POPTR_0021s00380.1	1170	T	T/C	56,8/43,2	88/67	155	stress_12	POPTR_0021s00380.1	1170	T	C/T	58,8/41,2	110/77	187
controllo_4	POPTR_0002s01080.1	658	C	C/T	51,9/47,4	80/73	154	stress_12	POPTR_0002s01080.1	658	C	C/T	58,0/42,0	242/175	417
controllo_4	POPTR_0010s20060.1	540	T	C/T	50,6/48,7	78/75	154	stress_12	POPTR_0010s20060.1	540	T	C/T	50,6/49,4	86/84	170
controllo_4	POPTR_0010s20060.1	303	A	G/A	51,3/48,7	79/75	154	stress_12	POPTR_0010s20060.1	303	A	G/A	50,3/49,7	96/95	191
controllo_4	POPTR_0002s14730.1	1139	C	C/T	78,4/21,6	120/33	153	stress_12	POPTR_0002s14730.1	1139	C	C/T	80,9/19,1	165/39	204
controllo_4	POPTR_0005s22830.1	269	C	C/A	56,2/43,8	86/67	153	stress_12	POPTR_0005s22830.1	269	C	A/C	51,5/48,5	85/80	165
controllo_4	POPTR_0005s22830.1	270	A	G/A	56,2/43,8	86/67	153	stress_12	POPTR_0005s22830.1	270	A	A/G	50,6/49,4	85/83	168
controllo_4	POPTR_0008s06580.1	336	T	T/C	72,5/27,5	111/42	153	stress_12	POPTR_0008s06580.1	336	T	C/T	63,2/36,8	84/49	133
controllo_4	POPTR_0009s08520.1	384	A	G/A	58,8/41,2	90/63	153	stress_12	POPTR_0009s08520.1	384	A	G/A	62,4/37,6	153/92	245
controllo_4	POPTR_0011s08940.1	1259	A	G/A	51,6/48,4	79/74	153	stress_12	POPTR_0011s08940.1	1259	A	G/A	54,0/46,0	182/155	337
controllo_4	POPTR_0017s06920.1	735	C	A/C	62,1/37,9	95/58	153	stress_12	POPTR_0017s06920.1	735	C	A/C	56,6/43,4	107/82	189
controllo_4	POPTR_0002s14730.1	601	A	A/G	73,7/26,3	112/40	152	stress_12	POPTR_0002s14730.1	601	A	A/G	66,0/34,0	107/55	162
controllo_4	POPTR_0007s12070.1	543	T	T/C	80,3/19,7	122/30	152	stress_12	POPTR_0007s12070.1	543	T	T/C	82,6/17,4	152/32	184
controllo_4	POPTR_0021s00380.1	1176	A	A/G	59,2/40,8	90/62	152	stress_12	POPTR_0021s00380.1	1176	A	G/A	54,9/45,1	96/79	175
controllo_4	POPTR_0002s01080.1	788	C	C/A	51,0/49,0	77/74	151	stress_12	POPTR_0002s01080.1	788	C	C/A	58,9/41,1	287/200	487
controllo_4	POPTR_0004s03160.1	40	A	A/G	62,9/37,1	95/56	151	stress_12	POPTR_0004s03160.1	40	A	G/A	51,7/48,3	31/29	60
controllo_4	POPTR_0008s08410.1	372	T	C/T	52,3/47,7	79/72	151	stress_12	POPTR_0008s08410.1	372	T	T/C	51,2/48,8	64/61	125
controllo_4	POPTR_0010s08290.1	378	A	A/T	79,5/20,5	120/31	151	stress_12	POPTR_0010s08290.1	378	A	A/T	75,3/24,7	232/76	308
controllo_4	POPTR_0014s02410.1	771	G	T/G	53,6/46,4	81/70	151	stress_12	POPTR_0014s02410.1	771	G	G/T	57,1/42,9	56/42	98
controllo_4	POPTR_0002s14730.1	564	T	T/C	50,7/49,3	76/74	150	stress_12	POPTR_0002s14730.1	564	T	C/T	53,6/46,4	90/78	168
controllo_4	POPTR_0006s04960.1	3976	T	G/T	52,7/47,3	79/71	150	stress_12	POPTR_0006s04960.1	3976	T	G/T	51,4/48,6	55/52	107
controllo_4	POPTR_0006s10130.1	681	G	G/T	60,0/40,0	90/60	150	stress_12	POPTR_0006s10130.1	681	G	G/T	55,1/43,9	54/43	98
controllo_4	POPTR_0013s00760.1	1089	T	A/T	59,3/39,3	89/59	150	stress_12	POPTR_0013s00760.1	1089	T	A/T	55,8/44,2	82/65	147
controllo_4	POPTR_0004s15440.1	153	A	A/G	72,5/27,5	108/41	149	stress_12	POPTR_0004s15440.1	153	A	A/G	81,2/18,8	26/6	32
controllo_4	POPTR_0010s07730.1	115	C	A/C	52,3/47,7	78/71	149	stress_12	POPTR_0010s07730.1	115	C	C/A	54,9/45,1	95/78	173
controllo_4	POPTR_0010s22790.1	48	T	T/C	50,3/49,7	75/74	149	stress_12	POPTR_0010s22790.1	48	T	C/T	54,8/45,2	86/71	157
controllo_4	POPTR_0010s22790.1	600	A	G/A	51,0/49,0	76/73	149	stress_12	POPTR_0010s22790.1	600	A	G/A	53,2/46,8	83/73	156
controllo_4	POPTR_0011s08940.1	1008	T	C/T	60,4/39,6	90/59	149	stress_12	POPTR_0011s08940.1	1008	T	T/C	55,3/44,7	188/152	340
controllo_4	POPTR_0012s07060.1	105	A	A/G	56,4/43,6	84/65	149	stress_12	POPTR_0012s07060.1	105	A	A/G	52,5/47,5	53/48	101
controllo_4	POPTR_0016s07280.1	132	C	A/C	51,7/47,7	77/71	149	stress_12	POPTR_0016s07280.1	132	C	C/A	51,5/48,5	52/49	101
controllo_4	POPTR_0001s41780.1	72	T	T/A	77,0/23,0	114/34	148	stress_12	POPTR_0001s41780.1	72	T	T/A	73,0/27,0	27/10	37
controllo_4	POPTR_0009s08520.1	96	T	C/T	52,7/47,3	78/70	148	stress_12	POPTR_0009s08520.1	96	T	T/C	55,0/45,0	104/85	189
controllo_4	POPTR_0012s09570.1	510	T	T/C	52,7/47,3	78/70	148	stress_12	POPTR_0012s09570.1	510	T	C/T	51,0/49,0	52/50	102
controllo_4	POPTR_0002s22220.1	591	T	T/G	61,9/38,1	91/56	147	stress_12	POPTR_0002s22220.1	591	T	T/G	69,4/30,6	50/22	72
controllo_4	POPTR_0002s22560.1	1749	G	A/G	53,1/46,9	78/69	147	stress_12	POPTR_0002s22560.1	1749	G	A/G	52,0/48,0	222/205	427
controllo_4	POPTR_0005s20920.1	441	G	A/G	55,8/44,2	82/65	147	stress_12	POPTR_0005s20920.1	441	G	A/G	52,6/47,4	61/55	116
controllo_4	POPTR_0006s10040.1	198	C	C/A	53,1/46,9	78/69	147	stress_12	POPTR_0006s10040.1	198	C	C/A	56,6/43,4	107/82	189
controllo_4	POPTR_0012s07060.1	162	C	T/C	52,4/47,6	77/70	147	stress_12	POPTR_0012s07060.1	162	C	C/T	52,9/47,1	64/57	121
controllo_4	POPTR_0003s01090.1	352	G	G/A	65,8/34,2	96/50	146	stress_12	POPTR_0003s01090.1	352	G	G/A	52,6/47,4	92/83	175
controllo_4	POPTR_0006s04960.1	3651	G	A/G	56,2/43,8	82/64	146	stress_12	POPTR_0006s04960.1	3651	G	A/G	54,2/45,8	39/33	72
controllo_4	POPTR_0006s23890.1	337	C	G/C	59,6/40,4	87/59	146	stress_12	POPTR_0006s23890.1	337	C	G/C	64,4/35,6	103/57	160
controllo_4	POPTR_0007s13800.1	869	A	A/G	54,1/45,9	79/67	146	stress_12	POPTR_0007s13800.1	869	A	A/G	58,1/41,9	25/18	43
controllo_4	POPTR_0008s06580.1	294	G	A/G	73,3/26,7	107/39	146	stress_12	POPTR_0008s06580.1	294	G	A/G	57,0/43,0	65/49	114
controllo_4	POPTR_0010s19930.1	133	A	G/A	50,7/49,3	74/72	146	stress_12	POPTR_0010s19930.1	133	A	A/G	64,5/35,5	20/11	31
controllo_4	POPTR_0014s15710.1	405	T	C/T	58,2/41,8	85/61	146	stress_12	POPTR_0014s15710.1	405	T	T/C	56,6/43,4	151/116	267
controllo_4	POPTR_0019s11720.1	499	C	C/A	57,5/42,5	84/62	146	stress_12	POPTR_0019s11720.1	499	C	C/A	57,7/42,3	45/33	78
controllo_4	POPTR_0001s36560.1	816	C	T/C	51,0/49,0	74/71	145	stress_12	POPTR_0001s36560.1	816	C	C/T	50,8/49,2	65/63	128
controllo_4	POPTR_0001s36560.1	1290	A	A/G	55,2/44,8	80/65	145	stress_12	POPTR_0001s36560.1	1290	A	A/G	50,4/49,6	69/68	137
controllo_4	POPTR_0002s01740.1	27	T	T/A	53,1/46,9	77/68	145	stress_12	POPTR_0002s01740.1	27	T	A/T	50,0/50,0	23/23	46
controllo_4	POPTR_0002s14730.1	630	A	A/T	84,1/15,9	122/23	145	stress_12	POPTR_0002s14730.1	630	A	A/T	80,3/19,7	155/38	193
controllo_4	POPTR_0007s09630.1	653	G	C/G	58,6/41,4	85/60	145	stress_12	POPTR_0007s09630.1	653	G	C/G	58,9/41,1	53/37	90
controllo_4	POPTR_0010s07730.1	264	C	C/T	71,7/28,3	104/41	145	stress_12	POPTR_0010s07730.1	264	C	C/T	70,9/29,1	129/53	182
controllo_4	POPTR_0011s14410.1	233	T	T/C	50,3/49,7	73/72	145	stress_12	POPTR_0011s14410.1	233	T	T/C	51,8/48,2	57/53	110
controllo_4	POPTR_0012s07060.1	1380	A	A/G	60,7/39,3	88/57	145	stress_12	POPTR_0012s07060.1	1380	A	G/A	51,0/49,0	49/47	96
controllo_4	POPTR_0001s47020.1	1545	C	C/T	52,1/47,9	75/69	144	stress_12	POPTR_0001s47020.1	1545	C	C/T	54,9/45,1	62/51	113
controllo_4	POPTR_0002s01320.1	456	C	C/T	54,2/45,8	78/66	144	stress_12	POPTR_0002s01320.1	456	C	C/T	59,5/40,5	128/87	215
controllo_4	POPTR_0010s07730.1	114	G	A/G	52,1/47,9	75/69	144	stress_12	POPTR_0010s07730.1	114	G	G/A	54,7/45,3	94/78	172
controllo_4	POPTR_0010s22790.1	418	A	A/G	56,2/43,8	81/63	144	stress_12	POPTR_0010s22790.1	418	A	A/G	51,6/48,4	99/93	192
controllo_4	POPTR_0001s36560.1	519	T	T/G	65,7/34,3	94/49	143	stress_12	POPTR_0001s36560.1	519	T	T/G	56,2/43,8	86/67	153
controllo_4	POPTR_0002s14730.1	1882	A	A/G	84,6/15,4	121/22	143	stress_12	POPTR_0002s14730.1	1882	A	A/G	84,8/15,2	134/24	158
controllo_4	POPTR_0002s14730.1	1893	T	T/A	53,1/44,1	76/63	143	stress_12	POPTR_0002s14730.1	1893	T	T/A	50,7/48,7	77/74	152
controllo_4	POPTR_0004s01990.1	685	A	A/G	69,9/30,1	100/43	143	stress_12	POPTR_0004s01990.1	685	A	A/G	61,3/38,7	19/12	31
controllo_4	POPTR_0004s03160.1	673	T	T/A	68,5/31,5	98/45	143	stress_12	POPTR_0004s03160.1	673	T	T/A	58,5/41,5	24/17	41
controllo_4	POPTR_0014s02410.1	94	C	C/G	52,4/47,6	75/68	143	stress_12	POPTR_0014s02410.1	94	C	C/G	61,7/38,3	66/41	107
controllo_4	POPTR_0018s11820.1	651	A	C/A	51,7/48,3	74/69	143	stress_12	POPTR_0018s11820.1	651	A	A/C	53,5/46,5	85/74	159
controllo_4	POPTR_0001s47020.1	1500	C	T/C	51,4/48,6	73/69	142	stress_12	POPTR_0001s47020.1	1500	C	C/T	52,2/47,8	59/54	113
controllo_4	POPTR_0001s47020.1	1757	G	A/G	55,6/44,4	79/63	142	stress_12	POPTR_0001s47020.1	1757	G	G/A	57,0/43,0	81/61	142
controllo_4	POPTR_0006s04960.1	3873	A	G/A	50,7/49,3	72/70	142	stress_12	POPTR_0006s04960.1	3873	A	A/G	62,8/37,2	49/29	78
controllo_4	POPTR_0009s05240.1	327	T	C/T	58,5/41,5	83/59	142	stress_12	POPTR_0009s05240.1	327	T	T/C	54,4/45,6	68/57	125
controllo_4	POPTR_0010s07730.1	91	T	T/C	54,9/45,1	78/64	142	stress_12	POPTR_0010s07730.1	91	T	C/T	51,5/48,5	85/80	165
controllo_4	POPTR_0010s07730.1	270	A	A/G	68,3/31,7	97/45	142	stress_12	POPTR_0010s07730.1	270	A	A/G	70,9/29,1	122/50	172
controllo_4	POPTR_0013s10250.1	165	C	T/C	52,1/47,9	74/68	142	stress_12	POPTR_0013s10250.1	165	C	T/C	53,1/46,4	95/83	179
controllo_4	POPTR_0001s36560.1	642	C	A/C	57,4/42,6	81/60	141	stress_12	POPTR_0001s36560.1	642	C	A/C	52,3/47,7	67/61	128
controllo_4	POPTR_0002s14730.1	747	G	G/A	61,7/38,3	87/54	141	stress_12	POPTR_0002s14730.1	747	G	G/A	52,6/47,4	60/54	114
controllo_4	POPTR_0006s04960.1	3177	A	A/G	50,4/49,6	71/70	141	stress_12	POPTR_0006s04960.1	3177	A	A/G	52,6/47,4	41/37	78
controllo_4	POPTR_0006s08850.1	119	C	C/T	53,9/46,1	76/65	141	stress_12	POPTR_0006s08850.1	119	C	C/T	53,8/46,2	64/55	119
controllo_4	POPTR_0007s09630.1	584	G	G/A	70,9/29,1	100/41	141	stress_12	POPTR_0007s09630.1	584	G	G/A	60,4/39,6	84/55	139
controllo_4	POPTR_0012s09570.1	840	C	C/T	50,4/49,6	71/70	141	stress_12	POPTR_0012s09570.1	840	C	C/T	52,1/47,9	38/35	73
controllo_4	POPTR_0014s02410.1	929	A	A/T	56,0/44,0	79/62	141	stress_12	POPTR_0014s02410.1	929	A	T/A	58,0/42,0	51/37	88
controllo_4	POPTR_0018s11820.1	1098	T	T/C	56,7/43,3	80/61	141	stress_12	POPTR_0018s11820.1	1098	T	T/C	50,3/49,7	80/79	159
controllo_4	POPTR_0001s26410.1	150	T	T/C	67,1/32,9	94/46	140	stress_12	POPTR_0001s26410.1	150	T	T/C	63,1/36,9	41/24	65
controllo_4	POPTR_0002s03020.1	683	C	C/A	75,7/24,3	106/34	140	stress_12	POPTR_0002s03020.1	683	C	C/A	66,2/33,8	90/46	136
controllo_4	POPTR_0004s10660.1	447	T	A/T	53,6/46,4	75/65	140	stress_12	POPTR_0004s10660.1	447	T	A/T	51,1/48,2	71/67	139
controllo_4	POPTR_0005s11500.1	684	A	A/G	58,6/41,4	82/58	140	stress_12	POPTR_0005s11500.1	684	A	A/G	56,8/43,2	121/92	213
controllo_4	POPTR_0005s20920.1	273	C	C/A	50,7/49,3	71/69	140	stress_12	POPTR_0005s20920.1	273	C	C/A	53,8/46,2	56/48	104
controllo_4	POPTR_0007s09630.1	597	A	A/T	65,7/34,3	92/48	140	stress_12	POPTR_0007s09630.1	597	A	A/T	57,9/42,1	70/51	121
controllo_4	POPTR_0009s05240.1	945	G	G/A	61,4/38,6	86/54	140	stress_12	POPTR_0009s05240.1	945	G	A/G	53,0/47,0	87/77	164
controllo_4	POPTR_0010s16860.1	201	A	A/G	63,6/35,7	89/50	140	stress_12	POPTR_0010s16860.1	201	A	A/G	72,5/27,5	293/111	404
controllo_4	POPTR_0012s07060.1	381	G	G/A	54,3/45,7	76/64	140	stress_12	POPTR_0012s07060.1	381	G	A/G	51,9/48,1	55/51	106
controllo_4	POPTR_0006s04960.1	2832	C	C/A	55,4/43,9	77/61	139	stress_12	POPTR_0006s04960.1	2832	C	C/A	56,6/43,4	43/33	76
controllo_4	POPTR_0007s13800.1	1000	T	T/G	50,4/48,9	70/68	139	stress_12	POPTR_0007s13800.1	1000	T	T/G	58,0/42,0	29/21	50
controllo_4	POPTR_0008s05470.1	1641	T	A/T	54,0/46,0	75/64	139	stress_12	POPTR_0008s05470.1	1641	T	A/T	75,0/25,0	42/14	56
controllo_4	POPTR_0008s05470.1	1779	C	C/A	63,3/36,7	88/51	139	stress_12	POPTR_0008s05470.1	1779	C	C/A	75,5/24,5	40/13	53
controllo_4	POPTR_0009s08520.1	498	T	G/T	54,7/45,3	76/63	139	stress_12	POPTR_0009s08520.1	498	T	G/T	53,7/46,3	101/87	188
controllo_4	POPTR_0012s09570.1	837	C	A/T	51,8/48,2	72/67	139	stress_12	POPTR_0012s09570.1	837	C	T/A	53,3/46,7	40/35	75
controllo_4	POPTR_0002s03020.1	663	A	A/T	76,8/23,2	106/32	138	stress_12	POPTR_0002s03020.1	663	A	A/T	73,4/26,6	91/33	124
controllo_4	POPTR_0002s22560.1	678	T	T/C	64,5/35,5	89/49	138	stress_12	POPTR_0002s22560.1	678	T	T/C	53,5/46,5	185/161	346
controllo_4	POPTR_0003s01450.1	744	G	A/G	57,2/42,8	79/59	138	stress_12	POPTR_0003s01450.1	744	G	G/A	52,0/48,0	26/24	50
controllo_4	POPTR_0006s10040.1	324	A	A/G	51,4/48,6	71/67	138	stress_12	POPTR_0006s10040.1	324	A	G/A	52,8/47,2	86/77	163
controllo_4	POPTR_0010s05170.1	243	T	T/A	76,1/23,9	105/33	138	stress_12	POPTR_0010s05170.1	243	T	A/T	68,5/31,5	87/40	127
controllo_4	POPTR_0010s07730.1	120	C	C/A	55,1/44,9	76/62	138	stress_12	POPTR_0010s07730.1	120	C	C/A	51,8/48,2	85/79	164
controllo_4	POPTR_0011s12680.1	262	G	G/A	58,0/42,0	80/58	138	stress_12	POPTR_0011s12680.1	262	G	G/A	53,7/46,3	36/31	67
controllo_4	POPTR_0018s01830.1	278	T	T/C	79,7/20,3	110/28	138	stress_12	POPTR_0018s01830.1	278	T	T/C	74,1/25,9	120/42	162
controllo_4	POPTR_0004s10660.1	363	C	C/T	66,4/33,6	91/46	137	stress_12	POPTR_0004s10660.1	363	C	C/T	52,3/47,7	81/74	155
controllo_4	POPTR_0010s20060.1	840	T	T/A	56,9/42,3	78/58	137	stress_12	POPTR_0010s20060.1	840	T	T/A	58,9/40,4	89/61	151
controllo_4	POPTR_0010s21280.1	1485	G	G/A	61,3/36,5	84/50	137	stress_12	POPTR_0010s21280.1	1485	G	G/A	76,2/23,8	170/53	223
controllo_4	POPTR_0014s02410.1	813	A	A/G	56,2/43,8	77/60	137	stress_12	POPTR_0014s02410.1	813	A	G/A	50,4/49,6	65/64	129
controllo_4	POPTR_0001s41780.1	121	A	A/G	62,5/37,5	85/51	136	stress_12	POPTR_0001s41780.1	121	A	G/A	56,2/43,8	18/14	32
controllo_4	POPTR_0003s19210.1	333	A	C/A	55,9/44,1	76/60	136	stress_12	POPTR_0003s19210.1	333	A	C/A	51,2/48,8	63/60	123
controllo_4	POPTR_0005s20920.1	417	A	G/A	57,4/42,6	78/58	136	stress_12	POPTR_0005s20920.1	417	A	A/G	52,7/47,3	49/44	93
controllo_4	POPTR_0010s21270.1	918	A	A/T	57,4/42,6	78/58	136	stress_12	POPTR_0010s21270.1	918	A	A/T	61,0/39,0	83/53	136
controllo_4	POPTR_0011s12680.1	171	G	G/A	70,6/29,4	96/40	136	stress_12	POPTR_0011s12680.1	171	G	G/A	52,4/47,6	33/30	63
controllo_4	POPTR_0014s11580.1	226	G	C/G	73,5/26,5	100/36	136	stress_12	POPTR_0014s11580.1	226	G	C/G	79,5/20,5	62/16	78
controllo_4	POPTR_0006s10040.1	235	T	C/T	51,9/48,1	70/65	135	stress_12	POPTR_0006s10040.1	235	T	C/T	51,9/48,1	70/65	135
controllo_4	POPTR_0010s09960.1	588	G	G/A	57,8/42,2	78/57	135	stress_12	POPTR_0010s09960.1	588	G	G/A	53,4/46,6	71/62	133
controllo_4	POPTR_0012s09570.1	279	A	C/A	52,6/47,4	71/64	135	stress_12	POPTR_0012s09570.1	279	A	C/A	52,1/46,8	49/44	94
controllo_4	POPTR_0001s35230.1	345	A	A/G	74,6/25,4	100/34	134	stress_12	POPTR_0001s35230.1	345	A	A/G	68,5/31,5	102/47	149
controllo_4	POPTR_0007s09630.1	126	G	G/C	55,2/44,8	74/60	134	stress_12	POPTR_0007s09630.1	126	G	G/C	50,4/49,6	60/59	119
controllo_4	POPTR_0014s02410.1	320	T	T/A	76,9/23,1	103/31	134	stress_12	POPTR_0014s02410.1	320	T	T/A	68,6/30,5	72/32	105
controllo_4	POPTR_0016s00260.1	829	G	G/T	68,7/31,3	92/42	134	stress_12	POPTR_0016s00260.1	829	G	T/G	60,0/40,0	6/4	10
controllo_4	POPTR_0005s22830.1	348	A	A/G	55,6/44,4	74/59	133	stress_12	POPTR_0005s22830.1	348	A	G/A	57,8/42,2	85/62	147
controllo_4	POPTR_0005s26930.1	532	C	T/C	59,8/40,2	79/53	132	stress_12	POPTR_0005s26930.1	532	C	C/T	57,0/43,0	61/46	107
controllo_4	POPTR_0008s05470.1	111	C	C/G	54,5/33,3	72/44	132	stress_12	POPTR_0008s05470.1	111	C	C/T/G	58,0/23,5/18,5	47/19/15	81
controllo_4	POPTR_0010s21270.1	906	C	T/C	56,1/43,9	74/58	132	stress_12	POPTR_0010s21270.1	906	C	T/C	58,0/42,0	58/42	100
controllo_4	POPTR_0010s21270.1	948	C	T/C	72,0/28,0	95/37	132	stress_12	POPTR_0010s21270.1	948	C	T/C	66,3/33,7	114/58	172
controllo_4	POPTR_0012s09570.1	804	C	C/T	56,8/43,2	75/57	132	stress_12	POPTR_0012s09570.1	804	C	T/C	54,4/45,6	49/41	90
controllo_4	POPTR_0016s11610.1	1110	G	C/G	53,0/47,0	70/62	132	stress_12	POPTR_0016s11610.1	1110	G	C/G	58,2/41,8	57/41	98
controllo_4	POPTR_0017s06920.1	544	G	G/A	64,4/35,6	85/47	132	stress_12	POPTR_0017s06920.1	544	G	G/A	59,4/40,6	95/65	160
controllo_4	POPTR_0001s41780.1	123	C	C/T	65,6/34,4	86/45	131	stress_12	POPTR_0001s41780.1	123	C	C/T	50,0/50,0	15/15	30
controllo_4	POPTR_0003s09830.1	894	T	T/C	58,0/41,2	76/54	131	stress_12	POPTR_0003s09830.1	894	T	T/C	59,0/41,0	59/41	100
controllo_4	POPTR_0004s10660.1	459	G	G/T	64,1/35,9	84/47	131	stress_12	POPTR_0004s10660.1	459	G	G/T	54,4/45,6	74/62	136
controllo_4	POPTR_0005s20920.1	79	G	G/C	56,5/43,5	74/57	131	stress_12	POPTR_0005s20920.1	79	G	C/G	50,5/49,5	46/45	91
controllo_4	POPTR_0009s05240.1	150	T	T/C	52,7/47,3	69/62	131	stress_12	POPTR_0009s05240.1	150	T	C/T	53,7/46,3	87/75	162
controllo_4	POPTR_0010s18770.1	856	C	T/C	53,4/46,6	70/61	131	stress_12	POPTR_0010s18770.1	856	C	C/T	54,5/45,5	54/45	99
controllo_4	POPTR_0011s08940.1	786	G	G/T	57,3/42,7	75/56	131	stress_12	POPTR_0011s08940.1	786	G	G/T	50,2/49,8	136/135	271
controllo_4	POPTR_0001s01630.1	666	C	C/T	63,8/36,2	83/47	130	stress_12	POPTR_0001s01630.1	666	C	C/T	55,6/44,4	55/44	99
controllo_4	POPTR_0002s19710.1	117	C	G/C	56,9/42,3	74/55	130	stress_12	POPTR_0002s19710.1	117	C	G/C	55,4/44,6	108/87	195
controllo_4	POPTR_0005s20920.1	64	C	C/T	50,8/49,2	66/64	130	stress_12	POPTR_0005s20920.1	64	C	T/C	53,3/46,7	56/49	105
controllo_4	POPTR_0005s22830.1	589	G	A/G	50,8/49,2	66/64	130	stress_12	POPTR_0005s22830.1	589	G	G/A	52,0/48,0	66/61	127
controllo_4	POPTR_0005s22830.1	316	G	G/A	54,6/45,4	71/59	130	stress_12	POPTR_0005s22830.1	316	G	A/G	55,9/44,1	71/56	127
controllo_4	POPTR_0005s26930.1	438	T	C/T	63,8/36,2	83/47	130	stress_12	POPTR_0005s26930.1	438	T	C/T	50,6/49,4	43/42	85
controllo_4	POPTR_0009s08520.1	53	C	C/G	53,8/46,2	70/60	130	stress_12	POPTR_0009s08520.1	53	C	C/G	51,2/48,8	86/82	168
controllo_4	POPTR_0010s16860.1	286	G	G/A	70,0/29,2	91/38	130	stress_12	POPTR_0010s16860.1	286	G	G/A	69,6/30,4	288/126	414
controllo_4	POPTR_0011s08940.1	408	C	T/C	55,4/43,8	72/57	130	stress_12	POPTR_0011s08940.1	408	C	C/T	55,6/44,4	145/116	261
controllo_4	POPTR_0012s07060.1	720	A	T/A	50,8/49,2	66/64	130	stress_12	POPTR_0012s07060.1	720	A	T/A	60,2/39,8	62/41	103
controllo_4	POPTR_0012s09570.1	877	C	C/A	52,3/47,7	68/62	130	stress_12	POPTR_0012s09570.1	877	C	C/A	57,1/42,9	40/30	70
controllo_4	POPTR_0019s05950.1	211	A	G/A	58,5/41,5	76/54	130	stress_12	POPTR_0019s05950.1	211	A	A/G	52,9/47,1	101/90	191
controllo_4	POPTR_0021s00380.1	699	A	C/A	58,5/41,5	76/54	130	stress_12	POPTR_0021s00380.1	699	A	C/A	59,3/39,3	86/57	145
controllo_4	POPTR_0001s01630.1	789	T	T/C	53,5/46,5	69/60	129	stress_12	POPTR_0001s01630.1	789	T	C/T	51,9/48,1	54/50	104
controllo_4	POPTR_0002s22560.1	169	A	T/A	63,6/36,4	82/47	129	stress_12	POPTR_0002s22560.1	169	A	T/A	58,3/41,7	203/145	348
controllo_4	POPTR_0008s14480.1	303	T	C/T	61,2/38,8	79/50	129	stress_12	POPTR_0008s14480.1	303	T	C/T	65,5/34,5	72/38	110
controllo_4	POPTR_0005s26930.1	613	T	T/A	63,3/36,7	81/47	128	stress_12	POPTR_0005s26930.1	613	T	T/A	57,0/43,0	53/40	93
controllo_4	POPTR_0009s05720.1	75	T	T/C	76,6/23,4	98/30	128	stress_12	POPTR_0009s05720.1	75	T	T/C	76,7/23,3	46/14	60
controllo_4	POPTR_0012s07060.1	204	C	T/C	51,6/48,4	66/62	128	stress_12	POPTR_0012s07060.1	204	C	T/C	58,6/41,4	58/41	99
controllo_4	POPTR_0014s02410.1	53	T	T/A	60,2/39,8	77/51	128	stress_12	POPTR_0014s02410.1	53	T	T/A	68,8/31,2	44/20	64
controllo_4	POPTR_0014s15710.1	624	G	A/G	50,8/49,2	65/63	128	stress_12	POPTR_0014s15710.1	624	G	G/A	54,3/45,7	146/123	269
controllo_4	POPTR_0015s11640.1	153	G	G/A	59,4/40,6	76/52	128	stress_12	POPTR_0015s11640.1	153	G	G/A	53,5/46,5	123/107	230
controllo_4	POPTR_0017s06920.1	537	T	G/T	67,2/32,8	86/42	128	stress_12	POPTR_0017s06920.1	537	T	G/T	64,0/35,5	110/61	172
controllo_4	POPTR_0002s14730.1	653	A	T/A	56,7/43,3	72/55	127	stress_12	POPTR_0002s14730.1	653	A	A/T	50,6/49,4	91/89	180
controllo_4	POPTR_0004s01990.1	327	T	T/C	56,7/43,3	72/55	127	stress_12	POPTR_0004s01990.1	327	T	T/C	70,9/29,1	39/16	55
controllo_4	POPTR_0005s20920.1	486	T	C/T	64,6/35,4	82/45	127	stress_12	POPTR_0005s20920.1	486	T	C/T	61,7/38,3	58/36	94
controllo_4	POPTR_0006s04960.1	3894	A	A/G	53,5/46,5	68/59	127	stress_12	POPTR_0006s04960.1	3894	A	A/G	53,9/46,1	41/35	76
controllo_4	POPTR_0006s10040.1	126	G	G/A	55,9/44,1	71/56	127	stress_12	POPTR_0006s10040.1	126	G	G/A	51,3/48,7	96/91	187
controllo_4	POPTR_0010s21280.1	702	T	T/A	82,7/17,3	105/22	127	stress_12	POPTR_0010s21280.1	702	T	T/A	76,5/23,5	140/43	183
controllo_4	POPTR_0011s14410.1	360	A	A/G	52,8/47,2	67/60	127	stress_12	POPTR_0011s14410.1	360	A	G/A	58,7/41,3	64/45	109
controllo_4	POPTR_0016s07280.1	412	C	C/A	50,4/49,6	64/63	127	stress_12	POPTR_0016s07280.1	412	C	A/C	57,4/42,6	58/43	101
controllo_4	POPTR_0002s03020.1	246	G	G/C	54,0/46,0	68/58	126	stress_12	POPTR_0002s03020.1	246	G	G/C	51,2/48,8	66/63	129
controllo_4	POPTR_0006s04960.1	3039	T	T/C	50,8/49,2	64/62	126	stress_12	POPTR_0006s04960.1	3039	T	C/T	51,4/48,6	38/36	74
controllo_4	POPTR_0007s13800.1	585	C	C/T	52,4/47,6	66/60	126	stress_12	POPTR_0007s13800.1	585	C	C/T	72,1/27,9	31/12	43
controllo_4	POPTR_0001s08770.1	1083	G	A/G	57,6/42,4	72/53	125	stress_12	POPTR_0001s08770.1	1083	G	A/G	50,0/50,0	61/61	122
controllo_4	POPTR_0005s22830.1	354	C	T/C	58,4/41,6	73/52	125	stress_12	POPTR_0005s22830.1	354	C	C/T	54,2/45,8	78/66	144
controllo_4	POPTR_0005s26930.1	585	G	G/A	68,0/32,0	85/40	125	stress_12	POPTR_0005s26930.1	585	G	G/A	68,7/31,3	46/21	67
controllo_4	POPTR_0006s08850.1	102	T	T/G	58,4/41,6	73/52	125	stress_12	POPTR_0006s08850.1	102	T	T/G	55,9/44,1	62/49	111
controllo_4	POPTR_0006s14630.1	104	C	C/A	53,6/46,4	67/58	125	stress_12	POPTR_0006s14630.1	104	C	C/A	52,8/47,2	28/25	53
controllo_4	POPTR_0011s05670.1	793	A	A/C	57,6/42,4	72/53	125	stress_12	POPTR_0011s05670.1	793	A	A/C	53,0/47,0	44/39	83
controllo_4	POPTR_0015s09990.1	279	T	T/C	55,2/44,0	69/55	125	stress_12	POPTR_0015s09990.1	279	T	T/C	57,9/42,1	44/32	76
controllo_4	POPTR_0001s18210.1	63	T	A/T	53,2/46,8	66/58	124	stress_12	POPTR_0001s18210.1	63	T	T/A	54,3/45,7	76/64	140
controllo_4	POPTR_0001s41780.1	633	A	A/G	58,1/41,9	72/52	124	stress_12	POPTR_0001s41780.1	633	A	A/G	66,7/33,3	10/5	15
controllo_4	POPTR_0002s14730.1	1578	G	A/G	58,1/41,9	72/52	124	stress_12	POPTR_0002s14730.1	1578	G	A/G	56,2/43,8	68/53	121
controllo_4	POPTR_0005s22830.1	107	C	C/T	50,8/49,2	63/61	124	stress_12	POPTR_0005s22830.1	107	C	C/T	55,6/44,4	80/64	144
controllo_4	POPTR_0005s26930.1	591	A	A/G	66,1/33,9	82/42	124	stress_12	POPTR_0005s26930.1	591	A	A/G	65,5/34,5	38/20	58
controllo_4	POPTR_0014s02410.1	55	G	G/A	58,9/41,1	73/51	124	stress_12	POPTR_0014s02410.1	55	G	G/A	68,7/31,3	46/21	67
controllo_4	POPTR_0005s25540.1	1053	T	T/C	74,0/25,2	91/31	123	stress_12	POPTR_0005s25540.1	1053	T	T/C	71,7/28,3	43/17	60
controllo_4	POPTR_1545s00200.1	93	A	C/A	66,7/33,3	82/41	123	stress_12	POPTR_1545s00200.1	93	A	C/A	53,0/47,0	71/63	134
controllo_4	POPTR_0006s10040.1	178	G	G/T	50,8/49,2	62/60	122	stress_12	POPTR_0006s10040.1	178	G	T/G	55,2/44,2	85/68	154
controllo_4	POPTR_0008s15770.1	122	G	G/C	81,1/18,9	99/23	122	stress_12	POPTR_0008s15770.1	122	G	C/G	51,9/48,1	364/338	702
controllo_4	POPTR_0001s31700.1	669	C	C/T	51,2/48,8	62/59	121	stress_12	POPTR_0001s31700.1	669	C	T/C	51,5/48,5	69/65	134
controllo_4	POPTR_0006s04960.1	2719	A	A/G	52,1/47,9	63/58	121	stress_12	POPTR_0006s04960.1	2719	A	A/G	55,4/44,6	31/25	56
controllo_4	POPTR_0008s10020.1	984	C	A/C	50,4/49,6	61/60	121	stress_12	POPTR_0008s10020.1	984	C	C/A	54,4/44,1	37/30	68
controllo_4	POPTR_0001s47020.1	1719	T	T/C	55,0/44,2	66/53	120	stress_12	POPTR_0001s47020.1	1719	T	T/C	53,9/46,1	55/47	102
controllo_4	POPTR_0002s01320.1	177	A	A/T	50,0/50,0	60/60	120	stress_12	POPTR_0002s01320.1	177	A	A/T	53,9/46,1	103/88	191
controllo_4	POPTR_0002s01320.1	849	T	T/G	53,3/46,7	64/56	120	stress_12	POPTR_0002s01320.1	849	T	T/G	51,6/48,4	126/118	244
controllo_4	POPTR_0006s12910.1	780	T	G/A	58,3/41,7	70/50	120	stress_12	POPTR_0006s12910.1	780	T	G/A	59,1/40,9	78/54	132
controllo_4	POPTR_0014s15710.1	106	T	T/C	55,8/44,2	67/53	120	stress_12	POPTR_0014s15710.1	106	T	C/T	58,2/41,8	113/81	194
controllo_4	POPTR_0016s02570.1	261	T	T/A	71,7/28,3	86/34	120	stress_12	POPTR_0016s02570.1	261	T	T/A	77,4/22,6	48/14	62
controllo_4	POPTR_0001s31700.1	564	C	C/T	58,8/41,2	70/49	119	stress_12	POPTR_0001s31700.1	564	C	C/T	60,3/39,7	79/52	131
controllo_4	POPTR_0001s36560.1	261	G	A/G	54,6/45,4	65/54	119	stress_12	POPTR_0001s36560.1	261	G	A/G	51,9/48,1	56/52	108
controllo_4	POPTR_0001s47020.1	1869	T	G/T	52,1/47,9	62/57	119	stress_12	POPTR_0001s47020.1	1869	T	G/T	54,5/45,5	60/50	110
controllo_4	POPTR_0002s14730.1	1467	C	C/T	65,5/34,5	78/41	119	stress_12	POPTR_0002s14730.1	1467	C	C/T	66,4/33,6	87/44	131
controllo_4	POPTR_0005s26170.1	234	T	T/C	59,7/40,3	71/48	119	stress_12	POPTR_0005s26170.1	234	T	T/C	67,6/32,4	92/44	136
controllo_4	POPTR_0008s06580.1	645	T	G/T	80,7/19,3	96/23	119	stress_12	POPTR_0008s06580.1	645	T	G/T	55,1/44,9	49/40	89
controllo_4	POPTR_0011s14410.1	120	C	C/G	49,6/49,6	59/59	119	stress_12	POPTR_0011s14410.1	120	C	C/G	52,9/47,1	64/57	121
controllo_4	POPTR_0014s02410.1	70	T	C/T	52,1/47,9	62/57	119	stress_12	POPTR_0014s02410.1	70	T	C/T	63,5/36,5	47/27	74
controllo_4	POPTR_0018s11820.1	181	C	C/A	56,3/42,9	67/51	119	stress_12	POPTR_0018s11820.1	181	C	C/A	63,9/36,1	85/48	133
controllo_4	POPTR_0001s36560.1	631	C	A/C	53,4/46,6	63/55	118	stress_12	POPTR_0001s36560.1	631	C	C/A	53,1/46,9	51/45	96
controllo_4	POPTR_0002s22560.1	136	A	A/T	63,6/36,4	75/43	118	stress_12	POPTR_0002s22560.1	136	A	A/T	56,6/43,4	185/142	327
controllo_4	POPTR_0012s07040.1	381	G	A/G	50,8/49,2	60/58	118	stress_12	POPTR_0012s07040.1	381	G	A/G	51,4/48,6	73/69	142
controllo_4	POPTR_0018s11820.1	990	C	C/G	62,7/37,3	74/44	118	stress_12	POPTR_0018s11820.1	990	C	C/G	65,4/34,6	89/47	136
controllo_4	POPTR_0001s21740.1	387	T	C/T	51,3/48,7	60/57	117	stress_12	POPTR_0001s21740.1	387	T	C/T	50,9/48,3	59/56	116
controllo_4	POPTR_0001s47020.1	1908	T	T/C	55,6/44,4	65/52	117	stress_12	POPTR_0001s47020.1	1908	T	T/C	52,3/47,7	56/51	107
controllo_4	POPTR_0006s12910.1	124	A	A/C	52,1/47,9	61/56	117	stress_12	POPTR_0006s12910.1	124	A	A/C	53,4/46,6	62/54	116
controllo_4	POPTR_0017s06920.1	999	A	C/A	54,7/44,4	64/52	117	stress_12	POPTR_0017s06920.1	999	A	C/A	60,7/39,3	82/53	135
controllo_4	POPTR_0018s01830.1	453	G	T/G	64,1/35,9	75/42	117	stress_12	POPTR_0018s01830.1	453	G	T/G	66,0/34,0	66/34	100
controllo_4	POPTR_0001s38810.1	84	T	T/C	53,4/45,7	62/53	116	stress_12	POPTR_0001s38810.1	84	T	T/C	60,7/39,3	74/48	122
controllo_4	POPTR_0006s12910.1	132	T	T/A	54,3/45,7	63/53	116	stress_12	POPTR_0006s12910.1	132	T	A/T	53,1/46,9	68/60	128
controllo_4	POPTR_0006s12910.1	798	T	T/C	56,0/44,0	65/51	116	stress_12	POPTR_0006s12910.1	798	T	T/C	62,0/36,5	85/50	137
controllo_4	POPTR_0008s06580.1	232	G	G/T	78,4/21,6	91/25	116	stress_12	POPTR_0008s06580.1	232	G	G/T	55,7/44,3	54/43	97
controllo_4	POPTR_0010s16060.1	106	C	C/A	62,1/37,9	72/44	116	stress_12	POPTR_0010s16060.1	106	C	A/C	82,2/17,8	74/16	90
controllo_4	POPTR_0014s15710.1	105	A	A/G	56,9/43,1	66/50	116	stress_12	POPTR_0014s15710.1	105	A	G/A	56,9/42,6	107/80	188
controllo_4	POPTR_0015s11640.2	429	C	T/C	59,5/40,5	69/47	116	stress_12	POPTR_0015s11640.2	429	C	T/C	51,0/49,0	126/121	247
controllo_4	POPTR_0019s11720.1	429	C	C/A	53,4/46,6	62/54	116	stress_12	POPTR_0019s11720.1	429	C	C/A	53,2/46,8	25/22	47
controllo_4	POPTR_0001s02500.1	772	C	C/T	50,4/49,6	58/57	115	stress_12	POPTR_0001s02500.1	772	C	T/C	59,3/40,7	35/24	59
controllo_4	POPTR_0001s31700.1	972	A	T/A	52,2/47,0	60/54	115	stress_12	POPTR_0001s31700.1	972	A	A/T	54,5/44,3	48/39	88
controllo_4	POPTR_0001s47210.1	165	G	C/G	59,1/40,9	68/47	115	stress_12	POPTR_0001s47210.1	165	G	C/G	60,0/40,0	18/12	30
controllo_4	POPTR_0002s14730.1	1246	C	T/C	51,3/48,7	59/56	115	stress_12	POPTR_0002s14730.1	1246	C	C/T	54,1/45,9	85/72	157
controllo_4	POPTR_0002s14730.1	537	T	T/G	53,0/46,1	61/53	115	stress_12	POPTR_0002s14730.1	537	T	T/G	53,9/46,1	69/59	128
controllo_4	POPTR_0002s14730.1	357	T	C/T	55,7/44,3	64/51	115	stress_12	POPTR_0002s14730.1	357	T	C/T	54,0/46,0	61/52	113
controllo_4	POPTR_0005s20920.1	57	T	T/A	52,2/47,8	60/55	115	stress_12	POPTR_0005s20920.1	57	T	T/A	53,4/45,5	47/40	88
controllo_4	POPTR_0021s00380.1	213	G	G/A	68,7/31,3	79/36	115	stress_12	POPTR_0021s00380.1	213	G	G/A	68,0/32,0	87/41	128
controllo_4	POPTR_0001s01630.1	405	C	C/T	65,8/34,2	75/39	114	stress_12	POPTR_0001s01630.1	405	C	C/T	63,4/36,6	52/30	82
controllo_4	POPTR_0001s02500.1	429	A	G/A	57,0/43,0	65/49	114	stress_12	POPTR_0001s02500.1	429	A	G/A	61,7/38,3	29/18	47
controllo_4	POPTR_0001s47020.1	1972	C	A/C	50,9/48,2	58/55	114	stress_12	POPTR_0001s47020.1	1972	C	C/A	60,0/40,0	60/40	100
controllo_4	POPTR_0002s11310.1	243	T	A/T	64,0/35,1	73/40	114	stress_12	POPTR_0002s11310.1	243	T	T/A	62,2/37,8	61/37	98
controllo_4	POPTR_0005s26930.1	192	A	A/G	64,9/35,1	74/40	114	stress_12	POPTR_0005s26930.1	192	A	A/G	49,4/49,4	39/39	79
controllo_4	POPTR_0016s07220.1	183	T	C/T	54,4/45,6	62/52	114	stress_12	POPTR_0016s07220.1	183	T	T/C	51,7/48,3	30/28	58
controllo_4	POPTR_0001s31700.1	960	C	C/T	56,6/43,4	64/49	113	stress_12	POPTR_0001s31700.1	960	C	C/T	50,7/49,3	37/36	73
controllo_4	POPTR_0001s47020.1	1257	T	C/T	60,2/39,8	68/45	113	stress_12	POPTR_0001s47020.1	1257	T	T/C	50,5/49,5	50/49	99
controllo_4	POPTR_0007s09630.1	115	G	G/A	52,2/47,8	59/54	113	stress_12	POPTR_0007s09630.1	115	G	G/A	56,0/44,0	56/44	100
controllo_4	POPTR_0009s08520.1	312	T	T/C	69,9/30,1	79/34	113	stress_12	POPTR_0009s08520.1	312	T	T/C	71,4/28,6	90/36	126
controllo_4	POPTR_0011s14410.1	119	A	G/A	51,3/48,7	58/55	113	stress_12	POPTR_0011s14410.1	119	A	G/A	52,9/47,1	64/57	121
controllo_4	POPTR_0002s03020.1	468	T	T/C	67,0/33,0	75/37	112	stress_12	POPTR_0002s03020.1	468	T	T/C	52,9/47,1	72/64	136
controllo_4	POPTR_0002s22560.1	124	C	T/C	64,3/35,7	72/40	112	stress_12	POPTR_0002s22560.1	124	C	T/C	60,2/39,8	180/119	299
controllo_4	POPTR_0008s10020.1	1224	T	T/C	55,4/44,6	62/50	112	stress_12	POPTR_0008s10020.1	1224	T	T/C	50,6/49,4	41/40	81
controllo_4	POPTR_0011s12680.1	564	C	C/T	50,0/50,0	56/56	112	stress_12	POPTR_0011s12680.1	564	C	T/C	50,7/49,3	38/37	75
controllo_4	POPTR_0012s09570.1	717	T	T/C	57,1/42,9	64/48	112	stress_12	POPTR_0012s09570.1	717	T	T/C	55,1/44,9	43/35	78
controllo_4	POPTR_0013s10250.1	294	C	C/T	52,7/47,3	59/53	112	stress_12	POPTR_0013s10250.1	294	C	C/T	53,8/46,2	85/73	158
controllo_4	POPTR_0018s01830.1	358	G	T/G	78,6/21,4	88/24	112	stress_12	POPTR_0018s01830.1	358	G	T/G	72,4/27,6	118/45	163
controllo_4	POPTR_0001s08770.1	1179	T	G/T	56,8/43,2	63/48	111	stress_12	POPTR_0001s08770.1	1179	T	T/G	51,9/48,1	70/65	135
controllo_4	POPTR_0006s27030.1	20	T	C/T	56,8/43,2	63/48	111	stress_12	POPTR_0006s27030.1	20	T	C/T	58,5/41,5	55/39	94
controllo_4	POPTR_0008s13780.1	688	G	G/A	58,6/41,4	65/46	111	stress_12	POPTR_0008s13780.1	688	G	G/A	55,8/44,2	24/19	43
controllo_4	POPTR_0009s02070.1	550	A	A/C	53,2/46,8	59/52	111	stress_12	POPTR_0009s02070.1	550	A	A/C	60,8/37,8	45/28	74
controllo_4	POPTR_0010s21270.1	199	A	G/A	64,0/36,0	71/40	111	stress_12	POPTR_0010s21270.1	199	A	G/A	62,2/37,8	74/45	119
controllo_4	POPTR_0013s10250.1	501	G	T/G	54,1/45,9	60/51	111	stress_12	POPTR_0013s10250.1	501	G	G/T	51,4/48,6	56/53	109
controllo_4	POPTR_0017s06920.1	180	C	C/T	68,5/31,5	76/35	111	stress_12	POPTR_0017s06920.1	180	C	C/T	67,9/32,1	112/53	165
controllo_4	POPTR_0018s11820.1	204	A	A/G	52,3/47,7	58/53	111	stress_12	POPTR_0018s11820.1	204	A	A/G	62,0/38,0	80/49	129
controllo_4	POPTR_0001s26410.1	171	T	T/C	59,1/40,9	65/45	110	stress_12	POPTR_0001s26410.1	171	T	T/C	52,0/48,0	26/24	50
controllo_4	POPTR_0002s22560.1	465	C	T/C	63,6/36,4	70/40	110	stress_12	POPTR_0002s22560.1	465	C	T/C	62,5/37,5	237/142	379
controllo_4	POPTR_0005s21570.1	232	C	T/C	73,6/26,4	81/29	110	stress_12	POPTR_0005s21570.1	232	C	T/C	76,9/23,1	100/30	130
controllo_4	POPTR_0005s23110.1	525	G	A/G	60,9/39,1	67/43	110	stress_12	POPTR_0005s23110.1	525	G	A/G	71,2/28,8	57/23	80
controllo_4	POPTR_0005s25540.1	153	C	C/T	73,6/26,4	81/29	110	stress_12	POPTR_0005s25540.1	153	C	C/T	76,9/23,1	40/12	52
controllo_4	POPTR_0006s12910.1	379	G	A/G	52,7/47,3	58/52	110	stress_12	POPTR_0006s12910.1	379	G	G/A	66,3/33,7	69/35	104
controllo_4	POPTR_0006s12910.1	250	G	G/C	60,9/39,1	67/43	110	stress_12	POPTR_0006s12910.1	250	G	G/C	54,1/45,9	66/56	122
controllo_4	POPTR_0008s06580.1	242	A	C/A	75,5/24,5	83/27	110	stress_12	POPTR_0008s06580.1	242	A	A/C	53,5/46,5	46/40	86
controllo_4	POPTR_0010s17860.1	248	G	G/C	55,5/44,5	61/49	110	stress_12	POPTR_0010s17860.1	248	G	C/G	50,8/49,2	32/31	63
controllo_4	POPTR_0010s21270.1	957	T	T/C	75,5/24,5	83/27	110	stress_12	POPTR_0010s21270.1	957	T	T/C	72,1/27,9	106/41	147
controllo_4	POPTR_0015s11640.1	93	T	G/T	54,5/45,5	60/50	110	stress_12	POPTR_0015s11640.1	93	T	T/G	54,2/45,8	122/103	225
controllo_4	POPTR_0019s11720.1	349	T	T/A	53,6/46,4	59/51	110	stress_12	POPTR_0019s11720.1	349	T	A/T	51,1/48,9	24/23	47
controllo_4	POPTR_0002s01320.1	345	C	T/C	61,5/38,5	67/42	109	stress_12	POPTR_0002s01320.1	345	C	T/C	56,8/43,2	104/79	183
controllo_4	POPTR_0002s14730.1	240	G	G/C	55,0/45,0	60/49	109	stress_12	POPTR_0002s14730.1	240	G	G/C	53,4/46,6	55/48	103
controllo_4	POPTR_0005s26170.1	249	A	G/A	65,1/34,9	71/38	109	stress_12	POPTR_0005s26170.1	249	A	G/A	68,3/31,7	99/46	145
controllo_4	POPTR_0008s05480.1	24	G	T/G	52,3/47,7	57/52	109	stress_12	POPTR_0008s05480.1	24	G	G/T	54,2/45,8	77/65	142
controllo_4	POPTR_0008s05480.1	384	T	T/C	68,8/31,2	75/34	109	stress_12	POPTR_0008s05480.1	384	T	T/C	62,7/37,3	94/56	150
controllo_4	POPTR_0009s05240.1	507	A	A/G	55,0/45,0	60/49	109	stress_12	POPTR_0009s05240.1	507	A	A/G	52,2/47,8	70/64	134
controllo_4	POPTR_0001s01630.1	1104	C	A/C	56,5/43,5	61/47	108	stress_12	POPTR_0001s01630.1	1104	C	A/C	52,6/47,4	50/45	95
controllo_4	POPTR_0006s08850.1	71	G	G/A	70,4/29,6	76/32	108	stress_12	POPTR_0006s08850.1	71	G	G/A	64,1/35,9	66/37	103
controllo_4	POPTR_0006s10080.1	1158	T	C/T	64,8/35,2	70/38	108	stress_12	POPTR_0006s10080.1	1158	T	C/T	68,8/31,2	33/15	48
controllo_4	POPTR_0008s05410.1	1386	T	A/T	61,1/38,9	66/42	108	stress_12	POPTR_0008s05410.1	1386	T	A/T	59,3/40,7	99/68	167
controllo_4	POPTR_0008s05480.1	375	C	T/C	63,0/37,0	68/40	108	stress_12	POPTR_0008s05480.1	375	C	T/C	55,5/44,5	91/73	164
controllo_4	POPTR_0010s20060.1	873	A	A/G	72,2/27,8	78/30	108	stress_12	POPTR_0010s20060.1	873	A	A/G	70,8/29,2	85/35	120
controllo_4	POPTR_0010s20060.1	280	C	C/A	75,0/25,0	81/27	108	stress_12	POPTR_0010s20060.1	280	C	C/A	72,6/27,4	90/34	124
controllo_4	POPTR_0010s26200.1	180	T	G/T	50,9/49,1	55/53	108	stress_12	POPTR_0010s26200.1	180	T	G/T	53,0/47,0	88/78	166
controllo_4	POPTR_0013s13190.1	348	C	C/T	50,0/50,0	54/54	108	stress_12	POPTR_0013s13190.1	348	C	C/T	53,1/46,9	68/60	128
controllo_4	POPTR_0001s47210.1	804	G	A/G	58,9/41,1	63/44	107	stress_12	POPTR_0001s47210.1	804	G	A/G	64,5/35,5	20/11	31
controllo_4	POPTR_0002s03020.1	51	C	A/C	58,9/41,1	63/44	107	stress_12	POPTR_0002s03020.1	51	C	A/C	56,3/43,7	58/45	103
controllo_4	POPTR_0002s03020.1	645	C	C/T	84,1/15,9	90/17	107	stress_12	POPTR_0002s03020.1	645	C	C/T	83,2/16,8	79/16	95
controllo_4	POPTR_0006s02810.1	784	T	C/T	54,2/45,8	58/49	107	stress_12	POPTR_0006s02810.1	784	T	T/C	60,7/39,3	34/22	56
controllo_4	POPTR_0006s04960.1	3799	A	G/A	57,0/43,0	61/46	107	stress_12	POPTR_0006s04960.1	3799	A	G/A	50,7/49,3	36/35	71
controllo_4	POPTR_0007s14280.1	1321	C	C/A	61,7/38,3	66/41	107	stress_12	POPTR_0007s14280.1	1321	C	C/A	66,7/33,3	10/5	15
controllo_4	POPTR_0010s03010.1	741	T	C/T	57,9/42,1	62/45	107	stress_12	POPTR_0010s03010.1	741	T	T/C	53,7/46,3	36/31	67
controllo_4	POPTR_0010s05170.1	164	C	T/C	56,1/43,9	60/47	107	stress_12	POPTR_0010s05170.1	164	C	C/T	50,0/50,0	8/8	16
controllo_4	POPTR_0014s06380.1	286	T	T/C	60,7/39,3	65/42	107	stress_12	POPTR_0014s06380.1	286	T	T/C	52,2/47,8	60/55	115
controllo_4	POPTR_0001s47020.1	1273	T	A/T	51,9/48,1	55/51	106	stress_12	POPTR_0001s47020.1	1273	T	T/A	57,3/42,7	51/38	89
controllo_4	POPTR_0003s01090.1	225	C	C/T	70,8/29,2	75/31	106	stress_12	POPTR_0003s01090.1	225	C	C/T	61,9/38,1	83/51	134
controllo_4	POPTR_0004s16920.1	582	A	A/G	50,0/50,0	53/53	106	stress_12	POPTR_0004s16920.1	582	A	G/A	56,7/42,8	114/86	201
controllo_4	POPTR_0008s15780.1	376	A	A/T	79,2/20,8	84/22	106	stress_12	POPTR_0008s15780.1	376	A	A/T	71,8/28,2	278/109	387
controllo_4	POPTR_0010s18770.1	618	G	G/A	57,5/42,5	61/45	106	stress_12	POPTR_0010s18770.1	618	G	G/A	51,4/48,6	37/35	72
controllo_4	POPTR_0016s10780.1	258	C	G/C	62,3/37,7	66/40	106	stress_12	POPTR_0016s10780.1	258	C	G/C	70,8/29,2	46/19	65
controllo_4	POPTR_0001s41780.1	59	G	G/A	61,9/38,1	65/40	105	stress_12	POPTR_0001s41780.1	59	G	A/G	65,2/34,8	15/8	23
controllo_4	POPTR_0002s01320.1	255	A	T/A	54,3/45,7	57/48	105	stress_12	POPTR_0002s01320.1	255	A	T/A	51,5/48,1	106/99	206
controllo_4	POPTR_0002s22560.1	113	G	G/A	58,1/41,9	61/44	105	stress_12	POPTR_0002s22560.1	113	G	G/A	59,9/40,1	173/116	289
controllo_4	POPTR_0005s26930.1	279	T	T/C	53,3/46,7	56/49	105	stress_12	POPTR_0005s26930.1	279	T	T/C	51,6/48,4	48/45	93
controllo_4	POPTR_0008s05470.1	1479	T	T/C	74,3/25,7	78/27	105	stress_12	POPTR_0008s05470.1	1479	T	T/C	77,9/22,1	53/15	68
controllo_4	POPTR_0008s20590.1	271	A	C/A	59,0/41,0	62/43	105	stress_12	POPTR_0008s20590.1	271	A	C/A	59,9/39,4	85/56	142
controllo_4	POPTR_0010s16860.1	387	G	G/T	62,9/36,2	66/38	105	stress_12	POPTR_0010s16860.1	387	G	G/T	78,6/21,1	265/71	337
controllo_4	POPTR_0010s19930.1	518	C	C/A	64,8/35,2	68/37	105	stress_12	POPTR_0010s19930.1	518	C	A/C	55,0/45,0	11/9	20
controllo_4	POPTR_0014s14200.1	1110	T	C/T	54,3/45,7	57/48	105	stress_12	POPTR_0014s14200.1	1110	T	C/T	50,0/50,0	17/17	34
controllo_4	POPTR_0015s11640.1	95	C	C/A	55,2/44,8	58/47	105	stress_12	POPTR_0015s11640.1	95	C	A/C	55,3/44,7	119/96	215
controllo_4	POPTR_0001s38810.1	123	A	A/G	70,2/29,8	73/31	104	stress_12	POPTR_0001s38810.1	123	A	A/G	62,1/37,9	64/39	103
controllo_4	POPTR_0002s01320.1	342	A	A/T	56,7/42,3	59/44	104	stress_12	POPTR_0002s01320.1	342	A	A/T	56,6/42,9	103/78	182
controllo_4	POPTR_0002s01320.1	621	C	T/C	56,7/43,3	59/45	104	stress_12	POPTR_0002s01320.1	621	C	T/C	52,5/47,5	84/76	160
controllo_4	POPTR_0002s14730.1	1449	C	C/A	73,1/26,9	76/28	104	stress_12	POPTR_0002s14730.1	1449	C	C/A	71,0/29,0	93/38	131
controllo_4	POPTR_0002s22560.1	987	C	G/C	74,0/25,0	77/26	104	stress_12	POPTR_0002s22560.1	987	C	G/C	72,3/27,7	193/74	267
controllo_4	POPTR_0003s19210.1	144	T	C/T	54,8/45,2	57/47	104	stress_12	POPTR_0003s19210.1	144	T	T/C	53,2/46,8	59/52	111
controllo_4	POPTR_0004s04860.1	489	T	T/C	64,4/35,6	67/37	104	stress_12	POPTR_0004s04860.1	489	T	T/C	62,2/37,8	74/45	119
controllo_4	POPTR_0005s26930.1	489	A	G/A	68,3/30,8	71/32	104	stress_12	POPTR_0005s26930.1	489	A	A/G	54,5/45,5	48/40	88
controllo_4	POPTR_0006s14630.1	244	G	T/G	51,0/47,1	53/49	104	stress_12	POPTR_0006s14630.1	244	G	T/G	50,8/49,2	33/32	65
controllo_4	POPTR_0010s07920.1	193	G	G/A	62,5/37,5	65/39	104	stress_12	POPTR_0010s07920.1	193	G	A/G	55,8/44,2	63/50	113
controllo_4	POPTR_0010s17860.1	1254	T	T/A	56,7/43,3	59/45	104	stress_12	POPTR_0010s17860.1	1254	T	T/A	63,8/36,2	44/25	69
controllo_4	POPTR_0019s08240.1	507	C	C/A	53,8/45,2	56/47	104	stress_12	POPTR_0019s08240.1	507	C	A/C	51,4/48,6	54/51	105
controllo_4	POPTR_0001s47020.1	1353	T	C/T	52,4/47,6	54/49	103	stress_12	POPTR_0001s47020.1	1353	T	T/C	51,2/48,8	42/40	82
controllo_4	POPTR_0003s19210.1	159	C	C/G	50,5/48,5	52/50	103	stress_12	POPTR_0003s19210.1	159	C	G/C	56,7/42,5	68/51	120
controllo_4	POPTR_0004s10660.1	350	G	C/G	68,0/32,0	70/33	103	stress_12	POPTR_0004s10660.1	350	G	G/C	50,7/49,3	68/66	134
controllo_4	POPTR_0006s10130.1	900	G	A/G	55,3/44,7	57/46	103	stress_12	POPTR_0006s10130.1	900	G	G/A	52,5/47,5	42/38	80
controllo_4	POPTR_0010s14080.1	2640	G	C/G	53,4/46,6	55/48	103	stress_12	POPTR_0010s14080.1	2640	G	G/C	63,6/36,4	63/36	99
controllo_4	POPTR_0010s17860.1	258	A	A/G	55,3/44,7	57/46	103	stress_12	POPTR_0010s17860.1	258	A	A/G	50,9/49,1	29/28	57
controllo_4	POPTR_0010s18770.1	354	A	G/A	56,3/43,7	58/45	103	stress_12	POPTR_0010s18770.1	354	A	A/G	62,2/37,8	46/28	74
controllo_4	POPTR_0010s22790.1	453	T	T/G	78,6/21,4	81/22	103	stress_12	POPTR_0010s22790.1	453	T	T/G	77,3/22,7	75/22	97
controllo_4	POPTR_0014s11580.1	271	C	T/C	69,9/30,1	72/31	103	stress_12	POPTR_0014s11580.1	271	C	T/C	73,5/26,5	50/18	68
controllo_4	POPTR_0018s02960.1	1017	C	T/C	60,2/39,8	62/41	103	stress_12	POPTR_0018s02960.1	1017	C	C/T	68,8/31,2	11/5	16
controllo_4	POPTR_0002s01080.1	1455	T	T/G	52,9/47,1	54/48	102	stress_12	POPTR_0002s01080.1	1455	T	G/T	57,7/42,0	173/126	300
controllo_4	POPTR_0003s12160.1	85	A	C/A	72,5/27,5	74/28	102	stress_12	POPTR_0003s12160.1	85	A	C/A	77,1/22,9	101/30	131
controllo_4	POPTR_0005s26930.1	237	T	G/T	51,0/49,0	52/50	102	stress_12	POPTR_0005s26930.1	237	T	T/G	51,2/48,8	41/39	80
controllo_4	POPTR_0005s27390.1	237	A	G/A	51,0/49,0	52/50	102	stress_12	POPTR_0005s27390.1	237	A	A/G	58,7/41,3	37/26	63
controllo_4	POPTR_0006s12910.1	106	T	T/A	51,0/49,0	52/50	102	stress_12	POPTR_0006s12910.1	106	T	T/A	51,1/47,9	48/45	94
controllo_4	POPTR_0007s05810.1	237	A	A/G	59,8/40,2	61/41	102	stress_12	POPTR_0007s05810.1	237	A	G/A	53,2/46,8	42/37	79
controllo_4	POPTR_0010s17860.1	1416	A	A/T	53,9/46,1	55/47	102	stress_12	POPTR_0010s17860.1	1416	A	A/T	58,8/41,2	30/21	51
controllo_4	POPTR_0010s19930.1	515	G	G/A	65,7/34,3	67/35	102	stress_12	POPTR_0010s19930.1	515	G	A/G	55,0/45,0	11/9	20
controllo_4	POPTR_0015s06410.1	117	C	C/G	56,9/43,1	58/44	102	stress_12	POPTR_0015s06410.1	117	C	G/C	56,2/43,8	54/42	96
controllo_4	POPTR_0018s02960.1	548	C	T/C	52,9/47,1	54/48	102	stress_12	POPTR_0018s02960.1	548	C	T/C	58,3/41,7	7/5	12
controllo_4	POPTR_0001s47020.1	1125	G	A/G	55,4/44,6	56/45	101	stress_12	POPTR_0001s47020.1	1125	G	A/G	58,2/41,8	53/38	91
controllo_4	POPTR_0004s04860.1	612	G	G/A	58,4/41,6	59/42	101	stress_12	POPTR_0004s04860.1	612	G	A/G	53,5/46,5	46/40	86
controllo_4	POPTR_0004s10660.1	330	T	C/T	64,4/35,6	65/36	101	stress_12	POPTR_0004s10660.1	330	T	C/T	53,0/47,0	53/47	100
controllo_4	POPTR_0007s13110.1	498	T	C/T	52,5/47,5	53/48	101	stress_12	POPTR_0007s13110.1	498	T	C/T	54,8/45,2	46/38	84
controllo_4	POPTR_0007s13800.1	528	A	A/G	51,5/48,5	52/49	101	stress_12	POPTR_0007s13800.1	528	A	A/G	77,6/22,4	38/11	49
controllo_4	POPTR_0008s05470.1	1389	T	T/G	72,3/27,7	73/28	101	stress_12	POPTR_0008s05470.1	1389	T	T/G	81,8/18,2	45/10	55
controllo_4	POPTR_0008s06580.1	241	C	A/C	75,2/24,8	76/25	101	stress_12	POPTR_0008s06580.1	241	C	C/A	52,3/46,5	45/40	86
controllo_4	POPTR_0008s20590.1	333	A	G/A	59,4/40,6	60/41	101	stress_12	POPTR_0008s20590.1	333	A	G/A	64,0/36,0	71/40	111
controllo_4	POPTR_0010s26200.1	358	G	G/T	51,5/48,5	52/49	101	stress_12	POPTR_0010s26200.1	358	G	G/T	50,6/49,4	80/78	158
controllo_4	POPTR_0014s08960.1	45	G	A/G	55,4/44,6	56/45	101	stress_12	POPTR_0014s08960.1	45	G	A/G	61,9/38,1	39/24	63
controllo_4	POPTR_0001s08770.1	1227	T	C/T	51,0/49,0	51/49	100	stress_12	POPTR_0001s08770.1	1227	T	T/C	51,1/48,9	70/67	137
controllo_4	POPTR_0002s03020.1	201	G	G/A	55,0/45,0	55/45	100	stress_12	POPTR_0002s03020.1	201	G	A/G	53,9/46,1	69/59	128
controllo_4	POPTR_0008s20590.1	295	A	A/G	58,0/42,0	58/42	100	stress_12	POPTR_0008s20590.1	295	A	A/G	63,6/36,4	84/48	132
controllo_4	POPTR_0016s08580.1	615	T	T/G	52,0/48,0	52/48	100	stress_12	POPTR_0016s08580.1	615	T	T/G	60,0/40,0	75/50	125
controllo_4	POPTR_0016s08580.1	616	A	A/T	53,0/47,0	53/47	100	stress_12	POPTR_0016s08580.1	616	A	A/T	59,8/39,4	76/50	127
controllo_4	POPTR_0008s20590.1	342	T	G/T	60,6/39,4	60/39	99	stress_12	POPTR_0008s20590.1	342	T	G/T	62,4/37,6	68/41	109
controllo_4	POPTR_0010s20060.1	823	C	C/T	70,4/29,6	69/29	98	stress_12	POPTR_0010s20060.1	823	C	C/T	75,9/24,1	82/26	108
controllo_4	POPTR_0010s20060.1	594	C	C/A	77,6/22,4	76/22	98	stress_12	POPTR_0010s20060.1	594	C	C/A	79,3/20,7	111/29	140
controllo_4	POPTR_0001s08770.1	1230	G	A/G	51,5/48,5	50/47	97	stress_12	POPTR_0001s08770.1	1230	G	A/G	53,3/46,7	72/63	135
controllo_4	POPTR_0010s26200.1	159	T	T/C	53,6/46,4	52/45	97	stress_12	POPTR_0010s26200.1	159	T	C/T	51,2/48,8	82/78	160
controllo_4	POPTR_0013s10250.1	255	A	A/G	52,6/47,4	51/46	97	stress_12	POPTR_0013s10250.1	255	A	A/G	55,1/44,9	75/61	136
controllo_4	POPTR_0005s26170.1	174	G	C/G	60,4/39,6	58/38	96	stress_12	POPTR_0005s26170.1	174	G	C/G	61,0/39,0	64/41	105
controllo_4	POPTR_0010s20060.1	129	A	A/G	71,9/28,1	69/27	96	stress_12	POPTR_0010s20060.1	129	A	A/G	70,1/29,9	96/41	137
controllo_4	POPTR_0014s13560.1	1320	T	C/T	68,8/31,2	66/30	96	stress_12	POPTR_0014s13560.1	1320	T	C/T	70,9/29,1	105/43	148
controllo_4	POPTR_0019s05950.1	477	G	A/G	51,0/49,0	49/47	96	stress_12	POPTR_0019s05950.1	477	G	G/A	56,6/43,4	112/86	198
controllo_4	POPTR_0002s03470.1	84	A	G/A	55,8/44,2	53/42	95	stress_12	POPTR_0002s03470.1	84	A	G/A	55,8/44,2	58/46	104
controllo_4	POPTR_0008s20590.1	293	G	G/A	58,9/41,1	56/39	95	stress_12	POPTR_0008s20590.1	293	G	G/A	63,9/36,1	85/48	133
controllo_4	POPTR_0010s20060.1	154	G	G/A	71,6/28,4	68/27	95	stress_12	POPTR_0010s20060.1	154	G	G/A	64,7/35,3	75/41	116
controllo_4	POPTR_0016s11610.1	672	T	T/C	52,6/47,4	50/45	95	stress_12	POPTR_0016s11610.1	672	T	C/T	57,7/42,3	71/52	123
controllo_4	POPTR_0019s05950.1	100	T	T/G	55,8/44,2	53/42	95	stress_12	POPTR_0019s05950.1	100	T	T/G	51,7/48,3	104/97	201
controllo_4	POPTR_0002s14730.1	1714	T	T/C	70,2/29,8	66/28	94	stress_12	POPTR_0002s14730.1	1714	T	T/C	68,3/31,7	71/33	104
controllo_4	POPTR_0006s12910.1	700	G	A/G	53,2/46,8	50/44	94	stress_12	POPTR_0006s12910.1	700	G	G/A	51,3/48,7	59/56	115
controllo_4	POPTR_0010s26130.1	1443	T	T/A	70,7/29,3	65/27	92	stress_12	POPTR_0010s26130.1	1443	T	T/A	68,4/30,9	93/42	136
controllo_4	POPTR_0012s07040.1	115	G	G/A	58,7/41,3	54/38	92	stress_12	POPTR_0012s07040.1	115	G	G/A	51,3/48,7	58/55	113
controllo_4	POPTR_0002s01320.1	687	G	A/G	56,0/44,0	51/40	91	stress_12	POPTR_0002s01320.1	687	G	A/G	52,1/47,9	99/91	190
controllo_4	POPTR_0003s12160.1	924	T	T/C	52,7/47,3	48/43	91	stress_12	POPTR_0003s12160.1	924	T	T/C	52,9/47,1	73/65	138
controllo_4	POPTR_0017s06920.1	166	C	C/A	61,5/38,5	56/35	91	stress_12	POPTR_0017s06920.1	166	C	C/A	52,0/48,0	78/72	150
controllo_4	POPTR_0010s20060.1	588	T	T/A	74,4/25,6	67/23	90	stress_12	POPTR_0010s20060.1	588	T	T/A	76,6/23,4	98/30	128
controllo_4	POPTR_0011s08940.1	1316	C	C/T	58,9/41,1	53/37	90	stress_12	POPTR_0011s08940.1	1316	C	T/C	53,7/46,3	108/93	201
controllo_4	POPTR_0012s07040.1	435	C	C/G	53,3/46,7	48/42	90	stress_12	POPTR_0012s07040.1	435	C	C/G	61,2/38,8	63/40	103
controllo_4	POPTR_0013s13190.1	369	T	T/C	51,1/48,9	46/44	90	stress_12	POPTR_0013s13190.1	369	T	C/T	52,2/47,8	59/54	113
controllo_4	POPTR_0014s06380.1	274	A	A/T	62,2/37,8	56/34	90	stress_12	POPTR_0014s06380.1	274	A	A/T	54,6/45,4	59/49	108
controllo_4	POPTR_0006s12910.1	658	T	A/T	51,7/48,3	46/43	89	stress_12	POPTR_0006s12910.1	658	T	A/T	53,5/46,5	54/47	101
controllo_4	POPTR_0010s20060.1	405	T	C/T	52,8/47,2	47/42	89	stress_12	POPTR_0010s20060.1	405	T	T/C	59,0/41,0	79/55	134
controllo_4	POPTR_0012s11630.1	219	A	A/G	59,6/40,4	53/36	89	stress_12	POPTR_0012s11630.1	219	A	G/A	61,2/38,8	101/64	165
controllo_4	POPTR_0016s11610.1	648	T	A/T	53,9/46,1	48/41	89	stress_12	POPTR_0016s11610.1	648	T	T/A	61,2/38,8	74/47	121
controllo_4	POPTR_0008s05480.1	162	A	A/C	71,6/28,4	63/25	88	stress_12	POPTR_0008s05480.1	162	A	A/C	76,2/23,8	109/34	143
controllo_4	POPTR_0017s05700.1	240	T	T/C	80,7/19,3	71/17	88	stress_12	POPTR_0017s05700.1	240	T	T/C	78,9/21,1	86/23	109
controllo_4	POPTR_0006s24770.1	87	C	C/A	55,2/44,8	48/39	87	stress_12	POPTR_0006s24770.1	87	C	C/A	70,7/29,3	130/54	184
controllo_4	POPTR_0008s03160.1	234	T	C/T	62,1/37,9	54/33	87	stress_12	POPTR_0008s03160.1	234	T	C/T	59,3/40,7	67/46	113
controllo_4	POPTR_0010s01700.1	135	T	C/T	54,0/46,0	47/40	87	stress_12	POPTR_0010s01700.1	135	T	T/C	56,8/43,1	534/405	940
controllo_4	POPTR_0014s13560.1	915	C	C/T	72,4/27,6	63/24	87	stress_12	POPTR_0014s13560.1	915	C	C/T	73,7/26,3	129/46	175
controllo_4	POPTR_0017s06920.1	168	C	C/G	64,4/35,6	56/31	87	stress_12	POPTR_0017s06920.1	168	C	C/G	54,1/45,9	80/68	148
controllo_4	POPTR_0001s47020.1	2043	C	A/C	60,5/39,5	52/34	86	stress_12	POPTR_0001s47020.1	2043	C	C/A	53,1/46,0	60/52	113
controllo_4	POPTR_0008s14480.1	201	C	C/T	53,5/46,5	46/40	86	stress_12	POPTR_0008s14480.1	201	C	C/T	63,0/36,1	68/39	108
controllo_4	POPTR_0002s22560.1	247	A	G/A	71,8/28,2	61/24	85	stress_12	POPTR_0002s22560.1	247	A	G/A	63,5/36,5	134/77	211
controllo_4	POPTR_0004s14780.1	498	G	A/G	54,1/45,9	46/39	85	stress_12	POPTR_0004s14780.1	498	G	G/A	59,7/40,3	71/48	119
controllo_4	POPTR_0006s13310.1	804	C	T/C	52,9/47,1	45/40	85	stress_12	POPTR_0006s13310.1	804	C	T/C	63,8/36,2	289/164	453
controllo_4	POPTR_0008s14480.1	202	A	A/G	52,9/47,1	45/40	85	stress_12	POPTR_0008s14480.1	202	A	A/G	62,3/37,7	66/40	106
controllo_4	POPTR_0011s08940.1	141	A	G/A	55,3/44,7	47/38	85	stress_12	POPTR_0011s08940.1	141	A	A/G	51,4/48,6	109/103	212
controllo_4	POPTR_0019s05950.1	255	G	G/T	57,6/42,4	49/36	85	stress_12	POPTR_0019s05950.1	255	G	G/T	62,7/37,3	96/57	153
controllo_4	POPTR_0006s13310.1	654	T	T/A	57,1/42,9	48/36	84	stress_12	POPTR_0006s13310.1	654	T	T/A	60,6/39,4	252/164	416
controllo_4	POPTR_0010s20060.1	183	G	G/A	70,2/29,8	59/25	84	stress_12	POPTR_0010s20060.1	183	G	G/A	73,8/26,2	76/27	103
controllo_4	POPTR_0012s08330.1	231	A	A/T	57,1/42,9	48/36	84	stress_12	POPTR_0012s08330.1	231	A	A/T	57,1/42,9	68/51	119
controllo_4	POPTR_0016s14310.1	188	C	C/T	51,2/48,8	43/41	84	stress_12	POPTR_0016s14310.1	188	C	C/T	51,1/48,9	89/85	174
controllo_4	POPTR_0001s21140.1	486	G	G/T	53,0/47,0	44/39	83	stress_12	POPTR_0001s21140.1	486	G	G/T	53,8/46,2	119/102	221
controllo_4	POPTR_0017s05700.1	276	G	G/A	80,7/19,3	67/16	83	stress_12	POPTR_0017s05700.1	276	G	G/A	72,5/27,5	74/28	102
controllo_4	POPTR_0001s29350.1	2046	T	T/C	52,4/47,6	43/39	82	stress_12	POPTR_0001s29350.1	2046	T	C/T	51,5/48,5	53/50	103
controllo_4	POPTR_0003s11300.1	1827	T	C/T	57,3/42,7	47/35	82	stress_12	POPTR_0003s11300.1	1827	T	C/T	55,8/44,2	92/73	165
controllo_4	POPTR_0006s13310.1	672	T	T/C	53,7/46,3	44/38	82	stress_12	POPTR_0006s13310.1	672	T	T/C	59,3/40,7	216/148	364
controllo_4	POPTR_0010s14080.1	2730	A	A/G	51,2/48,8	42/40	82	stress_12	POPTR_0010s14080.1	2730	A	G/A	62,7/37,3	69/41	110
controllo_4	POPTR_0010s20060.1	573	C	C/T	73,2/26,8	60/22	82	stress_12	POPTR_0010s20060.1	573	C	C/T	62,5/37,5	70/42	112
controllo_4	POPTR_0012s08330.1	342	A	G/A	64,6/35,4	53/29	82	stress_12	POPTR_0012s08330.1	342	A	A/G	53,2/46,0	66/57	124
controllo_4	POPTR_0003s12160.1	1257	A	A/G	71,6/28,4	58/23	81	stress_12	POPTR_0003s12160.1	1257	A	A/G	67,3/32,7	74/36	110
controllo_4	POPTR_0010s01700.1	243	A	G/A	58,0/42,0	47/34	81	stress_12	POPTR_0010s01700.1	243	A	G/A	57,4/42,6	428/317	745
controllo_4	POPTR_0010s14080.1	1185	C	C/A	58,0/42,0	47/34	81	stress_12	POPTR_0010s14080.1	1185	C	C/A	63,6/36,4	70/40	110
controllo_4	POPTR_0010s26130.1	1449	G	T/G	72,8/27,2	59/22	81	stress_12	POPTR_0010s26130.1	1449	G	T/G	69,8/30,2	90/39	129
controllo_4	POPTR_0012s08330.1	156	C	C/T	59,3/40,7	48/33	81	stress_12	POPTR_0012s08330.1	156	C	T/C	50,8/49,2	60/58	118
controllo_4	POPTR_0016s11610.1	930	T	C/T	58,0/42,0	47/34	81	stress_12	POPTR_0016s11610.1	930	T	C/T	59,8/40,2	67/45	112
controllo_4	POPTR_0001s18210.1	165	T	T/A	50,0/48,8	40/39	80	stress_12	POPTR_0001s18210.1	165	T	A/T	51,3/48,7	59/56	115
controllo_4	POPTR_0004s14780.1	507	C	T/C	52,5/47,5	42/38	80	stress_12	POPTR_0004s14780.1	507	C	C/T	68,6/31,4	72/33	105
controllo_4	POPTR_0005s22780.1	151	T	C/T	53,8/46,2	43/37	80	stress_12	POPTR_0005s22780.1	151	T	C/T	56,8/43,2	63/48	111
controllo_4	POPTR_0010s14080.1	2229	C	C/T	53,8/46,2	43/37	80	stress_12	POPTR_0010s14080.1	2229	C	C/T	64,0/36,0	71/40	111
controllo_4	POPTR_0010s21350.1	828	A	A/G	77,5/22,5	62/18	80	stress_12	POPTR_0010s21350.1	828	A	A/G	69,5/30,5	82/36	118
controllo_4	POPTR_0012s07040.1	466	T	G/T	57,5/42,5	46/34	80	stress_12	POPTR_0012s07040.1	466	T	G/T	54,3/43,8	57/46	105
controllo_4	POPTR_0012s09200.1	539	C	T/C	52,5/47,5	42/38	80	stress_12	POPTR_0012s09200.1	539	C	C/T	52,5/47,5	62/56	118
controllo_4	POPTR_0014s13560.1	1482	T	T/A	62,5/37,5	50/30	80	stress_12	POPTR_0014s13560.1	1482	T	T/A	70,1/29,3	117/49	167
controllo_4	POPTR_0002s03020.1	544	C	C/T	62,0/38,0	49/30	79	stress_12	POPTR_0002s03020.1	544	C	C/T	61,7/38,3	74/46	120
controllo_4	POPTR_0006s13310.1	201	T	A/T	53,2/45,6	42/36	79	stress_12	POPTR_0006s13310.1	201	T	T/A	62,5/37,2	190/113	304
controllo_4	POPTR_0013s13190.1	249	G	G/A	53,2/46,8	42/37	79	stress_12	POPTR_0013s13190.1	249	G	G/A	55,0/45,0	60/49	109
controllo_4	POPTR_0016s08580.1	258	G	A/G	53,2/46,8	42/37	79	stress_12	POPTR_0016s08580.1	258	G	A/G	54,4/45,6	56/47	103
controllo_4	POPTR_0001s40700.1	348	T	T/G	60,3/39,7	47/31	78	stress_12	POPTR_0001s40700.1	348	T	T/G	64,8/35,2	68/37	105
controllo_4	POPTR_0010s21280.1	1686	C	C/G	53,8/46,2	42/36	78	stress_12	POPTR_0010s21280.1	1686	C	C/G	64,4/35,6	103/57	160
controllo_4	POPTR_0010s26200.1	116	A	A/C	55,1/44,9	43/35	78	stress_12	POPTR_0010s26200.1	116	A	C/A	54,7/45,3	58/48	106
controllo_4	POPTR_0014s13560.1	1959	G	C/G	61,5/38,5	48/30	78	stress_12	POPTR_0014s13560.1	1959	G	C/G	62,8/37,2	93/55	148
controllo_4	POPTR_0003s17010.1	38	T	T/C	76,6/23,4	59/18	77	stress_12	POPTR_0003s17010.1	38	T	T/C	77,4/22,6	82/24	106
controllo_4	POPTR_0011s08940.1	129	A	A/G	57,1/42,9	44/33	77	stress_12	POPTR_0011s08940.1	129	A	G/A	55,3/44,7	110/89	199
controllo_4	POPTR_0014s13560.1	1092	T	T/C	62,3/37,7	48/29	77	stress_12	POPTR_0014s13560.1	1092	T	T/C	63,8/36,2	95/54	149
controllo_4	POPTR_0008s20590.1	459	T	T/A	61,8/38,2	47/29	76	stress_12	POPTR_0008s20590.1	459	T	T/A	62,8/37,2	71/42	113
controllo_4	POPTR_0010s20060.1	561	T	T/C	73,7/26,3	56/20	76	stress_12	POPTR_0010s20060.1	561	T	T/C	77,2/22,8	95/28	123
controllo_4	POPTR_0012s08330.1	207	A	A/G	50,0/50,0	38/38	76	stress_12	POPTR_0012s08330.1	207	A	A/G	53,3/46,7	65/57	122
controllo_4	POPTR_0014s06370.1	132	C	G/C	61,8/38,2	47/29	76	stress_12	POPTR_0014s06370.1	132	C	G/C	51,4/48,6	56/53	109
controllo_4	POPTR_0005s26700.1	708	T	C/T	58,7/41,3	44/31	75	stress_12	POPTR_0005s26700.1	708	T	T/C	54,5/45,5	60/50	110
controllo_4	POPTR_0008s03160.1	892	A	G/T	58,7/41,3	44/31	75	stress_12	POPTR_0008s03160.1	892	A	G/T	61,4/38,6	62/39	101
controllo_4	POPTR_0012s07040.1	483	T	C/T	60,0/40,0	45/30	75	stress_12	POPTR_0012s07040.1	483	T	C/T	59,6/40,4	62/42	104
controllo_4	POPTR_0001s08770.1	204	C	C/T	52,7/47,3	39/35	74	stress_12	POPTR_0001s08770.1	204	C	C/T	50,0/50,0	53/53	106
controllo_4	POPTR_0001s21140.1	558	T	G/T	50,0/50,0	37/37	74	stress_12	POPTR_0001s21140.1	558	T	T/G	55,8/44,2	92/73	165
controllo_4	POPTR_0001s47020.1	479	T	T/C	58,1/41,9	43/31	74	stress_12	POPTR_0001s47020.1	479	T	T/C	50,5/49,5	51/50	101
controllo_4	POPTR_0003s11300.1	2049	T	C/T	50,0/50,0	37/37	74	stress_12	POPTR_0003s11300.1	2049	T	T/C	50,7/49,3	73/71	144
controllo_4	POPTR_0009s11480.1	93	C	A/C	56,8/43,2	42/32	74	stress_12	POPTR_0009s11480.1	93	C	A/C	51,9/48,1	94/87	181
controllo_4	POPTR_0010s05530.1	987	C	C/T	50,0/50,0	37/37	74	stress_12	POPTR_0010s05530.1	987	C	T/C	51,7/48,3	61/57	118
controllo_4	POPTR_0014s13560.1	1437	T	T/C	64,9/35,1	48/26	74	stress_12	POPTR_0014s13560.1	1437	T	T/C	69,6/30,4	94/41	135
controllo_4	POPTR_0016s14310.1	797	A	A/G	58,1/41,9	43/31	74	stress_12	POPTR_0016s14310.1	797	A	G/A	57,6/42,4	83/61	144
controllo_4	POPTR_0003s17010.1	36	C	T/C	56,2/43,8	41/32	73	stress_12	POPTR_0003s17010.1	36	C	C/T	51,9/48,1	54/50	104
controllo_4	POPTR_0005s26170.1	466	G	G/A	67,1/32,9	49/24	73	stress_12	POPTR_0005s26170.1	466	G	G/A	60,7/39,3	71/46	117
controllo_4	POPTR_0008s05480.1	183	G	A/G	75,3/24,7	55/18	73	stress_12	POPTR_0008s05480.1	183	G	A/G	82,9/17,1	92/19	111
controllo_4	POPTR_0016s11610.1	917	A	A/G	54,8/45,2	40/33	73	stress_12	POPTR_0016s11610.1	917	A	A/G	57,5/42,5	61/45	106
controllo_4	POPTR_0002s01320.1	112	T	T/A	63,9/36,1	46/26	72	stress_12	POPTR_0002s01320.1	112	T	T/A	56,0/44,0	89/70	159
controllo_4	POPTR_0007s08400.1	1473	G	G/C	55,6/44,4	40/32	72	stress_12	POPTR_0007s08400.1	1473	G	G/C	61,1/38,9	80/51	131
controllo_4	POPTR_0009s11480.1	1158	T	T/C	51,4/48,6	37/35	72	stress_12	POPTR_0009s11480.1	1158	T	C/T	62,7/37,3	89/53	142
controllo_4	POPTR_0005s26700.1	760	T	T/C	50,7/49,3	36/35	71	stress_12	POPTR_0005s26700.1	760	T	C/T	55,7/43,5	73/57	131
controllo_4	POPTR_0006s13240.1	323	T	T/C	59,2/40,8	42/29	71	stress_12	POPTR_0006s13240.1	323	T	T/C	53,6/46,4	81/70	151
controllo_4	POPTR_0001s21140.1	798	A	G/A	60,0/40,0	42/28	70	stress_12	POPTR_0001s21140.1	798	A	G/A	51,9/48,1	70/65	135
controllo_4	POPTR_0008s15780.1	369	C	C/G	77,1/22,9	54/16	70	stress_12	POPTR_0008s15780.1	369	C	C/G	71,4/28,6	172/69	241
controllo_4	POPTR_0008s17090.1	221	C	T/C	52,2/47,8	36/33	69	stress_12	POPTR_0008s17090.1	221	C	T/C	52,7/47,3	58/52	110
controllo_4	POPTR_0019s05950.1	363	A	C/A	68,1/31,9	47/22	69	stress_12	POPTR_0019s05950.1	363	A	C/A	64,7/35,3	77/42	119
controllo_4	POPTR_0006s05160.1	1299	A	A/G	51,5/48,5	35/33	68	stress_12	POPTR_0006s05160.1	1299	A	A/G	58,4/41,6	59/42	101
controllo_4	POPTR_0009s11480.1	54	C	T/C	64,7/35,3	44/24	68	stress_12	POPTR_0009s11480.1	54	C	C/T	57,6/42,4	95/70	165
controllo_4	POPTR_0012s08790.1	195	A	A/T	60,3/38,2	41/26	68	stress_12	POPTR_0012s08790.1	195	A	A/T	65,4/34,6	85/45	130
controllo_4	POPTR_0012s11630.1	137	G	G/C	67,6/32,4	46/22	68	stress_12	POPTR_0012s11630.1	137	G	G/C	79,6/20,4	86/22	108
controllo_4	POPTR_0013s13190.1	294	C	C/T	54,4/45,6	37/31	68	stress_12	POPTR_0013s13190.1	294	C	T/C	51,5/46,5	52/47	101
controllo_4	POPTR_0014s00810.1	183	T	C/T	52,9/47,1	36/32	68	stress_12	POPTR_0014s00810.1	183	T	T/C	51,3/48,7	98/93	191
controllo_4	POPTR_0014s06380.1	130	G	G/A	60,3/39,7	41/27	68	stress_12	POPTR_0014s06380.1	130	G	G/A	55,6/44,4	60/48	108
controllo_4	POPTR_0001s21140.1	705	T	C/T	56,7/43,3	38/29	67	stress_12	POPTR_0001s21140.1	705	T	T/C	56,7/43,3	119/91	210
controllo_4	POPTR_0005s26700.1	566	T	T/G	58,2/41,8	39/28	67	stress_12	POPTR_0005s26700.1	566	T	G/T	55,6/44,4	65/52	117
controllo_4	POPTR_0006s13310.1	822	C	C/T	50,7/49,3	34/33	67	stress_12	POPTR_0006s13310.1	822	C	C/T	63,1/36,7	239/139	379
controllo_4	POPTR_0007s08400.1	1479	T	T/G	76,1/23,9	51/16	67	stress_12	POPTR_0007s08400.1	1479	T	T/G	80,5/19,5	99/24	123
controllo_4	POPTR_0008s17090.1	249	A	A/T	71,6/28,4	48/19	67	stress_12	POPTR_0008s17090.1	249	A	A/T	71,1/28,9	81/33	114
controllo_4	POPTR_0014s13560.1	1491	T	T/C	62,7/37,3	42/25	67	stress_12	POPTR_0014s13560.1	1491	T	T/C	69,6/30,4	110/48	158
controllo_4	POPTR_0002s22560.1	256	T	T/A	74,2/25,8	49/17	66	stress_12	POPTR_0002s22560.1	256	T	T/A	71,2/28,8	109/44	153
controllo_4	POPTR_0003s11300.1	1566	T	A/T	54,5/45,5	36/30	66	stress_12	POPTR_0003s11300.1	1566	T	T/A	54,9/45,1	79/65	144
controllo_4	POPTR_0003s11300.1	1587	T	T/C	62,1/37,9	41/25	66	stress_12	POPTR_0003s11300.1	1587	T	C/T	52,0/48,0	77/71	148
controllo_4	POPTR_0014s13560.1	1659	T	T/C	71,2/28,8	47/19	66	stress_12	POPTR_0014s13560.1	1659	T	T/C	71,9/28,1	97/38	135
controllo_4	POPTR_0005s25420.1	297	T	T/G	58,5/40,0	38/26	65	stress_12	POPTR_0005s25420.1	297	T	G/T	56,4/43,6	57/44	101
controllo_4	POPTR_0006s13310.1	891	T	C/T	55,4/44,6	36/29	65	stress_12	POPTR_0006s13310.1	891	T	C/T	56,4/43,3	193/148	342
controllo_4	POPTR_0012s07040.1	161	A	C/A	60,0/40,0	39/26	65	stress_12	POPTR_0012s07040.1	161	A	C/A	56,5/43,5	61/47	108
controllo_4	POPTR_0002s01320.1	1116	C	C/T	50,0/50,0	32/32	64	stress_12	POPTR_0002s01320.1	1116	C	C/T	61,1/38,9	91/58	149
controllo_4	POPTR_0010s25500.1	661	A	G/A	56,2/43,8	36/28	64	stress_12	POPTR_0010s25500.1	661	A	G/A	50,4/49,6	57/56	113
controllo_4	POPTR_0014s00810.1	153	A	G/A	51,6/48,4	33/31	64	stress_12	POPTR_0014s00810.1	153	A	A/G	56,4/43,6	127/98	225
controllo_4	POPTR_0016s14310.1	327	T	T/A	57,8/42,2	37/27	64	stress_12	POPTR_0016s14310.1	327	T	T/A	52,4/47,6	65/59	124
controllo_4	POPTR_0004s01940.1	198	C	T/C	71,4/28,6	45/18	63	stress_12	POPTR_0004s01940.1	198	C	C/T	53,8/46,2	99/85	184
controllo_4	POPTR_0008s03160.1	633	C	C/T	60,3/39,7	38/25	63	stress_12	POPTR_0008s03160.1	633	C	C/T	72,9/27,1	78/29	107
controllo_4	POPTR_0011s12440.1	138	T	T/A	50,8/49,2	32/31	63	stress_12	POPTR_0011s12440.1	138	T	A/T	51,8/48,2	86/80	166
controllo_4	POPTR_0014s13560.1	1860	A	A/G	57,1/42,9	36/27	63	stress_12	POPTR_0014s13560.1	1860	A	A/G	65,4/34,6	89/47	136
controllo_4	POPTR_0016s02540.1	339	C	C/T	63,5/36,5	40/23	63	stress_12	POPTR_0016s02540.1	339	C	T/C	59,2/40,8	71/49	120
controllo_4	POPTR_0017s06920.1	1017	A	G/A	54,0/46,0	34/29	63	stress_12	POPTR_0017s06920.1	1017	A	G/A	56,9/43,1	58/44	102
controllo_4	POPTR_0006s13310.1	510	C	T/C	59,7/40,3	37/25	62	stress_12	POPTR_0006s13310.1	510	C	T/C	60,5/39,5	181/118	299
controllo_4	POPTR_0007s08400.1	1464	T	C/T	58,1/41,9	36/26	62	stress_12	POPTR_0007s08400.1	1464	T	C/T	58,9/41,1	63/44	107
controllo_4	POPTR_0008s20770.1	378	T	T/C	80,6/19,4	50/12	62	stress_12	POPTR_0008s20770.1	378	T	T/C	70,9/29,1	156/64	220
controllo_4	POPTR_0009s11480.1	153	T	C/T	58,1/41,9	36/26	62	stress_12	POPTR_0009s11480.1	153	T	T/C	51,6/48,4	83/78	161
controllo_4	POPTR_0014s13560.1	2022	T	T/C	64,5/35,5	40/22	62	stress_12	POPTR_0014s13560.1	2022	T	T/C	71,1/28,9	91/37	128
controllo_4	POPTR_0014s13560.1	1989	C	C/G	66,1/33,9	41/21	62	stress_12	POPTR_0014s13560.1	1989	C	C/G	67,2/32,8	80/39	119
controllo_4	POPTR_0016s14310.1	111	C	T/C	53,2/46,8	33/29	62	stress_12	POPTR_0016s14310.1	111	C	C/T	59,6/40,4	62/42	104
controllo_4	POPTR_0002s07290.1	645	A	A/C	75,4/24,6	46/15	61	stress_12	POPTR_0002s07290.1	645	A	A/C	78,1/21,9	118/33	151
controllo_4	POPTR_0006s11570.1	690	G	C/G	63,9/36,1	39/22	61	stress_12	POPTR_0006s11570.1	690	G	C/G	58,8/41,2	60/42	102
controllo_4	POPTR_0008s15800.1	162	G	G/C	63,9/34,4	39/21	61	stress_12	POPTR_0008s15800.1	162	G	G/C	67,6/32,4	169/81	250
controllo_4	POPTR_0012s08330.1	411	T	C/T	57,4/42,6	35/26	61	stress_12	POPTR_0012s08330.1	411	T	C/T	51,5/47,5	52/48	101
controllo_4	POPTR_0001s21140.1	639	C	C/A	58,3/41,7	35/25	60	stress_12	POPTR_0001s21140.1	639	C	C/A	62,6/36,1	97/56	155
controllo_4	POPTR_0003s11300.1	1944	C	C/T	51,7/48,3	31/29	60	stress_12	POPTR_0003s11300.1	1944	C	C/T	58,9/41,1	73/51	124
controllo_4	POPTR_0007s08400.1	1461	T	T/A	71,7/28,3	43/17	60	stress_12	POPTR_0007s08400.1	1461	T	T/A	73,8/26,2	76/27	103
controllo_4	POPTR_0010s20060.1	1053	C	C/A	78,3/21,7	47/13	60	stress_12	POPTR_0010s20060.1	1053	C	C/A	79,2/20,8	80/21	101
controllo_4	POPTR_0014s13560.1	1599	A	G/A	61,7/38,3	37/23	60	stress_12	POPTR_0014s13560.1	1599	A	G/A	68,3/31,7	69/32	101
controllo_4	POPTR_0014s13560.1	1725	G	C/G	63,3/36,7	38/22	60	stress_12	POPTR_0014s13560.1	1725	G	C/G	62,6/37,4	82/49	131
controllo_4	POPTR_0014s13560.1	1695	A	A/T	71,7/28,3	43/17	60	stress_12	POPTR_0014s13560.1	1695	A	A/T	67,5/32,5	81/39	120
controllo_4	POPTR_0003s11300.1	369	C	C/T	50,8/49,2	30/29	59	stress_12	POPTR_0003s11300.1	369	C	C/T	63,5/36,5	66/38	104
controllo_4	POPTR_0006s13310.1	606	C	C/T	59,3/40,7	35/24	59	stress_12	POPTR_0006s13310.1	606	C	C/T	68,0/32,0	215/101	316
controllo_4	POPTR_0008s20770.1	492	A	G/A	67,8/32,2	40/19	59	stress_12	POPTR_0008s20770.1	492	A	G/A	70,9/29,1	141/58	199
controllo_4	POPTR_0016s14310.1	62	C	C/T	54,2/45,8	32/27	59	stress_12	POPTR_0016s14310.1	62	C	T/C	56,6/43,4	73/56	129
controllo_4	POPTR_0001s21140.1	518	A	G/A	51,7/48,3	30/28	58	stress_12	POPTR_0001s21140.1	518	A	G/A	54,2/45,8	91/77	168
controllo_4	POPTR_0016s14310.1	54	C	A/C	51,7/48,3	30/28	58	stress_12	POPTR_0016s14310.1	54	C	C/A	61,3/38,7	76/48	124
controllo_4	POPTR_0001s21140.1	105	G	G/A	57,9/42,1	33/24	57	stress_12	POPTR_0001s21140.1	105	G	A/G	50,3/49,7	78/77	155
controllo_4	POPTR_0005s26700.1	573	A	A/C	59,6/40,4	34/23	57	stress_12	POPTR_0005s26700.1	573	A	C/A	53,8/46,2	56/48	104
controllo_4	POPTR_0016s14310.1	277	G	A/G	68,4/31,6	39/18	57	stress_12	POPTR_0016s14310.1	277	G	G/A	57,0/43,0	69/52	121
controllo_4	POPTR_0006s05160.1	1494	T	C/T	50,0/50,0	28/28	56	stress_12	POPTR_0006s05160.1	1494	T	C/T	54,7/45,3	58/48	106
controllo_4	POPTR_0008s03160.1	1296	A	G/A	62,5/37,5	35/21	56	stress_12	POPTR_0008s03160.1	1296	A	G/A	58,8/41,2	60/42	102
controllo_4	POPTR_0001s21140.1	651	G	G/A	65,5/34,5	36/19	55	stress_12	POPTR_0001s21140.1	651	G	G/A	63,7/35,7	109/61	171
controllo_4	POPTR_0004s00480.1	95	T	T/C	63,6/36,4	35/20	55	stress_12	POPTR_0004s00480.1	95	T	T/C	59,4/40,6	98/67	165
controllo_4	POPTR_0015s09910.1	302	G	G/A	67,3/32,7	37/18	55	stress_12	POPTR_0015s09910.1	302	G	G/A	82,5/17,5	85/18	103
controllo_4	POPTR_0015s09910.1	264	G	G/T	74,5/25,5	41/14	55	stress_12	POPTR_0015s09910.1	264	G	G/T	83,3/16,7	110/22	132
controllo_4	POPTR_0001s21140.1	318	T	T/C	61,1/38,9	33/21	54	stress_12	POPTR_0001s21140.1	318	T	T/C	54,2/45,8	78/66	144
controllo_4	POPTR_0006s24770.1	43	C	A/C	50,0/50,0	27/27	54	stress_12	POPTR_0006s24770.1	43	C	A/C	65,5/34,5	91/48	139
controllo_4	POPTR_0007s10980.1	1179	C	T/C	55,6/44,4	30/24	54	stress_12	POPTR_0007s10980.1	1179	C	C/T	57,7/42,3	64/47	111
controllo_4	POPTR_0010s21280.1	1852	C	G/C	59,3/40,7	32/22	54	stress_12	POPTR_0010s21280.1	1852	C	G/C	72,0/28,0	116/45	161
controllo_4	POPTR_0003s11300.1	1074	T	T/C	50,9/49,1	27/26	53	stress_12	POPTR_0003s11300.1	1074	T	C/T	50,9/49,1	58/56	114
controllo_4	POPTR_0009s01320.1	1737	T	T/G	52,8/47,2	28/25	53	stress_12	POPTR_0009s01320.1	1737	T	G/T	61,6/38,4	212/132	344
controllo_4	POPTR_0010s26130.1	813	T	T/G	50,9/49,1	27/26	53	stress_12	POPTR_0010s26130.1	813	T	G/T	64,2/35,8	77/43	120
controllo_4	POPTR_0012s11630.1	474	T	C/T	50,9/49,1	27/26	53	stress_12	POPTR_0012s11630.1	474	T	C/T	75,2/24,8	76/25	101
controllo_4	POPTR_0014s13560.1	1638	A	A/T	66,0/34,0	35/18	53	stress_12	POPTR_0014s13560.1	1638	A	A/T	72,4/26,8	92/34	127
controllo_4	POPTR_0004s01660.1	1440	T	T/C	57,7/42,3	30/22	52	stress_12	POPTR_0004s01660.1	1440	T	T/C	53,9/46,1	55/47	102
controllo_4	POPTR_0006s13310.1	618	C	A/C	59,6/40,4	31/21	52	stress_12	POPTR_0006s13310.1	618	C	A/C	71,7/28,3	193/76	269
controllo_4	POPTR_0009s11480.1	675	T	T/C	55,8/44,2	29/23	52	stress_12	POPTR_0009s11480.1	675	T	T/C	53,4/46,6	55/48	103
controllo_4	POPTR_0009s11480.1	1275	T	C/T	57,7/40,4	30/21	52	stress_12	POPTR_0009s11480.1	1275	T	T/C	53,9/41,7	62/48	115
controllo_4	POPTR_0010s21280.1	1656	T	C/T	53,8/46,2	28/24	52	stress_12	POPTR_0010s21280.1	1656	T	T/C	52,9/47,1	55/49	104
controllo_4	POPTR_0008s19160.1	1401	G	C/G	54,9/45,1	28/23	51	stress_12	POPTR_0008s19160.1	1401	G	C/G	64,1/35,9	66/37	103
controllo_4	POPTR_0009s09240.1	1011	A	A/G	54,9/45,1	28/23	51	stress_12	POPTR_0009s09240.1	1011	A	A/G	53,5/46,5	77/67	144
controllo_4	POPTR_0009s11480.1	666	G	G/A	58,0/42,0	29/21	50	stress_12	POPTR_0009s11480.1	666	G	G/A	52,3/47,7	58/53	111
controllo_4	POPTR_0015s09910.1	389	A	A/G	68,0/32,0	34/16	50	stress_12	POPTR_0015s09910.1	389	A	A/G	83,3/16,7	85/17	102
controllo_4	POPTR_0016s02540.1	399	T	T/C	76,0/24,0	38/12	50	stress_12	POPTR_0016s02540.1	399	T	T/C	57,3/42,7	67/50	117
controllo_4	POPTR_0012s11630.1	383	C	C/T	60,4/39,6	29/19	48	stress_12	POPTR_0012s11630.1	383	C	T/C	57,3/42,7	67/50	117
controllo_4	POPTR_0005s21750.1	570	C	C/T	83,0/17,0	39/8	47	stress_12	POPTR_0005s21750.1	570	C	C/T	50,3/49,7	89/88	177
controllo_4	POPTR_0006s13240.1	372	C	T/C	66,0/34,0	31/16	47	stress_12	POPTR_0006s13240.1	372	C	T/C	62,7/37,3	99/59	158
controllo_4	POPTR_0006s13310.1	66	C	C/A	53,2/46,8	25/22	47	stress_12	POPTR_0006s13310.1	66	C	C/A	56,3/43,7	107/83	190
controllo_4	POPTR_0006s13310.1	251	G	A/G	53,2/46,8	25/22	47	stress_12	POPTR_0006s13310.1	251	G	A/G	58,7/41,0	172/120	293
controllo_4	POPTR_0006s24770.1	615	T	T/C	53,2/46,8	25/22	47	stress_12	POPTR_0006s24770.1	615	T	T/C	60,4/39,6	67/44	111
controllo_4	POPTR_0008s20770.1	402	T	T/A	78,7/21,3	37/10	47	stress_12	POPTR_0008s20770.1	402	T	T/A	84,8/15,2	139/25	164
controllo_4	POPTR_0010s16860.1	408	A	A/G	59,6/40,4	28/19	47	stress_12	POPTR_0010s16860.1	408	A	A/G	67,3/32,7	72/35	107
controllo_4	POPTR_0011s12440.1	230	T	C/T	68,1/31,9	32/15	47	stress_12	POPTR_0011s12440.1	230	T	C/T	55,5/43,1	76/59	137
controllo_4	POPTR_0011s12440.1	256	A	A/G	72,3/27,7	34/13	47	stress_12	POPTR_0011s12440.1	256	A	A/G	65,6/34,4	84/44	128
controllo_4	POPTR_0018s09030.1	216	T	A/T	70,2/29,8	33/14	47	stress_12	POPTR_0018s09030.1	216	T	A/T	69,8/30,2	88/38	126
controllo_4	POPTR_0001s21140.1	669	G	G/A	65,2/34,8	30/16	46	stress_12	POPTR_0001s21140.1	669	G	G/A	73,8/26,2	107/38	145
controllo_4	POPTR_0003s11300.1	846	A	A/T	56,5/43,5	26/20	46	stress_12	POPTR_0003s11300.1	846	A	A/T	55,4/44,6	56/45	101
controllo_4	POPTR_0006s13240.1	206	G	A/G	76,1/23,9	35/11	46	stress_12	POPTR_0006s13240.1	206	G	A/G	63,5/36,5	99/57	156
controllo_4	POPTR_0006s13310.1	102	T	T/C	52,2/47,8	24/22	46	stress_12	POPTR_0006s13310.1	102	T	T/C	54,7/45,3	141/117	258
controllo_4	POPTR_0012s08780.1	138	G	G/A	71,7/28,3	33/13	46	stress_12	POPTR_0012s08780.1	138	G	G/A	75,9/24,1	82/26	108
controllo_4	POPTR_0012s08780.1	137	C	C/T	78,3/21,7	36/10	46	stress_12	POPTR_0012s08780.1	137	C	C/T	80,6/19,4	87/21	108
controllo_4	POPTR_0013s14520.1	462	T	T/C	63,0/37,0	29/17	46	stress_12	POPTR_0013s14520.1	462	T	T/C	57,3/42,7	59/44	103
controllo_4	POPTR_0003s11300.1	1167	T	T/A	51,1/48,9	23/22	45	stress_12	POPTR_0003s11300.1	1167	T	A/T	58,7/38,5	61/40	104
controllo_4	POPTR_0006s24770.1	258	T	T/G	53,3/46,7	24/21	45	stress_12	POPTR_0006s24770.1	258	T	G/T	69,5/30,5	98/43	141
controllo_4	POPTR_0009s01320.1	469	T	T/C	51,1/48,9	23/22	45	stress_12	POPTR_0009s01320.1	469	T	T/C	55,8/44,2	129/102	231
controllo_4	POPTR_0009s01320.1	471	G	A/G	51,1/48,9	23/22	45	stress_12	POPTR_0009s01320.1	471	G	A/G	55,1/44,9	125/102	227
controllo_4	POPTR_0009s01320.1	1731	T	A/T	57,8/42,2	26/19	45	stress_12	POPTR_0009s01320.1	1731	T	T/A	61,5/38,5	206/129	335
controllo_4	POPTR_0010s26130.1	189	T	T/C	68,9/31,1	31/14	45	stress_12	POPTR_0010s26130.1	189	T	T/C	64,4/35,6	65/36	101
controllo_4	POPTR_0003s11300.1	1293	G	A/G	63,6/36,4	28/16	44	stress_12	POPTR_0003s11300.1	1293	G	A/G	53,2/46,8	59/52	111
controllo_4	POPTR_0006s13240.1	394	T	A/T	70,5/29,5	31/13	44	stress_12	POPTR_0006s13240.1	394	T	A/T	72,9/26,3	97/35	133
controllo_4	POPTR_0008s20770.1	291	G	G/A	81,8/18,2	36/8	44	stress_12	POPTR_0008s20770.1	291	G	G/A	63,5/36,5	87/50	137
controllo_4	POPTR_0008s22310.1	121	G	G/C	52,3/47,7	23/21	44	stress_12	POPTR_0008s22310.1	121	G	C/G	68,2/31,8	146/68	214
controllo_4	POPTR_0009s11480.1	1344	G	C/G	50,0/50,0	22/22	44	stress_12	POPTR_0009s11480.1	1344	G	G/C	54,8/45,2	57/47	104
controllo_4	POPTR_0011s12440.1	276	G	G/T	65,9/34,1	29/15	44	stress_12	POPTR_0011s12440.1	276	G	G/T	65,4/34,6	83/44	127
controllo_4	POPTR_0012s11630.1	495	T	C/T	59,1/40,9	26/18	44	stress_12	POPTR_0012s11630.1	495	T	C/T	75,2/24,8	82/27	109
controllo_4	POPTR_0017s14310.3	217	A	A/G	52,3/47,7	23/21	44	stress_12	POPTR_0017s14310.3	217	A	G/A	67,8/32,2	118/56	174
controllo_4	POPTR_0006s13240.1	651	T	T/G	62,8/37,2	27/16	43	stress_12	POPTR_0006s13240.1	651	T	T/G	58,3/40,9	67/47	115
controllo_4	POPTR_0007s10980.1	1885	A	G/A	53,5/46,5	23/20	43	stress_12	POPTR_0007s10980.1	1885	A	G/A	56,1/43,9	60/47	107
controllo_4	POPTR_0007s10980.1	211	A	A/C	58,1/41,9	25/18	43	stress_12	POPTR_0007s10980.1	211	A	C/A	58,5/41,5	62/44	106
controllo_4	POPTR_0008s20770.1	324	T	C/T	76,7/23,3	33/10	43	stress_12	POPTR_0008s20770.1	324	T	C/T	52,2/47,8	71/65	136
controllo_4	POPTR_0008s22310.1	92	C	C/T	53,5/46,5	23/20	43	stress_12	POPTR_0008s22310.1	92	C	C/T	50,3/49,7	94/93	187
controllo_4	POPTR_0005s08610.1	213	T	C/T	57,1/42,9	24/18	42	stress_12	POPTR_0005s08610.1	213	T	T/C	62,2/37,8	74/45	119
controllo_4	POPTR_0006s04230.1	597	T	T/C	51,2/48,8	21/20	41	stress_12	POPTR_0006s04230.1	597	T	T/C	57,1/42,9	72/54	126
controllo_4	POPTR_0006s13310.1	312	T	C/T	65,9/34,1	27/14	41	stress_12	POPTR_0006s13310.1	312	T	C/T	59,6/40,1	171/115	287
controllo_4	POPTR_0008s20770.1	165	A	A/C	75,6/24,4	31/10/11	41	stress_12	POPTR_0008s20770.1	165	A	A/C	59,1/40,9	91/63	154
controllo_4	POPTR_0010s21280.1	312	G	G/A	61,0/39,0	25/16	41	stress_12	POPTR_0010s21280.1	312	G	G/A	75,9/24,1	88/28	116
controllo_4	POPTR_0011s12440.1	690	A	G/A	58,5/41,5	24/17	41	stress_12	POPTR_0011s12440.1	690	A	G/A	69,1/30,9	85/38	123
controllo_4	POPTR_0008s15760.1	369	C	G/C	62,5/37,5	25/15	40	stress_12	POPTR_0008s15760.1	369	C	C/G	80,4/19,6	300/73	373
controllo_4	POPTR_0009s01320.1	1752	T	C/T	52,5/47,5	21/19	40	stress_12	POPTR_0009s01320.1	1752	T	T/C	58,4/41,6	146/104	250
controllo_4	POPTR_0011s12440.1	175	T	T/G	52,5/47,5	21/19	40	stress_12	POPTR_0011s12440.1	175	T	G/T	51,0/49,0	73/70	143
controllo_4	POPTR_0013s13220.1	378	A	G/A	60,0/40,0	24/16	40	stress_12	POPTR_0013s13220.1	378	A	G/A	58,1/41,9	72/52	124
controllo_4	POPTR_0003s18530.1	549	A	A/G	56,4/43,6	22/17	39	stress_12	POPTR_0003s18530.1	549	A	A/G	57,3/42,7	59/44	103
controllo_4	POPTR_0004s00480.1	780	C	T/C	56,4/43,6	22/17	39	stress_12	POPTR_0004s00480.1	780	C	T/C	52,8/47,2	66/59	125
controllo_4	POPTR_0006s13240.1	663	T	T/C	61,5/38,5	24/15	39	stress_12	POPTR_0006s13240.1	663	T	T/C	63,2/36,8	67/39	106
controllo_4	POPTR_0006s13310.1	279	T	A/T	56,4/43,6	22/17	39	stress_12	POPTR_0006s13310.1	279	T	A/T	57,6/41,7	152/110	264
controllo_4	POPTR_0006s28120.1	119	C	T/C	59,0/41,0	23/16	39	stress_12	POPTR_0006s28120.1	119	C	T/C	61,9/38,1	86/53	139
controllo_4	POPTR_0008s22310.1	168	G	G/C	56,4/43,6	22/17	39	stress_12	POPTR_0008s22310.1	168	G	C/G	67,2/32,8	125/61	186
controllo_4	POPTR_0002s07290.1	122	G	G/A	81,6/18,4	31/07/11	38	stress_12	POPTR_0002s07290.1	122	G	G/A	83,6/16,4	97/19	116
controllo_4	POPTR_0006s24770.1	655	G	G/A	65,8/34,2	25/13	38	stress_12	POPTR_0006s24770.1	655	G	G/A	60,4/39,6	61/40	101
controllo_4	POPTR_0008s20770.1	436	A	G/A	73,7/26,3	28/10/11	38	stress_12	POPTR_0008s20770.1	436	A	G/A	66,4/33,6	83/42	125
controllo_4	POPTR_0009s09240.1	945	C	C/T	60,5/39,5	23/15	38	stress_12	POPTR_0009s09240.1	945	C	T/C	52,6/47,4	60/54	114
controllo_4	POPTR_0004s00480.1	708	C	G/C	64,9/35,1	24/13	37	stress_12	POPTR_0004s00480.1	708	C	G/C	55,2/44,8	85/69	154
controllo_4	POPTR_0004s00480.1	261	T	T/G	73,0/27,0	27/10/11	37	stress_12	POPTR_0004s00480.1	261	T	T/G	61,8/38,2	94/58	152
controllo_4	POPTR_0004s01940.1	342	T	T/A	64,9/35,1	24/13	37	stress_12	POPTR_0004s01940.1	342	T	A/T	50,5/49,5	112/110	222
controllo_4	POPTR_0011s12440.1	675	C	C/T	56,8/43,2	21/16	37	stress_12	POPTR_0011s12440.1	675	C	C/T	63,0/37,0	92/54	146
controllo_4	POPTR_0004s00480.1	298	G	A/G	58,3/41,7	21/15	36	stress_12	POPTR_0004s00480.1	298	G	G/A	53,1/46,9	77/68	145
controllo_4	POPTR_0004s01940.1	426	A	A/C	61,1/38,9	22/14	36	stress_12	POPTR_0004s01940.1	426	A	C/A	51,6/48,4	97/91	188
controllo_4	POPTR_0004s17020.1	2085	G	T/G	58,3/41,7	21/15	36	stress_12	POPTR_0004s17020.1	2085	G	T/G	51,5/47,0	68/62	132
controllo_4	POPTR_0006s04230.1	465	T	C/T	69,4/30,6	25/11/11	36	stress_12	POPTR_0006s04230.1	465	T	C/T	52,4/47,6	65/59	124
controllo_4	POPTR_0008s15760.1	367	G	G/C	61,1/38,9	22/14	36	stress_12	POPTR_0008s15760.1	367	G	C/G	79,4/20,6	317/82	399
controllo_4	POPTR_0011s12440.1	676	G	A/G	55,6/44,4	20/16	36	stress_12	POPTR_0011s12440.1	676	G	A/G	60,6/39,4	83/54	137
controllo_4	POPTR_0003s18530.1	555	T	C/T	54,3/45,7	19/16	35	stress_12	POPTR_0003s18530.1	555	T	C/T	60,4/39,6	61/40	101
controllo_4	POPTR_0006s28120.1	87	C	C/A	80,0/20,0	28/07/11	35	stress_12	POPTR_0006s28120.1	87	C	C/A	73,5/25,5	75/26	102
controllo_4	POPTR_0004s00480.1	47	C	A/C	55,9/44,1	19/15	34	stress_12	POPTR_0004s00480.1	47	C	C/A	57,4/42,6	70/52	122
controllo_4	POPTR_0005s21750.1	640	G	A/G	82,4/17,6	28/06/11	34	stress_12	POPTR_0005s21750.1	640	G	G/A	63,9/36,1	76/43	119
controllo_4	POPTR_0006s13240.1	177	C	C/A	82,4/17,6	28/06/11	34	stress_12	POPTR_0006s13240.1	177	C	C/A	67,2/32,0	86/41	128
controllo_4	POPTR_0013s14520.1	172	G	G/A	82,4/17,6	28/06/11	34	stress_12	POPTR_0013s14520.1	172	G	G/A	74,5/25,5	79/27	106
controllo_4	POPTR_0006s04230.1	243	C	C/A	66,7/33,3	22/11/11	33	stress_12	POPTR_0006s04230.1	243	C	A/C	50,8/49,2	61/59	120
controllo_4	POPTR_0001s13100.1	253	A	G/A	84,4/15,6	27/05/11	32	stress_12	POPTR_0001s13100.1	253	A	A/G	61,3/38,7	258/163	421
controllo_4	POPTR_0002s07290.1	383	C	A/C	78,1/21,9	25/07/11	32	stress_12	POPTR_0002s07290.1	383	C	A/C	83,5/16,5	91/18	109
controllo_4	POPTR_0004s00480.1	233	G	G/T	81,2/18,8	26/06/11	32	stress_12	POPTR_0004s00480.1	233	G	G/T	65,4/34,6	100/53	153
controllo_4	POPTR_0004s00480.1	152	C	C/A	84,4/15,6	27/05/11	32	stress_12	POPTR_0004s00480.1	152	C	C/A	78,5/21,5	106/29	135
controllo_4	POPTR_0014s00810.1	89	G	G/T	62,5/37,5	20/12/11	32	stress_12	POPTR_0014s00810.1	89	G	G/T	72,0/28,0	77/30	107
controllo_4	POPTR_0016s03230.1	361	A	T/A	78,1/21,9	25/07/11	32	stress_12	POPTR_0016s03230.1	361	A	T/A	70,7/29,3	128/53	181
controllo_4	POPTR_0008s20770.1	522	A	G/A	67,7/32,3	21/10/11	31	stress_12	POPTR_0008s20770.1	522	A	G/A	55,9/44,1	71/56	127
controllo_4	POPTR_0009s09710.1	1265	C	C/T	58,1/41,9	18/13	31	stress_12	POPTR_0009s09710.1	1265	C	C/T	57,7/42,3	82/60	142
controllo_4	POPTR_0009s09710.1	1279	G	T/G	71,0/29,0	22/09/11	31	stress_12	POPTR_0009s09710.1	1279	G	T/G	69,4/30,6	86/38	124
controllo_4	POPTR_0001s36330.1	1167	G	G/A	60,0/40,0	18/12/11	30	stress_12	POPTR_0001s36330.1	1167	G	G/A	68,6/31,4	120/55	175
controllo_4	POPTR_0004s00480.1	441	T	T/C	63,3/36,7	19/11/11	30	stress_12	POPTR_0004s00480.1	441	T	T/C	55,9/43,4	85/66	152
controllo_4	POPTR_0004s07620.1	558	G	G/A	56,7/43,3	17/13	30	stress_12	POPTR_0004s07620.1	558	G	G/A	58,6/41,4	65/46	111
controllo_4	POPTR_0006s04230.1	477	T	T/C	70,0/30,0	21/09/11	30	stress_12	POPTR_0006s04230.1	477	T	T/C	50,4/49,6	60/59	119
controllo_4	POPTR_0008s22310.1	57	C	C/T	56,7/43,3	17/13	30	stress_12	POPTR_0008s22310.1	57	C	T/C	57,6/42,4	76/56	132
controllo_4	POPTR_0009s01320.1	210	T	C/T	56,7/43,3	17/13	30	stress_12	POPTR_0009s01320.1	210	T	C/T	58,7/41,3	105/74	179
controllo_4	POPTR_0009s01320.1	1113	T	C/T	56,7/43,3	17/13	30	stress_12	POPTR_0009s01320.1	1113	T	C/T	65,6/34,4	126/66	192
controllo_4	POPTR_0009s09710.1	613	G	G/A	56,7/43,3	17/13	30	stress_12	POPTR_0009s09710.1	613	G	A/G	51,2/48,8	84/80	164
controllo_4	POPTR_0008s20770.1	303	A	A/G	82,8/17,2	24/05/11	29	stress_12	POPTR_0008s20770.1	303	A	A/G	63,1/36,9	70/41	111
controllo_4	POPTR_0009s01320.1	1155	G	G/A	55,2/44,8	16/13	29	stress_12	POPTR_0009s01320.1	1155	G	A/G	61,5/38,5	118/74	192
controllo_4	POPTR_0016s03230.1	90	A	A/G	55,2/44,8	16/13	29	stress_12	POPTR_0016s03230.1	90	A	A/G	78,8/20,7	141/37	179
controllo_4	POPTR_0018s09030.1	268	A	A/C	69,0/31,0	20/09/11	29	stress_12	POPTR_0018s09030.1	268	A	A/C	73,5/26,5	75/27	102
controllo_4	POPTR_0004s07620.1	559	G	A/G	53,6/46,4	15/13	28	stress_12	POPTR_0004s07620.1	559	G	A/G	57,0/43,0	61/46	107
controllo_4	POPTR_0016s03230.1	55	A	A/G	57,1/42,9	16/12/11	28	stress_12	POPTR_0016s03230.1	55	A	A/G	84,5/15,5	131/24	155
controllo_4	POPTR_0001s10880.1	1134	A	G/A	51,9/48,1	14/13	27	stress_12	POPTR_0001s10880.1	1134	A	G/A	50,5/48,6	55/53	109
controllo_4	POPTR_0009s01320.1	1077	T	G/T	55,6/44,4	15/12/11	27	stress_12	POPTR_0009s01320.1	1077	T	T/G	63,0/37,0	121/71	192
controllo_4	POPTR_0009s01320.1	1263	T	T/C	70,4/29,6	19/08/11	27	stress_12	POPTR_0009s01320.1	1263	T	T/C	61,0/39,0	161/103	264
controllo_4	POPTR_0009s09710.1	597	A	G/A	51,9/48,1	14/13	27	stress_12	POPTR_0009s09710.1	597	A	A/G	54,7/45,3	82/68	150
controllo_4	POPTR_0010s21350.1	1599	T	C/T	81,5/18,5	22/05/11	27	stress_12	POPTR_0010s21350.1	1599	T	C/T	64,4/35,6	65/36	101
controllo_4	POPTR_0001s13100.1	272	C	C/A	80,8/19,2	21/05/11	26	stress_12	POPTR_0001s13100.1	272	C	A/C	58,9/41,1	202/141	343
controllo_4	POPTR_0001s36330.1	942	T	T/C	73,1/26,9	19/07/11	26	stress_12	POPTR_0001s36330.1	942	T	C/T	50,4/48,0	62/59	123
controllo_4	POPTR_0003s20840.1	1626	C	C/T	61,5/34,6	16/09/11	26	stress_12	POPTR_0003s20840.1	1626	C	C/T	57,0/43,0	61/46	107
controllo_4	POPTR_0004s17020.1	1710	T	A/T	57,7/42,3	15/11/11	26	stress_12	POPTR_0004s17020.1	1710	T	A/T	52,4/47,6	55/50	105
controllo_4	POPTR_0009s01320.1	426	C	C/T	57,7/42,3	15/11/11	26	stress_12	POPTR_0009s01320.1	426	C	T/C	64,9/35,1	126/68	194
controllo_4	POPTR_0009s09710.1	375	A	A/G	53,8/46,2	14/12/11	26	stress_12	POPTR_0009s09710.1	375	A	A/G	51,2/48,8	85/81	166
controllo_4	POPTR_0014s00810.1	83	A	A/G	65,4/34,6	17/09/11	26	stress_12	POPTR_0014s00810.1	83	A	A/G	65,0/35,0	67/36	103
controllo_4	POPTR_0009s01320.1	1773	C	C/G	52,0/48,0	13/12/11	25	stress_12	POPTR_0009s01320.1	1773	C	G/C	56,0/44,0	65/51	116
controllo_4	POPTR_0009s09710.1	1427	T	T/C	54,2/45,8	13/11/11	24	stress_12	POPTR_0009s09710.1	1427	T	C/T	50,4/49,6	68/67	135
controllo_4	POPTR_0005s27240.1	1151	G	G/A	54,5/45,5	12/10/11	22	stress_12	POPTR_0005s27240.1	1151	G	G/A	73,5/26,5	75/27	102
controllo_4	POPTR_0009s01320.1	550	T	T/C	54,5/45,5	12/10/11	22	stress_12	POPTR_0009s01320.1	550	T	T/C	67,3/32,1	132/63	196
controllo_4	POPTR_0017s14090.1	57	G	G/A	81,8/18,2	18/04/11	22	stress_12	POPTR_0017s14090.1	57	G	G/A	60,0/40,0	108/72	180
controllo_4	POPTR_0003s20840.1	1488	G	G/A	66,7/33,3	14/07/11	21	stress_12	POPTR_0003s20840.1	1488	G	G/A	51,2/48,8	64/61	125
controllo_4	POPTR_0009s09710.1	405	C	T/C	52,4/47,6	11/10/11	21	stress_12	POPTR_0009s09710.1	405	C	T/C	57,6/42,4	76/56	132
controllo_4	POPTR_0016s03230.1	390	A	A/G	76,2/23,8	16/05/11	21	stress_12	POPTR_0016s03230.1	390	A	A/G	74,4/25,6	93/32	125
controllo_4	POPTR_0005s27240.1	2094	G	A/G	63,2/36,8	12/07/11	19	stress_12	POPTR_0005s27240.1	2094	G	G/A	68,0/31,3	102/47	150
controllo_4	POPTR_0009s09710.1	403	C	G/C	52,6/47,4	10/09/11	19	stress_12	POPTR_0009s09710.1	403	C	C/G	56,7/43,3	76/58	134
controllo_4	POPTR_0016s03230.1	663	G	G/A	52,6/47,4	10/09/11	19	stress_12	POPTR_0016s03230.1	663	G	A/G	67,8/32,2	101/48	149
controllo_4	POPTR_0001s10880.1	330	T	A/T	66,7/33,3	12/06/11	18	stress_12	POPTR_0001s10880.1	330	T	T/A	51,9/48,1	54/50	104
controllo_4	POPTR_0003s20840.1	1059	T	C/T	55,6/44,4	10/08/11	18	stress_12	POPTR_0003s20840.1	1059	T	C/T	53,5/46,5	54/47	101
controllo_4	POPTR_0005s24490.1	1489	G	T/G	83,3/16,7	15/03/11	18	stress_12	POPTR_0005s24490.1	1489	G	T/G	63,3/36,7	105/61	166
controllo_4	POPTR_0001s36330.1	390	T	T/G	70,6/29,4	12/05/11	17	stress_12	POPTR_0001s36330.1	390	T	G/T	62,1/37,9	64/39	103
controllo_4	POPTR_0003s20840.1	1015	G	G/C	52,9/47,1	09/08/11	17	stress_12	POPTR_0003s20840.1	1015	G	G/C	58,2/41,8	64/46	110
controllo_4	POPTR_0017s14090.1	162	A	A/G	76,5/23,5	13/04/11	17	stress_12	POPTR_0017s14090.1	162	A	A/G	55,7/44,3	59/47	106
controllo_4	POPTR_0003s20840.1	1392	A	G/A	62,5/37,5	10/06/11	16	stress_12	POPTR_0003s20840.1	1392	A	A/G	54,7/45,3	70/58	128
controllo_4	POPTR_0003s20840.1	1148	T	A/T	50,0/50,0	08/08/11	16	stress_12	POPTR_0003s20840.1	1148	T	A/T	50,8/49,2	64/62	126
controllo_4	POPTR_0009s09710.1	439	A	A/T	50,0/50,0	08/08/11	16	stress_12	POPTR_0009s09710.1	439	A	A/T	66,7/33,3	86/43	129
controllo_4	POPTR_0001s36330.1	1263	C	C/T	66,7/33,3	10/05/11	15	stress_12	POPTR_0001s36330.1	1263	C	C/T	79,2/20,8	95/25	120
controllo_4	POPTR_0001s36330.1	1245	C	C/T	73,3/26,7	11/04/11	15	stress_12	POPTR_0001s36330.1	1245	C	C/T	64,3/35,7	74/41	115
controllo_4	POPTR_0001s36330.1	1011	G	G/A	53,3/46,7	08/07/11	15	stress_12	POPTR_0001s36330.1	1011	G	A/G	54,1/45,9	60/51	111
controllo_4	POPTR_0005s24490.1	1440	T	A/T	73,3/26,7	11/04/11	15	stress_12	POPTR_0005s24490.1	1440	T	A/T	54,6/45,4	77/64	141
controllo_4	POPTR_0001s36330.1	1266	C	C/A	64,3/35,7	09/05/11	14	stress_12	POPTR_0001s36330.1	1266	C	C/A	79,6/20,4	90/23	113
controllo_4	POPTR_0001s36330.1	468	A	A/G	58,3/41,7	07/05/11	12	stress_12	POPTR_0001s36330.1	468	A	A/G	57,7/42,3	64/47	111
controllo_4	POPTR_0016s03230.1	835	G	G/T	66,7/33,3	08/04/11	12	stress_12	POPTR_0016s03230.1	835	G	G/T	69,5/30,5	114/50	164
controllo_4	POPTR_0001s36330.1	726	T	C/T	63,6/36,4	07/04/11	11	stress_12	POPTR_0001s36330.1	726	T	C/T	50,4/48,9	68/66	135
controllo_4	POPTR_0003s20840.1	1258	G	G/A	63,6/36,4	07/04/11	11	stress_12	POPTR_0003s20840.1	1258	G	A/G	53,5/46,5	54/47	101
controllo_4	POPTR_0016s03230.1	821	G	G/A	54,5/45,5	06/05/11	11	stress_12	POPTR_0016s03230.1	821	G	A/G	65,7/34,3	113/59	172
controllo_4	POPTR_0009s09710.1	69	A	A/G	80,0/20,0	08/02/11	10	stress_12	POPTR_0009s09710.1	69	A	A/G	53,6/46,4	75/65	140
controllo_3	"POPTR_0019s12320.1"	1614	"	"A/T/	"46,1/35,6/18,3"	"88/68/35"	191	stress_12bis	"POPTR_0019s12320.1"	1614	"	"T/A"	"50,9/36,8"	"29/21"	57
controllo_3	"POPTR_0017s05700.1"	192	"	"A/G"	"48,0/45,5"	"133/126"	277	stress_12bis	"POPTR_0017s05700.1"	192	"	"A/G"	"57,3/39,0"	"47/32"	82
controllo_3	"POPTR_0017s05700.1"	192	"	"A/G"	"48,0/45,5"	"133/126"	277	stress_42	"POPTR_0017s05700.1"	192	"	"A/G"	"49,1/45,3"	"26/24"	53
controllo_3	"POPTR_0017s05700.1"	192	"	"A/G"	"48,0/45,5"	"133/126"	277	stress_45	"POPTR_0017s05700.1"	192	"	"G/A"	"55,4/44,6"	"36/29"	65
controllo_3	"POPTR_0014s17610.1"	933	"	"T/A"	"49,4/48,8"	"83/82"	168	stress_12bis	"POPTR_0014s17610.1"	933	"	"T/A"	"67,6/30,9"	"46/21"	68
controllo_3	"POPTR_0014s17610.1"	933	"	"T/A"	"49,4/48,8"	"83/82"	168	stress_42	"POPTR_0014s17610.1"	933	"	"A/T"	"50,0/50,0"	"8/8"	16
controllo_3	"POPTR_0014s17610.1"	933	"	"T/A"	"49,4/48,8"	"83/82"	168	stress_45	"POPTR_0014s17610.1"	933	"	"T/A"	"51,6/45,2"	"16/14"	31
controllo_3	"POPTR_0014s15910.1"	393	"	"A/T"	"49,6/49,6"	"70/70"	141	stress_12bis	"POPTR_0014s15910.1"	393	"	"T/A"	"55,4/43,1"	"36/28"	65
controllo_3	"POPTR_0014s15910.1"	393	"	"A/T"	"49,6/49,6"	"70/70"	141	stress_42	"POPTR_0014s15910.1"	393	"	"T/A"	"51,6/48,4"	"47/44"	91
controllo_3	"POPTR_0014s15910.1"	393	"	"A/T"	"49,6/49,6"	"70/70"	141	stress_45	"POPTR_0014s15910.1"	393	"	"A/T"	"55,1/43,6"	"43/34"	78
controllo_3	"POPTR_0006s14630.1"	244	"	"G/T"	"49,7/49,4"	"169/168"	340	stress_12bis	"POPTR_0006s14630.1"	244	"	"G/T"	"52,4/47,6"	"44/40"	84
controllo_3	"POPTR_0006s14630.1"	244	"	"G/T"	"49,7/49,4"	"169/168"	340	stress_42	"POPTR_0006s14630.1"	244	"	"T/G"	"63,4/34,1"	"26/14"	41
controllo_3	"POPTR_0006s14630.1"	244	"	"G/T"	"49,7/49,4"	"169/168"	340	stress_45	"POPTR_0006s14630.1"	244	"	"T/G"	"59,1/40,9"	"13/9"	22
controllo_3	"POPTR_0003s10720.1"	597	"	"C/T"	"49,7/49,7"	"81/81"	163	stress_12bis	"POPTR_0003s10720.1"	597	"	"C/T"	"60,0/40,0"	"48/32"	80
controllo_3	"POPTR_0003s10720.1"	597	"	"C/T"	"49,7/49,7"	"81/81"	163	stress_42	"POPTR_0003s10720.1"	597	"	"C/T"	"54,9/45,1"	"28/23"	51
controllo_3	"POPTR_0003s10720.1"	597	"	"C/T"	"49,7/49,7"	"81/81"	163	stress_45	"POPTR_0003s10720.1"	597	"	"T/C"	"52,9/47,1"	"55/49"	104
controllo_3	"POPTR_0005s26700.1"	861	"	"A/G"	"49,8/49,8"	"107/107"	215	stress_12bis	"POPTR_0005s26700.1"	861	"	"A/G"	"50,5/49,5"	"49/48"	97
controllo_3	"POPTR_0005s26700.1"	861	"	"A/G"	"49,8/49,8"	"107/107"	215	stress_42	"POPTR_0005s26700.1"	861	"	"A/G"	"60,0/40,0"	"15/10"	25
controllo_3	"POPTR_0005s26700.1"	861	"	"A/G"	"49,8/49,8"	"107/107"	215	stress_45	"POPTR_0005s26700.1"	861	"	"A/G"	"50,0/50,0"	"11/11"	22
controllo_3	"POPTR_0001s31700.1"	972	"	"A/T"	"49,9/49,6"	"194/193"	389	stress_12bis	"POPTR_0001s31700.1"	972	"	"T/A"	"54,5/45,5"	"55/46"	101
controllo_3	"POPTR_0001s31700.1"	972	"	"A/T"	"49,9/49,6"	"194/193"	389	stress_42	"POPTR_0001s31700.1"	972	"	"T/A"	"53,1/46,2"	"76/66"	143
controllo_3	"POPTR_0001s31700.1"	972	"	"A/T"	"49,9/49,6"	"194/193"	389	stress_45	"POPTR_0001s31700.1"	972	"	"T/A"	"52,3/47,2"	"101/91"	193
controllo_3	"POPTR_0003s09830.1"	642	"	"T/C"	"49,9/49,8"	"365/364"	731	stress_12bis	"POPTR_0003s09830.1"	642	"	"T/C"	"50,3/47,7"	"76/72"	151
controllo_3	"POPTR_0003s09830.1"	642	"	"T/C"	"49,9/49,8"	"365/364"	731	stress_42	"POPTR_0003s09830.1"	642	"	"T/C"	"56,8/43,2"	"21/16"	37
controllo_3	"POPTR_0003s09830.1"	642	"	"T/C"	"49,9/49,8"	"365/364"	731	stress_45	"POPTR_0003s09830.1"	642	"	"T/C"	"51,1/46,7"	"23/21"	45
controllo_3	"POPTR_0004s01660.1"	750	"	"C/T"	"50,0/48,9"	"88/86"	176	stress_12bis	"POPTR_0004s01660.1"	750	"	"T/C"	"52,3/46,2"	"34/30"	65
controllo_3	"POPTR_0004s01660.1"	750	"	"C/T"	"50,0/48,9"	"88/86"	176	stress_42	"POPTR_0004s01660.1"	750	"	"T/C"	"62,5/37,5"	"10/6"	16
controllo_3	"POPTR_0004s01660.1"	750	"	"C/T"	"50,0/48,9"	"88/86"	176	stress_45	"POPTR_0004s01660.1"	750	"	"C/T"	"53,8/46,2"	"21/18"	39
controllo_3	"POPTR_0011s14150.1"	282	"	"T/A"	"50,0/49,1"	"54/53"	108	stress_12bis	"POPTR_0011s14150.1"	282	"	"A/T"	"51,1/48,9"	"23/22"	45
controllo_3	"POPTR_0011s14150.1"	282	"	"T/A"	"50,0/49,1"	"54/53"	108	stress_42	"POPTR_0011s14150.1"	282	"	"T/A"	"56,2/43,8"	"18/14"	32
controllo_3	"POPTR_0011s14150.1"	282	"	"T/A"	"50,0/49,1"	"54/53"	108	stress_45	"POPTR_0011s14150.1"	282	"	"T/A"	"55,3/44,7"	"26/21"	47
controllo_3	"POPTR_0003s11300.1"	1167	"	"A/T"	"50,0/49,2"	"130/128"	260	stress_12bis	"POPTR_0003s11300.1"	1167	"	"A/T"	"57,4/42,6"	"66/49"	115
controllo_3	"POPTR_0003s11300.1"	1167	"	"A/T"	"50,0/49,2"	"130/128"	260	stress_42	"POPTR_0003s11300.1"	1167	"	"T/A"	"68,8/31,2"	"11/5"	16
controllo_3	"POPTR_0003s11300.1"	1167	"	"A/T"	"50,0/49,2"	"130/128"	260	stress_45	"POPTR_0003s11300.1"	1167	"	"T/A"	"54,2/41,7"	"13/10"	24
controllo_3	"POPTR_0001s12960.1"	588	"	"T/C"	"50,0/49,2"	"59/58"	118	stress_12bis	"POPTR_0001s12960.1"	588	"	"T/C"	"68,0/32,0"	"34/16"	50
controllo_3	"POPTR_0001s12960.1"	588	"	"T/C"	"50,0/49,2"	"59/58"	118	stress_42	"POPTR_0001s12960.1"	588	"	"T/C"	"52,0/48,0"	"53/49"	102
controllo_3	"POPTR_0001s12960.1"	588	"	"T/C"	"50,0/49,2"	"59/58"	118	stress_45	"POPTR_0001s12960.1"	588	"	"T/C"	"60,3/39,7"	"82/54"	136
controllo_3	"POPTR_0016s09280.1"	2245	"	"A/C"	"50,0/49,2"	"66/65"	132	stress_12bis	"POPTR_0016s09280.1"	2245	"	"C/A"	"67,5/32,5"	"27/13"	40
controllo_3	"POPTR_0016s09280.1"	2245	"	"A/C"	"50,0/49,2"	"66/65"	132	stress_42	"POPTR_0016s09280.1"	2245	"	"A/C"	"50,0/50,0"	"23/23"	46
controllo_3	"POPTR_0016s09280.1"	2245	"	"A/C"	"50,0/49,2"	"66/65"	132	stress_45	"POPTR_0016s09280.1"	2245	"	"C/A"	"59,4/40,6"	"41/28"	69
controllo_3	"POPTR_0009s13650.1"	639	"	"T/G"	"50,0/49,3"	"73/72"	146	stress_12bis	"POPTR_0009s13650.1"	639	"	"T/G"	"55,3/44,7"	"42/34"	76
controllo_3	"POPTR_0009s13650.1"	639	"	"T/G"	"50,0/49,3"	"73/72"	146	stress_42	"POPTR_0009s13650.1"	639	"	"G/T"	"58,3/40,3"	"42/29"	72
controllo_3	"POPTR_0009s13650.1"	639	"	"T/G"	"50,0/49,3"	"73/72"	146	stress_45	"POPTR_0009s13650.1"	639	"	"T/G"	"56,4/41,8"	"31/23"	55
controllo_3	"POPTR_0002s18510.1"	98	"	"T/A"	"50,0/49,3"	"76/75"	152	stress_12bis	"POPTR_0002s18510.1"	98	"	"A/T"	"59,5/40,5"	"25/17"	42
controllo_3	"POPTR_0002s18510.1"	98	"	"T/A"	"50,0/49,3"	"76/75"	152	stress_42	"POPTR_0002s18510.1"	98	"	"T/A"	"56,4/43,6"	"22/17"	39
controllo_3	"POPTR_0002s18510.1"	98	"	"T/A"	"50,0/49,3"	"76/75"	152	stress_45	"POPTR_0002s18510.1"	98	"	"T/A"	"53,1/46,9"	"26/23"	49
controllo_3	"POPTR_0009s06690.1"	276	"	"A/T"	"50,0/49,4"	"82/81"	164	stress_12bis	"POPTR_0009s06690.1"	276	"	"A/T"	"57,8/42,2"	"26/19"	45
controllo_3	"POPTR_0009s06690.1"	276	"	"A/T"	"50,0/49,4"	"82/81"	164	stress_42	"POPTR_0009s06690.1"	276	"	"T/A"	"61,3/38,7"	"46/29"	75
controllo_3	"POPTR_0009s06690.1"	276	"	"A/T"	"50,0/49,4"	"82/81"	164	stress_45	"POPTR_0009s06690.1"	276	"	"T/A"	"50,6/49,4"	"78/76"	154
controllo_3	"POPTR_0001s26970.1"	906	"	"C/T"	"50,0/49,4"	"85/84"	170	stress_12bis	"POPTR_0001s26970.1"	906	"	"T/C"	"60,9/39,1"	"39/25"	64
controllo_3	"POPTR_0001s26970.1"	906	"	"C/T"	"50,0/49,4"	"85/84"	170	stress_42	"POPTR_0001s26970.1"	906	"	"C/T"	"50,0/50,0"	"8/8"	16
controllo_3	"POPTR_0001s26970.1"	906	"	"C/T"	"50,0/49,4"	"85/84"	170	stress_45	"POPTR_0001s26970.1"	906	"	"C/T"	"60,0/40,0"	"15/10"	25
controllo_3	"POPTR_0011s11390.1"	611	"	"G/C"	"50,0/49,9"	"871/870"	1742	stress_12bis	"POPTR_0011s11390.1"	611	"	"G/C"	"53,5/46,5"	"306/266"	572
controllo_3	"POPTR_0011s11390.1"	611	"	"G/C"	"50,0/49,9"	"871/870"	1742	stress_42	"POPTR_0011s11390.1"	611	"	"C/G"	"69,0/31,0"	"80/36"	116
controllo_3	"POPTR_0011s11390.1"	611	"	"G/C"	"50,0/49,9"	"871/870"	1742	stress_45	"POPTR_0011s11390.1"	611	"	"C/G"	"71,2/28,8"	"89/36"	125
controllo_3	"POPTR_0006s03660.1"	2934	"	"C/T"	"50,0/50,0"	"92/92"	184	stress_12bis	"POPTR_0006s03660.1"	2934	"	"C/T"	"52,6/47,4"	"20/18"	38
controllo_3	"POPTR_0006s03660.1"	2934	"	"C/T"	"50,0/50,0"	"92/92"	184	stress_42	"POPTR_0006s03660.1"	2934	"	"C/T"	"56,2/43,8"	"9/7"	16
controllo_3	"POPTR_0006s03660.1"	2934	"	"C/T"	"50,0/50,0"	"92/92"	184	stress_45	"POPTR_0006s03660.1"	2934	"	"C/T"	"55,1/44,9"	"27/22"	49
controllo_3	"POPTR_0018s09730.1"	537	"	"C/G"	"50,0/50,0"	"49/49"	98	stress_42	"POPTR_0018s09730.1"	537	"	"C/G"	"58,9/41,1"	"76/53"	129
controllo_3	"POPTR_0018s09730.1"	537	"	"C/G"	"50,0/50,0"	"49/49"	98	stress_45	"POPTR_0018s09730.1"	537	"	"C/G"	"54,9/45,1"	"107/88"	195
controllo_3	"POPTR_0018s09730.1"	594	"	"C/T"	"50,0/50,0"	"45/45"	90	stress_42	"POPTR_0018s09730.1"	594	"	"T/C"	"56,7/43,3"	"76/58"	134
controllo_3	"POPTR_0018s09730.1"	594	"	"C/T"	"50,0/50,0"	"45/45"	90	stress_45	"POPTR_0018s09730.1"	594	"	"T/C"	"58,2/41,8"	"138/99"	237
controllo_3	"POPTR_0003s21070.1"	425	"	"C/T"	"50,0/50,0"	"55/55"	110	stress_12bis	"POPTR_0003s21070.1"	425	"	"C/T"	"64,7/35,3"	"11/6"	17
controllo_3	"POPTR_0003s21070.1"	425	"	"C/T"	"50,0/50,0"	"55/55"	110	stress_42	"POPTR_0003s21070.1"	425	"	"T/C"	"61,1/38,9"	"11/7"	18
controllo_3	"POPTR_0003s21070.1"	425	"	"C/T"	"50,0/50,0"	"55/55"	110	stress_45	"POPTR_0003s21070.1"	425	"	"T/C"	"55,0/45,0"	"11/9"	20
controllo_3	"POPTR_0003s08140.1"	423	"	"A/C"	"50,0/50,0"	"6/6"	12	stress_42	"POPTR_0003s08140.1"	423	"	"C/A"	"65,8/34,2"	"221/115"	336
controllo_3	"POPTR_0003s08140.1"	423	"	"A/C"	"50,0/50,0"	"6/6"	12	stress_45	"POPTR_0003s08140.1"	423	"	"C/A"	"62,3/37,7"	"231/140"	371
controllo_3	"POPTR_0003s11300.1"	1587	"	"C/T"	"50,0/50,0"	"171/171"	342	stress_12bis	"POPTR_0003s11300.1"	1587	"	"C/T"	"58,3/41,7"	"70/50"	120
controllo_3	"POPTR_0003s11300.1"	1587	"	"C/T"	"50,0/50,0"	"171/171"	342	stress_42	"POPTR_0003s11300.1"	1587	"	"C/T"	"51,9/48,1"	"14/13"	27
controllo_3	"POPTR_0003s11300.1"	1587	"	"C/T"	"50,0/50,0"	"171/171"	342	stress_45	"POPTR_0003s11300.1"	1587	"	"C/T"	"51,5/48,5"	"17/16"	33
controllo_3	"POPTR_0003s14170.1"	435	"	"C/T"	"50,0/50,0"	"118/118"	236	stress_12bis	"POPTR_0003s14170.1"	435	"	"C/T"	"55,6/44,4"	"25/20"	45
controllo_3	"POPTR_0003s14170.1"	435	"	"C/T"	"50,0/50,0"	"118/118"	236	stress_42	"POPTR_0003s14170.1"	435	"	"C/T"	"58,3/41,7"	"7/5"	12
controllo_3	"POPTR_0003s14170.1"	435	"	"C/T"	"50,0/50,0"	"118/118"	236	stress_45	"POPTR_0003s14170.1"	435	"	"C/T"	"73,7/26,3"	"14/5"	19
controllo_3	"POPTR_0022s00530.1"	75	"	"C/T"	"50,0/50,0"	"83/83"	166	stress_12bis	"POPTR_0022s00530.1"	75	"	"C/T"	"51,6/48,4"	"16/15"	31
controllo_3	"POPTR_0022s00530.1"	75	"	"C/T"	"50,0/50,0"	"83/83"	166	stress_42	"POPTR_0022s00530.1"	75	"	"T/C"	"69,2/30,8"	"9/4"	13
controllo_3	"POPTR_0022s00530.1"	75	"	"C/T"	"50,0/50,0"	"83/83"	166	stress_45	"POPTR_0022s00530.1"	75	"	"C/T"	"54,1/45,9"	"20/17"	37
controllo_3	"POPTR_0022s00530.1"	240	"	"C/T"	"50,0/50,0"	"66/66"	132	stress_12bis	"POPTR_0022s00530.1"	240	"	"C/T"	"54,3/45,7"	"19/16"	35
controllo_3	"POPTR_0022s00530.1"	240	"	"C/T"	"50,0/50,0"	"66/66"	132	stress_45	"POPTR_0022s00530.1"	240	"	"C/T"	"51,7/48,3"	"15/14"	29
controllo_3	"POPTR_0019s14860.1"	1149	"	"C/T"	"50,0/50,0"	"52/52"	104	stress_12bis	"POPTR_0019s14860.1"	1149	"	"C/T"	"61,0/39,0"	"25/16"	41
controllo_3	"POPTR_0019s14860.1"	1149	"	"C/T"	"50,0/50,0"	"52/52"	104	stress_42	"POPTR_0019s14860.1"	1149	"	"T/C"	"54,5/45,5"	"6/5"	11
controllo_3	"POPTR_0019s14860.1"	1149	"	"C/T"	"50,0/50,0"	"52/52"	104	stress_45	"POPTR_0019s14860.1"	1149	"	"C/T"	"57,1/42,9"	"8/6"	14
controllo_3	"POPTR_0019s08450.1"	1006	"	"C/T"	"50,0/50,0"	"6/6"	12	stress_42	"POPTR_0019s08450.1"	1006	"	"T/C"	"78,8/21,2"	"82/22"	104
controllo_3	"POPTR_0013s00730.1"	129	"	"G/T"	"50,0/50,0"	"76/76"	152	stress_12bis	"POPTR_0013s00730.1"	129	"	"G/T"	"75,3/24,7"	"70/23"	93
controllo_3	"POPTR_0013s00730.1"	129	"	"G/T"	"50,0/50,0"	"76/76"	152	stress_42	"POPTR_0013s00730.1"	129	"	"G/T"	"64,3/35,7"	"18/10"	28
controllo_3	"POPTR_0013s00730.1"	129	"	"G/T"	"50,0/50,0"	"76/76"	152	stress_45	"POPTR_0013s00730.1"	129	"	"G/T"	"67,9/32,1"	"19/9"	28
controllo_3	"POPTR_0013s13150.1"	1017	"	"A/G"	"50,0/50,0"	"63/63"	126	stress_12bis	"POPTR_0013s13150.1"	1017	"	"G/A"	"52,2/47,8"	"12/11"	23
controllo_3	"POPTR_0013s13150.1"	1017	"	"A/G"	"50,0/50,0"	"63/63"	126	stress_42	"POPTR_0013s13150.1"	1017	"	"A/G"	"60,0/40,0"	"12/8"	20
controllo_3	"POPTR_0013s13150.1"	1017	"	"A/G"	"50,0/50,0"	"63/63"	126	stress_45	"POPTR_0013s13150.1"	1017	"	"A/G"	"65,0/35,0"	"26/14"	40
controllo_3	"POPTR_0013s01080.1"	1953	"	"C/T"	"50,0/50,0"	"88/88"	176	stress_12bis	"POPTR_0013s01080.1"	1953	"	"T/C"	"57,5/42,5"	"42/31"	73
controllo_3	"POPTR_0013s01080.1"	1953	"	"C/T"	"50,0/50,0"	"88/88"	176	stress_42	"POPTR_0013s01080.1"	1953	"	"T/C"	"58,8/41,2"	"30/21"	51
controllo_3	"POPTR_0013s01080.1"	1953	"	"C/T"	"50,0/50,0"	"88/88"	176	stress_45	"POPTR_0013s01080.1"	1953	"	"C/T"	"51,4/48,6"	"18/17"	35
controllo_3	"POPTR_0004s23490.1"	328	"	"G/T"	"50,0/50,0"	"67/67"	134	stress_12bis	"POPTR_0004s23490.1"	328	"	"T/G"	"55,9/44,1"	"19/15"	34
controllo_3	"POPTR_0004s23490.1"	328	"	"G/T"	"50,0/50,0"	"67/67"	134	stress_42	"POPTR_0004s23490.1"	328	"	"G/T"	"52,0/48,0"	"13/12"	25
controllo_3	"POPTR_0004s23490.1"	328	"	"G/T"	"50,0/50,0"	"67/67"	134	stress_45	"POPTR_0004s23490.1"	328	"	"T/G"	"68,4/31,6"	"39/18"	57
controllo_3	"POPTR_0009s06690.1"	837	"	"C/T"	"50,0/50,0"	"114/114"	228	stress_12bis	"POPTR_0009s06690.1"	837	"	"C/T"	"52,3/47,7"	"34/31"	65
controllo_3	"POPTR_0009s06690.1"	837	"	"C/T"	"50,0/50,0"	"114/114"	228	stress_42	"POPTR_0009s06690.1"	837	"	"T/C"	"58,5/41,5"	"79/56"	135
controllo_3	"POPTR_0009s06690.1"	837	"	"C/T"	"50,0/50,0"	"114/114"	228	stress_45	"POPTR_0009s06690.1"	837	"	"C/T"	"55,6/44,4"	"124/99"	223
controllo_3	"POPTR_0011s02610.1"	345	"	"C/T"	"50,0/50,0"	"116/116"	232	stress_12bis	"POPTR_0011s02610.1"	345	"	"T/C"	"51,2/48,8"	"22/21"	43
controllo_3	"POPTR_0011s02610.1"	345	"	"C/T"	"50,0/50,0"	"116/116"	232	stress_45	"POPTR_0011s02610.1"	345	"	"C/T"	"50,0/50,0"	"9/9"	18
controllo_3	"POPTR_0015s10920.1"	309	"	"A/C"	"50,0/50,0"	"81/81"	162	stress_12bis	"POPTR_0015s10920.1"	309	"	"C/A"	"60,4/39,6"	"29/19"	48
controllo_3	"POPTR_0015s10920.1"	309	"	"A/C"	"50,0/50,0"	"81/81"	162	stress_45	"POPTR_0015s10920.1"	309	"	"A/C"	"56,1/43,9"	"23/18"	41
controllo_3	"POPTR_0015s06230.1"	237	"	"C/T"	"50,0/50,0"	"114/114"	228	stress_12bis	"POPTR_0015s06230.1"	237	"	"T/C"	"56,4/43,6"	"22/17"	39
controllo_3	"POPTR_0015s06230.1"	237	"	"C/T"	"50,0/50,0"	"114/114"	228	stress_45	"POPTR_0015s06230.1"	237	"	"T/C"	"54,5/45,5"	"6/5"	11
controllo_3	"POPTR_0001s34760.1"	357	"	"G/T"	"50,0/50,0"	"53/53"	106	stress_12bis	"POPTR_0001s34760.1"	357	"	"T/G"	"51,5/48,5"	"17/16"	33
controllo_3	"POPTR_0001s34760.1"	357	"	"G/T"	"50,0/50,0"	"53/53"	106	stress_42	"POPTR_0001s34760.1"	357	"	"G/T"	"69,2/30,8"	"9/4"	13
controllo_3	"POPTR_0001s34760.1"	357	"	"G/T"	"50,0/50,0"	"53/53"	106	stress_45	"POPTR_0001s34760.1"	357	"	"G/T"	"50,0/50,0"	"6/6"	12
controllo_3	"POPTR_0001s32950.1"	927	"	"C/T"	"50,0/50,0"	"55/55"	110	stress_12bis	"POPTR_0001s32950.1"	927	"	"T/C"	"71,4/28,6"	"20/8"	28
controllo_3	"POPTR_0001s32950.1"	927	"	"C/T"	"50,0/50,0"	"55/55"	110	stress_42	"POPTR_0001s32950.1"	927	"	"T/C"	"62,5/37,5"	"45/27"	72
controllo_3	"POPTR_0001s32950.1"	927	"	"C/T"	"50,0/50,0"	"55/55"	110	stress_45	"POPTR_0001s32950.1"	927	"	"T/C"	"56,2/43,8"	"59/46"	105
controllo_3	"POPTR_0001s45410.1"	580	"	"A/G"	"50,0/50,0"	"53/53"	106	stress_12bis	"POPTR_0001s45410.1"	580	"	"A/G"	"50,0/50,0"	"18/18"	36
controllo_3	"POPTR_0001s45410.1"	580	"	"A/G"	"50,0/50,0"	"53/53"	106	stress_42	"POPTR_0001s45410.1"	580	"	"G/A"	"80,0/20,0"	"12/3"	15
controllo_3	"POPTR_0001s45410.1"	580	"	"A/G"	"50,0/50,0"	"53/53"	106	stress_45	"POPTR_0001s45410.1"	580	"	"G/A"	"58,3/41,7"	"14/10"	24
controllo_3	"POPTR_0001s40250.1"	2575	"	"A/G"	"50,0/50,0"	"44/44"	88	stress_45	"POPTR_0001s40250.1"	2575	"	"G/A"	"68,2/31,8"	"101/47"	148
controllo_3	"POPTR_0001s40250.1"	2769	"	"A/T"	"50,0/50,0"	"47/47"	94	stress_42	"POPTR_0001s40250.1"	2769	"	"A/T"	"71,1/28,9"	"86/35"	121
controllo_3	"POPTR_0001s40250.1"	2769	"	"A/T"	"50,0/50,0"	"47/47"	94	stress_45	"POPTR_0001s40250.1"	2769	"	"A/T"	"78,0/22,0"	"199/56"	255
controllo_3	"POPTR_0001s14310.1"	516	"	"C/T"	"50,0/50,0"	"95/95"	190	stress_42	"POPTR_0001s14310.1"	516	"	"C/T"	"57,7/42,3"	"15/11"	26
controllo_3	"POPTR_0001s14310.1"	516	"	"C/T"	"50,0/50,0"	"95/95"	190	stress_45	"POPTR_0001s14310.1"	516	"	"T/C"	"56,6/43,4"	"60/46"	106
controllo_3	"POPTR_0001s32780.1"	1053	"	"C/T"	"50,0/50,0"	"71/71"	142	stress_12bis	"POPTR_0001s32780.1"	1053	"	"T/C"	"59,5/40,5"	"22/15"	37
controllo_3	"POPTR_0001s32780.1"	1053	"	"C/T"	"50,0/50,0"	"71/71"	142	stress_42	"POPTR_0001s32780.1"	1053	"	"C/T"	"53,2/46,8"	"33/29"	62
controllo_3	"POPTR_0001s32780.1"	1053	"	"C/T"	"50,0/50,0"	"71/71"	142	stress_45	"POPTR_0001s32780.1"	1053	"	"T/C"	"56,9/43,1"	"78/59"	137
controllo_3	"POPTR_0001s44140.1"	204	"	"A/T"	"50,0/50,0"	"69/69"	138	stress_12bis	"POPTR_0001s44140.1"	204	"	"T/A"	"66,7/33,3"	"28/14"	42
controllo_3	"POPTR_0001s44140.1"	204	"	"A/T"	"50,0/50,0"	"69/69"	138	stress_42	"POPTR_0001s44140.1"	204	"	"A/T"	"53,3/46,7"	"16/14"	30
controllo_3	"POPTR_0001s44140.1"	204	"	"A/T"	"50,0/50,0"	"69/69"	138	stress_45	"POPTR_0001s44140.1"	204	"	"T/A"	"63,6/36,4"	"28/16"	44
controllo_3	"POPTR_0007s06620.1"	1776	"	"G/T"	"50,0/50,0"	"79/79"	158	stress_12bis	"POPTR_0007s06620.1"	1776	"	"T/G"	"51,1/48,9"	"23/22"	45
controllo_3	"POPTR_0007s06620.1"	1776	"	"G/T"	"50,0/50,0"	"79/79"	158	stress_45	"POPTR_0007s06620.1"	1776	"	"T/G"	"73,3/26,7"	"11/4"	15
controllo_3	"POPTR_0007s04180.1"	188	"	"A/G"	"50,0/50,0"	"54/54"	108	stress_12bis	"POPTR_0007s04180.1"	188	"	"A/G"	"57,8/42,2"	"26/19"	45
controllo_3	"POPTR_0007s04180.1"	188	"	"A/G"	"50,0/50,0"	"54/54"	108	stress_42	"POPTR_0007s04180.1"	188	"	"A/G"	"50,0/50,0"	"8/8"	16
controllo_3	"POPTR_0007s04180.1"	188	"	"A/G"	"50,0/50,0"	"54/54"	108	stress_45	"POPTR_0007s04180.1"	188	"	"A/G"	"55,2/44,8"	"16/13"	29
controllo_3	"POPTR_0002s18020.1"	126	"	"C/T"	"50,0/50,0"	"66/66"	132	stress_12bis	"POPTR_0002s18020.1"	126	"	"C/T"	"59,6/40,4"	"34/23"	57
controllo_3	"POPTR_0002s18020.1"	126	"	"C/T"	"50,0/50,0"	"66/66"	132	stress_42	"POPTR_0002s18020.1"	126	"	"T/C"	"51,5/48,5"	"17/16"	33
controllo_3	"POPTR_0002s18020.1"	126	"	"C/T"	"50,0/50,0"	"66/66"	132	stress_45	"POPTR_0002s18020.1"	126	"	"C/T"	"56,0/44,0"	"47/37"	84
controllo_3	"POPTR_0002s05780.1"	714	"	"A/G"	"50,0/50,0"	"76/76"	152	stress_12bis	"POPTR_0002s05780.1"	714	"	"A/G"	"60,0/40,0"	"12/8"	20
controllo_3	"POPTR_0002s05780.1"	714	"	"A/G"	"50,0/50,0"	"76/76"	152	stress_42	"POPTR_0002s05780.1"	714	"	"A/G"	"50,0/50,0"	"13/13"	26
controllo_3	"POPTR_0002s05780.1"	714	"	"A/G"	"50,0/50,0"	"76/76"	152	stress_45	"POPTR_0002s05780.1"	714	"	"G/A"	"56,0/44,0"	"14/11"	25
controllo_3	"POPTR_0008s15100.1"	408	"	"C/T"	"50,0/50,0"	"503/503"	1006	stress_12bis	"POPTR_0008s15100.1"	408	"	"C/T"	"52,9/47,1"	"183/163"	346
controllo_3	"POPTR_0008s15100.1"	408	"	"C/T"	"50,0/50,0"	"503/503"	1006	stress_42	"POPTR_0008s15100.1"	408	"	"T/C"	"54,0/46,0"	"75/64"	139
controllo_3	"POPTR_0008s15100.1"	408	"	"C/T"	"50,0/50,0"	"503/503"	1006	stress_45	"POPTR_0008s15100.1"	408	"	"C/T"	"53,2/46,8"	"66/58"	124
controllo_3	"POPTR_0008s15290.1"	373	"	"C/T"	"50,0/50,0"	"61/61"	122	stress_12bis	"POPTR_0008s15290.1"	373	"	"C/T"	"70,6/29,4"	"36/15"	51
controllo_3	"POPTR_0008s15290.1"	373	"	"C/T"	"50,0/50,0"	"61/61"	122	stress_42	"POPTR_0008s15290.1"	373	"	"T/C"	"63,0/37,0"	"17/10"	27
controllo_3	"POPTR_0008s15290.1"	373	"	"C/T"	"50,0/50,0"	"61/61"	122	stress_45	"POPTR_0008s15290.1"	373	"	"C/T"	"53,0/47,0"	"35/31"	66
controllo_3	"POPTR_0016s14100.1"	228	"	"C/T"	"50,0/50,0"	"54/54"	108	stress_12bis	"POPTR_0016s14100.1"	228	"	"T/C"	"54,7/45,3"	"29/24"	53
controllo_3	"POPTR_0016s14100.1"	228	"	"C/T"	"50,0/50,0"	"54/54"	108	stress_42	"POPTR_0016s14100.1"	228	"	"C/T"	"64,7/35,3"	"11/6"	17
controllo_3	"POPTR_0016s14100.1"	228	"	"C/T"	"50,0/50,0"	"54/54"	108	stress_45	"POPTR_0016s14100.1"	228	"	"C/T"	"64,7/35,3"	"11/6"	17
controllo_3	"POPTR_0016s12100.1"	1176	"	"A/G"	"50,0/50,0"	"58/58"	116	stress_12bis	"POPTR_0016s12100.1"	1176	"	"G/A"	"73,3/26,7"	"11/4"	15
controllo_3	"POPTR_0025s00560.1"	1138	"	"A/G"	"50,0/50,0"	"51/51"	102	stress_12bis	"POPTR_0025s00560.1"	1138	"	"G/A"	"57,1/42,9"	"20/15"	35
controllo_3	"POPTR_0025s00560.1"	1138	"	"A/G"	"50,0/50,0"	"51/51"	102	stress_42	"POPTR_0025s00560.1"	1138	"	"A/G"	"63,6/36,4"	"14/8"	22
controllo_3	"POPTR_0025s00560.1"	1138	"	"A/G"	"50,0/50,0"	"51/51"	102	stress_45	"POPTR_0025s00560.1"	1138	"	"G/A"	"50,9/49,1"	"27/26"	53
controllo_3	"POPTR_0003s09830.1"	783	"	"C/T"	"50,1/49,5"	"469/464"	937	stress_12bis	"POPTR_0003s09830.1"	783	"	"C/T"	"51,1/48,9"	"93/89"	182
controllo_3	"POPTR_0003s09830.1"	783	"	"C/T"	"50,1/49,5"	"469/464"	937	stress_42	"POPTR_0003s09830.1"	783	"	"T/C"	"62,8/37,2"	"27/16"	43
controllo_3	"POPTR_0003s09830.1"	783	"	"C/T"	"50,1/49,5"	"469/464"	937	stress_45	"POPTR_0003s09830.1"	783	"	"T/C"	"53,8/46,2"	"28/24"	52
controllo_3	"POPTR_0004s01470.1"	456	"	"T/A"	"50,1/49,6"	"459/455"	917	stress_12bis	"POPTR_0004s01470.1"	456	"	"T/A"	"52,7/47,3"	"128/115"	243
controllo_3	"POPTR_0004s01470.1"	456	"	"T/A"	"50,1/49,6"	"459/455"	917	stress_42	"POPTR_0004s01470.1"	456	"	"T/A"	"56,3/43,7"	"40/31"	71
controllo_3	"POPTR_0004s01470.1"	456	"	"T/A"	"50,1/49,6"	"459/455"	917	stress_45	"POPTR_0004s01470.1"	456	"	"T/A"	"54,7/43,2"	"52/41"	95
controllo_3	"POPTR_0002s14730.1"	564	"	"T/C"	"50,1/49,7"	"297/295"	593	stress_12bis	"POPTR_0002s14730.1"	564	"	"C/T"	"51,3/48,7"	"102/97"	199
controllo_3	"POPTR_0002s14730.1"	564	"	"T/C"	"50,1/49,7"	"297/295"	593	stress_42	"POPTR_0002s14730.1"	564	"	"T/C"	"66,7/33,3"	"26/13"	39
controllo_3	"POPTR_0002s14730.1"	564	"	"T/C"	"50,1/49,7"	"297/295"	593	stress_45	"POPTR_0002s14730.1"	564	"	"T/C"	"68,3/31,7"	"41/19"	60
controllo_3	"POPTR_0003s09830.1"	1062	"	"G/A"	"50,1/49,9"	"389/387"	776	stress_12bis	"POPTR_0003s09830.1"	1062	"	"A/G"	"52,0/47,5"	"92/84"	177
controllo_3	"POPTR_0003s09830.1"	1062	"	"G/A"	"50,1/49,9"	"389/387"	776	stress_42	"POPTR_0003s09830.1"	1062	"	"A/G"	"60,5/39,5"	"26/17"	43
controllo_3	"POPTR_0003s09830.1"	1062	"	"G/A"	"50,1/49,9"	"389/387"	776	stress_45	"POPTR_0003s09830.1"	1062	"	"A/G"	"56,9/43,1"	"29/22"	51
controllo_3	"POPTR_0019s05950.1"	477	"	"G/A"	"50,1/49,9"	"243/242"	485	stress_12bis	"POPTR_0019s05950.1"	477	"	"G/A"	"52,4/47,6"	"99/90"	189
controllo_3	"POPTR_0019s05950.1"	477	"	"G/A"	"50,1/49,9"	"243/242"	485	stress_42	"POPTR_0019s05950.1"	477	"	"A/G"	"56,2/43,8"	"18/14"	32
controllo_3	"POPTR_0019s05950.1"	477	"	"G/A"	"50,1/49,9"	"243/242"	485	stress_45	"POPTR_0019s05950.1"	477	"	"A/G"	"65,9/34,1"	"27/14"	41
controllo_3	"POPTR_0013s15650.1"	489	"	"T/C"	"50,1/49,9"	"172/171"	343	stress_12bis	"POPTR_0013s15650.1"	489	"	"C/T"	"52,9/47,1"	"36/32"	68
controllo_3	"POPTR_0013s15650.1"	489	"	"T/C"	"50,1/49,9"	"172/171"	343	stress_45	"POPTR_0013s15650.1"	489	"	"T/C"	"66,7/33,3"	"8/4"	12
controllo_3	"POPTR_0004s01220.1"	116	"	"A/C"	"50,1/49,9"	"214/213"	427	stress_12bis	"POPTR_0004s01220.1"	116	"	"A/C"	"50,0/50,0"	"24/24"	48
controllo_3	"POPTR_0001s08770.1"	1227	"	"C/T"	"50,1/49,9"	"239/238"	477	stress_12bis	"POPTR_0001s08770.1"	1227	"	"T/C"	"62,9/36,4"	"90/52"	143
controllo_3	"POPTR_0001s08770.1"	1227	"	"C/T"	"50,1/49,9"	"239/238"	477	stress_42	"POPTR_0001s08770.1"	1227	"	"C/T"	"54,5/45,5"	"24/20"	44
controllo_3	"POPTR_0001s08770.1"	1227	"	"C/T"	"50,1/49,9"	"239/238"	477	stress_45	"POPTR_0001s08770.1"	1227	"	"C/T"	"51,6/48,4"	"33/31"	64
controllo_3	"POPTR_0009s06690.1"	687	"	"A/T"	"50,2/49,3"	"112/110"	223	stress_12bis	"POPTR_0009s06690.1"	687	"	"T/A"	"55,9/44,1"	"38/30"	68
controllo_3	"POPTR_0009s06690.1"	687	"	"A/T"	"50,2/49,3"	"112/110"	223	stress_42	"POPTR_0009s06690.1"	687	"	"T/A"	"54,1/44,4"	"72/59"	133
controllo_3	"POPTR_0009s06690.1"	687	"	"A/T"	"50,2/49,3"	"112/110"	223	stress_45	"POPTR_0009s06690.1"	687	"	"T/A"	"54,7/44,8"	"111/91"	203
controllo_3	"POPTR_0004s18190.1"	654	"	"C/G"	"50,2/49,5"	"523/516"	1042	stress_12bis	"POPTR_0004s18190.1"	654	"	"C/G"	"58,0/42,0"	"243/176"	419
controllo_3	"POPTR_0004s18190.1"	654	"	"C/G"	"50,2/49,5"	"523/516"	1042	stress_42	"POPTR_0004s18190.1"	654	"	"C/G"	"53,9/45,1"	"55/46"	102
controllo_3	"POPTR_0004s18190.1"	654	"	"C/G"	"50,2/49,5"	"523/516"	1042	stress_45	"POPTR_0004s18190.1"	654	"	"C/G"	"53,0/47,0"	"62/55"	117
controllo_3	"POPTR_0011s08940.1"	786	"	"T/G"	"50,2/49,6"	"520/513"	1035	stress_12bis	"POPTR_0011s08940.1"	786	"	"T/G"	"52,1/47,9"	"150/138"	288
controllo_3	"POPTR_0011s08940.1"	786	"	"T/G"	"50,2/49,6"	"520/513"	1035	stress_42	"POPTR_0011s08940.1"	786	"	"G/T"	"61,1/38,9"	"44/28"	72
controllo_3	"POPTR_0011s08940.1"	786	"	"T/G"	"50,2/49,6"	"520/513"	1035	stress_45	"POPTR_0011s08940.1"	786	"	"G/T"	"66,4/33,6"	"91/46"	137
controllo_3	"POPTR_0010s22790.1"	600	"	"A/G"	"50,2/49,6"	"281/278"	560	stress_12bis	"POPTR_0010s22790.1"	600	"	"A/G"	"52,1/47,9"	"111/102"	213
controllo_3	"POPTR_0010s22790.1"	600	"	"A/G"	"50,2/49,6"	"281/278"	560	stress_42	"POPTR_0010s22790.1"	600	"	"A/G"	"56,0/44,0"	"42/33"	75
controllo_3	"POPTR_0010s22790.1"	600	"	"A/G"	"50,2/49,6"	"281/278"	560	stress_45	"POPTR_0010s22790.1"	600	"	"A/G"	"65,1/34,9"	"56/30"	86
controllo_3	"POPTR_0008s18230.1"	357	"	"T/A"	"50,2/49,7"	"398/394"	793	stress_12bis	"POPTR_0008s18230.1"	357	"	"A/T"	"52,2/47,4"	"143/130"	274
controllo_3	"POPTR_0008s18230.1"	357	"	"T/A"	"50,2/49,7"	"398/394"	793	stress_42	"POPTR_0008s18230.1"	357	"	"T/A"	"64,2/35,8"	"77/43"	120
controllo_3	"POPTR_0008s18230.1"	357	"	"T/A"	"50,2/49,7"	"398/394"	793	stress_45	"POPTR_0008s18230.1"	357	"	"T/A"	"56,7/43,3"	"55/42"	97
controllo_3	"POPTR_0008s15100.1"	394	"	"C/T"	"50,2/49,7"	"533/527"	1061	stress_12bis	"POPTR_0008s15100.1"	394	"	"C/T"	"51,2/48,2"	"186/175"	363
controllo_3	"POPTR_0008s15100.1"	394	"	"C/T"	"50,2/49,7"	"533/527"	1061	stress_42	"POPTR_0008s15100.1"	394	"	"T/C"	"53,4/46,6"	"87/76"	163
controllo_3	"POPTR_0008s15100.1"	394	"	"C/T"	"50,2/49,7"	"533/527"	1061	stress_45	"POPTR_0008s15100.1"	394	"	"C/T"	"54,5/45,5"	"73/61"	134
controllo_3	"POPTR_0005s26740.1"	234	"	"C/T"	"50,2/49,8"	"502/498"	1000	stress_12bis	"POPTR_0005s26740.1"	234	"	"C/T"	"58,0/42,0"	"152/110"	262
controllo_3	"POPTR_0005s26740.1"	234	"	"C/T"	"50,2/49,8"	"502/498"	1000	stress_42	"POPTR_0005s26740.1"	234	"	"C/T"	"63,8/36,2"	"111/63"	174
controllo_3	"POPTR_0005s26740.1"	234	"	"C/T"	"50,2/49,8"	"502/498"	1000	stress_45	"POPTR_0005s26740.1"	234	"	"C/T"	"60,6/39,4"	"120/78"	198
controllo_3	"POPTR_0006s28990.1"	1533	"	"C/T"	"50,2/49,8"	"125/124"	249	stress_12bis	"POPTR_0006s28990.1"	1533	"	"C/T"	"53,5/46,5"	"23/20"	43
controllo_3	"POPTR_0006s28990.1"	1533	"	"C/T"	"50,2/49,8"	"125/124"	249	stress_42	"POPTR_0006s28990.1"	1533	"	"C/T"	"56,0/44,0"	"47/37"	84
controllo_3	"POPTR_0006s28990.1"	1533	"	"C/T"	"50,2/49,8"	"125/124"	249	stress_45	"POPTR_0006s28990.1"	1533	"	"C/T"	"50,5/49,5"	"49/48"	97
controllo_3	"POPTR_0006s14400.1"	939	"	"T/A"	"50,2/49,8"	"866/858"	1724	stress_12bis	"POPTR_0006s14400.1"	939	"	"T/A"	"54,4/45,6"	"247/207"	454
controllo_3	"POPTR_0006s14400.1"	939	"	"T/A"	"50,2/49,8"	"866/858"	1724	stress_42	"POPTR_0006s14400.1"	939	"	"A/T"	"79,9/20,1"	"791/199"	990
controllo_3	"POPTR_0006s14400.1"	939	"	"T/A"	"50,2/49,8"	"866/858"	1724	stress_45	"POPTR_0006s14400.1"	939	"	"A/T"	"78,8/21,1"	"946/254"	1201
controllo_3	"POPTR_0003s08760.1"	354	"	"T/G"	"50,2/49,8"	"316/314"	630	stress_12bis	"POPTR_0003s08760.1"	354	"	"T/G"	"55,4/44,6"	"72/58"	130
controllo_3	"POPTR_0003s08760.1"	354	"	"T/G"	"50,2/49,8"	"316/314"	630	stress_42	"POPTR_0003s08760.1"	354	"	"T/G"	"66,7/33,3"	"22/11"	33
controllo_3	"POPTR_0003s08760.1"	354	"	"T/G"	"50,2/49,8"	"316/314"	630	stress_45	"POPTR_0003s08760.1"	354	"	"T/G"	"52,6/47,4"	"10/9"	19
controllo_3	"POPTR_0003s11300.1"	1074	"	"C/T"	"50,2/49,8"	"155/154"	309	stress_12bis	"POPTR_0003s11300.1"	1074	"	"C/T"	"63,2/36,8"	"67/39"	106
controllo_3	"POPTR_0003s11300.1"	1074	"	"C/T"	"50,2/49,8"	"155/154"	309	stress_42	"POPTR_0003s11300.1"	1074	"	"C/T"	"57,1/42,9"	"8/6"	14
controllo_3	"POPTR_0003s11300.1"	1074	"	"C/T"	"50,2/49,8"	"155/154"	309	stress_45	"POPTR_0003s11300.1"	1074	"	"T/C"	"55,0/45,0"	"11/9"	20
controllo_3	"POPTR_0003s14170.1"	745	"	"C/A"	"50,2/49,8"	"117/116"	233	stress_12bis	"POPTR_0003s14170.1"	745	"	"A/C"	"50,0/50,0"	"19/19"	38
controllo_3	"POPTR_0003s14170.1"	745	"	"C/A"	"50,2/49,8"	"117/116"	233	stress_42	"POPTR_0003s14170.1"	745	"	"A/C"	"53,8/46,2"	"7/6"	13
controllo_3	"POPTR_0003s14170.1"	745	"	"C/A"	"50,2/49,8"	"117/116"	233	stress_45	"POPTR_0003s14170.1"	745	"	"C/A"	"53,8/46,2"	"7/6"	13
controllo_3	"POPTR_0003s14170.1"	802	"	"C/A"	"50,2/49,8"	"121/120"	241	stress_12bis	"POPTR_0003s14170.1"	802	"	"C/A"	"59,4/40,6"	"19/13"	32
controllo_3	"POPTR_0003s14170.1"	802	"	"C/A"	"50,2/49,8"	"121/120"	241	stress_42	"POPTR_0003s14170.1"	802	"	"C/A"	"66,7/25,0"	"8/3"	12
controllo_3	"POPTR_0003s14170.1"	802	"	"C/A"	"50,2/49,8"	"121/120"	241	stress_45	"POPTR_0003s14170.1"	802	"	"C/A"	"73,3/26,7"	"11/4"	15
controllo_3	"POPTR_0022s00530.1"	1644	"	"C/T"	"50,2/49,8"	"115/114"	229	stress_12bis	"POPTR_0022s00530.1"	1644	"	"T/C"	"55,4/44,6"	"31/25"	56
controllo_3	"POPTR_0022s00530.1"	1644	"	"C/T"	"50,2/49,8"	"115/114"	229	stress_42	"POPTR_0022s00530.1"	1644	"	"T/C"	"64,7/35,3"	"22/12"	34
controllo_3	"POPTR_0022s00530.1"	1644	"	"C/T"	"50,2/49,8"	"115/114"	229	stress_45	"POPTR_0022s00530.1"	1644	"	"T/C"	"50,6/49,4"	"41/40"	81
controllo_3	"POPTR_0019s11720.1"	149	"	"C/T"	"50,2/49,8"	"304/302"	606	stress_12bis	"POPTR_0019s11720.1"	149	"	"T/C"	"51,5/47,8"	"69/64"	134
controllo_3	"POPTR_0019s11720.1"	149	"	"C/T"	"50,2/49,8"	"304/302"	606	stress_42	"POPTR_0019s11720.1"	149	"	"T/C"	"62,2/37,8"	"23/14"	37
controllo_3	"POPTR_0019s11720.1"	149	"	"C/T"	"50,2/49,8"	"304/302"	606	stress_45	"POPTR_0019s11720.1"	149	"	"T/C"	"52,2/47,8"	"35/32"	67
controllo_3	"POPTR_0013s04210.1"	1254	"	"G/A"	"50,2/49,8"	"110/109"	219	stress_12bis	"POPTR_0013s04210.1"	1254	"	"G/A"	"52,3/47,7"	"34/31"	65
controllo_3	"POPTR_0013s04210.1"	1254	"	"G/A"	"50,2/49,8"	"110/109"	219	stress_42	"POPTR_0013s04210.1"	1254	"	"G/A"	"61,5/38,5"	"8/5"	13
controllo_3	"POPTR_0013s04210.1"	1254	"	"G/A"	"50,2/49,8"	"110/109"	219	stress_45	"POPTR_0013s04210.1"	1254	"	"G/A"	"53,8/46,2"	"21/18"	39
controllo_3	"POPTR_0014s10200.1"	82	"	"G/C"	"50,2/49,8"	"420/416"	836	stress_12bis	"POPTR_0014s10200.1"	82	"	"C/G"	"61,5/38,5"	"163/102"	265
controllo_3	"POPTR_0014s10200.1"	82	"	"G/C"	"50,2/49,8"	"420/416"	836	stress_42	"POPTR_0014s10200.1"	82	"	"C/G"	"70,2/29,8"	"40/17"	57
controllo_3	"POPTR_0014s10200.1"	82	"	"G/C"	"50,2/49,8"	"420/416"	836	stress_45	"POPTR_0014s10200.1"	82	"	"C/G"	"50,7/49,3"	"34/33"	67
controllo_3	"POPTR_0014s10200.1"	136	"	"C/G"	"50,2/49,8"	"536/531"	1067	stress_12bis	"POPTR_0014s10200.1"	136	"	"G/C"	"55,5/44,5"	"197/158"	355
controllo_3	"POPTR_0014s10200.1"	136	"	"C/G"	"50,2/49,8"	"536/531"	1067	stress_42	"POPTR_0014s10200.1"	136	"	"G/C"	"68,2/31,8"	"60/28"	88
controllo_3	"POPTR_0014s10200.1"	136	"	"C/G"	"50,2/49,8"	"536/531"	1067	stress_45	"POPTR_0014s10200.1"	136	"	"G/C"	"63,2/36,8"	"48/28"	76
controllo_3	"POPTR_0004s01660.1"	537	"	"T/C"	"50,2/49,8"	"102/101"	203	stress_12bis	"POPTR_0004s01660.1"	537	"	"T/C"	"51,0/49,0"	"53/51"	104
controllo_3	"POPTR_0004s01660.1"	537	"	"T/C"	"50,2/49,8"	"102/101"	203	stress_42	"POPTR_0004s01660.1"	537	"	"C/T"	"50,0/50,0"	"10/10"	20
controllo_3	"POPTR_0004s01660.1"	537	"	"T/C"	"50,2/49,8"	"102/101"	203	stress_45	"POPTR_0004s01660.1"	537	"	"T/C"	"55,3/44,7"	"21/17"	38
controllo_3	"POPTR_0004s08380.1"	1047	"	"G/A"	"50,2/49,8"	"536/532"	1068	stress_12bis	"POPTR_0004s08380.1"	1047	"	"A/G"	"50,7/49,3"	"145/141"	286
controllo_3	"POPTR_0004s08380.1"	1047	"	"G/A"	"50,2/49,8"	"536/532"	1068	stress_42	"POPTR_0004s08380.1"	1047	"	"A/G"	"63,6/36,4"	"21/12"	33
controllo_3	"POPTR_0004s08380.1"	1047	"	"G/A"	"50,2/49,8"	"536/532"	1068	stress_45	"POPTR_0004s08380.1"	1047	"	"A/G"	"55,3/44,7"	"26/21"	47
controllo_3	"POPTR_0004s04860.1"	1128	"	"G/A"	"50,2/49,8"	"133/132"	265	stress_12bis	"POPTR_0004s04860.1"	1128	"	"A/G"	"52,6/47,4"	"41/37"	78
controllo_3	"POPTR_0004s04860.1"	1128	"	"G/A"	"50,2/49,8"	"133/132"	265	stress_42	"POPTR_0004s04860.1"	1128	"	"A/G"	"76,9/23,1"	"20/6"	26
controllo_3	"POPTR_0004s04860.1"	1128	"	"G/A"	"50,2/49,8"	"133/132"	265	stress_45	"POPTR_0004s04860.1"	1128	"	"A/G"	"65,7/34,3"	"23/12"	35
controllo_3	"POPTR_0004s22810.1"	126	"	"G/A"	"50,2/49,8"	"3747/3718"	7470	stress_12bis	"POPTR_0004s22810.1"	126	"	"G/A"	"51,0/49,0"	"981/941"	1922
controllo_3	"POPTR_0004s22810.1"	126	"	"G/A"	"50,2/49,8"	"3747/3718"	7470	stress_42	"POPTR_0004s22810.1"	126	"	"G/A"	"54,7/45,1"	"318/262"	581
controllo_3	"POPTR_0004s22810.1"	126	"	"G/A"	"50,2/49,8"	"3747/3718"	7470	stress_45	"POPTR_0004s22810.1"	126	"	"G/A"	"57,4/42,6"	"491/365"	856
controllo_3	"POPTR_0012s07060.1"	162	"	"T/C"	"50,2/49,8"	"204/202"	406	stress_12bis	"POPTR_0012s07060.1"	162	"	"C/T"	"55,9/44,1"	"62/49"	111
controllo_3	"POPTR_0012s07060.1"	162	"	"T/C"	"50,2/49,8"	"204/202"	406	stress_42	"POPTR_0012s07060.1"	162	"	"C/T"	"51,1/48,9"	"23/22"	45
controllo_3	"POPTR_0012s07060.1"	162	"	"T/C"	"50,2/49,8"	"204/202"	406	stress_45	"POPTR_0012s07060.1"	162	"	"C/T"	"59,8/40,2"	"49/33"	82
controllo_3	"POPTR_0011s02610.1"	195	"	"C/T"	"50,2/49,8"	"111/110"	221	stress_12bis	"POPTR_0011s02610.1"	195	"	"C/T"	"53,2/46,8"	"25/22"	47
controllo_3	"POPTR_0011s02610.1"	195	"	"C/T"	"50,2/49,8"	"111/110"	221	stress_45	"POPTR_0011s02610.1"	195	"	"T/C"	"61,5/38,5"	"8/5"	13
controllo_3	"POPTR_0015s06410.1"	435	"	"C/T"	"50,2/49,8"	"136/135"	271	stress_12bis	"POPTR_0015s06410.1"	435	"	"C/T"	"50,5/49,5"	"53/52"	105
controllo_3	"POPTR_0015s06410.1"	435	"	"C/T"	"50,2/49,8"	"136/135"	271	stress_42	"POPTR_0015s06410.1"	435	"	"C/T"	"65,6/34,4"	"21/11"	32
controllo_3	"POPTR_0015s06410.1"	435	"	"C/T"	"50,2/49,8"	"136/135"	271	stress_45	"POPTR_0015s06410.1"	435	"	"C/T"	"55,6/44,4"	"20/16"	36
controllo_3	"POPTR_0001s32770.1"	852	"	"C/T"	"50,2/49,8"	"106/105"	211	stress_12bis	"POPTR_0001s32770.1"	852	"	"T/C"	"52,7/47,3"	"29/26"	55
controllo_3	"POPTR_0001s32770.1"	852	"	"C/T"	"50,2/49,8"	"106/105"	211	stress_42	"POPTR_0001s32770.1"	852	"	"C/T"	"56,9/43,1"	"37/28"	65
controllo_3	"POPTR_0001s32770.1"	852	"	"C/T"	"50,2/49,8"	"106/105"	211	stress_45	"POPTR_0001s32770.1"	852	"	"C/T"	"50,4/49,6"	"63/62"	125
controllo_3	"POPTR_0001s12630.1"	324	"	"G/A"	"50,2/49,8"	"145/144"	289	stress_12bis	"POPTR_0001s12630.1"	324	"	"G/A"	"51,2/48,8"	"65/62"	127
controllo_3	"POPTR_0001s12630.1"	324	"	"G/A"	"50,2/49,8"	"145/144"	289	stress_42	"POPTR_0001s12630.1"	324	"	"A/G"	"54,3/45,7"	"102/86"	188
controllo_3	"POPTR_0001s12630.1"	324	"	"G/A"	"50,2/49,8"	"145/144"	289	stress_45	"POPTR_0001s12630.1"	324	"	"A/G"	"51,6/48,4"	"115/108"	223
controllo_3	"POPTR_0001s47020.1"	1353	"	"T/C"	"50,2/49,8"	"101/100"	201	stress_12bis	"POPTR_0001s47020.1"	1353	"	"C/T"	"53,9/46,1"	"41/35"	76
controllo_3	"POPTR_0001s47020.1"	1353	"	"T/C"	"50,2/49,8"	"101/100"	201	stress_42	"POPTR_0001s47020.1"	1353	"	"C/T"	"56,1/43,9"	"23/18"	41
controllo_3	"POPTR_0001s47020.1"	1353	"	"T/C"	"50,2/49,8"	"101/100"	201	stress_45	"POPTR_0001s47020.1"	1353	"	"T/C"	"56,0/44,0"	"61/48"	109
controllo_3	"POPTR_0001s01630.1"	555	"	"C/T"	"50,2/49,8"	"110/109"	219	stress_12bis	"POPTR_0001s01630.1"	555	"	"C/T"	"51,8/48,2"	"29/27"	56
controllo_3	"POPTR_0001s26960.1"	747	"	"T/C"	"50,2/49,8"	"108/107"	215	stress_12bis	"POPTR_0001s26960.1"	747	"	"T/C"	"57,8/42,2"	"26/19"	45
controllo_3	"POPTR_0001s26960.1"	747	"	"T/C"	"50,2/49,8"	"108/107"	215	stress_45	"POPTR_0001s26960.1"	747	"	"T/C"	"69,2/30,8"	"18/8"	26
controllo_3	"POPTR_0010s07730.1"	72	"	"T/C"	"50,2/49,8"	"331/329"	660	stress_12bis	"POPTR_0010s07730.1"	72	"	"C/T"	"53,5/46,5"	"130/113"	243
controllo_3	"POPTR_0010s07730.1"	72	"	"T/C"	"50,2/49,8"	"331/329"	660	stress_42	"POPTR_0010s07730.1"	72	"	"T/C"	"52,9/47,1"	"45/40"	85
controllo_3	"POPTR_0010s07730.1"	72	"	"T/C"	"50,2/49,8"	"331/329"	660	stress_45	"POPTR_0010s07730.1"	72	"	"T/C"	"57,1/42,9"	"40/30"	70
controllo_3	"POPTR_0010s22790.1"	228	"	"C/T"	"50,2/49,8"	"387/384"	771	stress_12bis	"POPTR_0010s22790.1"	228	"	"T/C"	"51,1/48,9"	"144/138"	282
controllo_3	"POPTR_0010s22790.1"	228	"	"C/T"	"50,2/49,8"	"387/384"	771	stress_42	"POPTR_0010s22790.1"	228	"	"C/T"	"50,0/50,0"	"48/48"	96
controllo_3	"POPTR_0010s22790.1"	228	"	"C/T"	"50,2/49,8"	"387/384"	771	stress_45	"POPTR_0010s22790.1"	228	"	"T/C"	"57,5/42,5"	"73/54"	127
controllo_3	"POPTR_0010s03010.1"	529	"	"A/G"	"50,2/49,8"	"113/112"	225	stress_12bis	"POPTR_0010s03010.1"	529	"	"A/G"	"70,5/29,5"	"43/18"	61
controllo_3	"POPTR_0010s03010.1"	529	"	"A/G"	"50,2/49,8"	"113/112"	225	stress_42	"POPTR_0010s03010.1"	529	"	"A/G"	"71,4/28,6"	"15/6"	21
controllo_3	"POPTR_0010s03010.1"	529	"	"A/G"	"50,2/49,8"	"113/112"	225	stress_45	"POPTR_0010s03010.1"	529	"	"A/G"	"63,6/36,4"	"7/4"	11
controllo_3	"POPTR_0007s12010.1"	159	"	"A/G"	"50,2/49,8"	"121/120"	241	stress_12bis	"POPTR_0007s12010.1"	159	"	"G/A"	"54,3/45,7"	"38/32"	70
controllo_3	"POPTR_0007s12010.1"	159	"	"A/G"	"50,2/49,8"	"121/120"	241	stress_42	"POPTR_0007s12010.1"	159	"	"G/A"	"52,9/47,1"	"9/8"	17
controllo_3	"POPTR_0007s12010.1"	159	"	"A/G"	"50,2/49,8"	"121/120"	241	stress_45	"POPTR_0007s12010.1"	159	"	"A/G"	"57,1/42,9"	"20/15"	35
controllo_3	"POPTR_0002s14730.1"	537	"	"T/G"	"50,2/49,8"	"245/243"	488	stress_12bis	"POPTR_0002s14730.1"	537	"	"T/G"	"52,5/47,5"	"94/85"	179
controllo_3	"POPTR_0002s14730.1"	537	"	"T/G"	"50,2/49,8"	"245/243"	488	stress_42	"POPTR_0002s14730.1"	537	"	"G/T"	"60,7/39,3"	"17/11"	28
controllo_3	"POPTR_0002s14730.1"	537	"	"T/G"	"50,2/49,8"	"245/243"	488	stress_45	"POPTR_0002s14730.1"	537	"	"G/T"	"69,2/30,8"	"27/12"	39
controllo_3	"POPTR_0002s16850.1"	71	"	"T/G"	"50,2/49,8"	"105/104"	209	stress_12bis	"POPTR_0002s16850.1"	71	"	"T/G"	"56,9/43,1"	"37/28"	65
controllo_3	"POPTR_0002s16850.1"	71	"	"T/G"	"50,2/49,8"	"105/104"	209	stress_42	"POPTR_0002s16850.1"	71	"	"T/G"	"71,4/28,6"	"15/6"	21
controllo_3	"POPTR_0002s16850.1"	71	"	"T/G"	"50,2/49,8"	"105/104"	209	stress_45	"POPTR_0002s16850.1"	71	"	"T/G"	"61,9/38,1"	"13/8"	21
controllo_3	"POPTR_0008s03160.1"	234	"	"C/T"	"50,2/49,8"	"162/161"	323	stress_12bis	"POPTR_0008s03160.1"	234	"	"C/T"	"61,6/38,4"	"85/53"	138
controllo_3	"POPTR_0008s03160.1"	234	"	"C/T"	"50,2/49,8"	"162/161"	323	stress_42	"POPTR_0008s03160.1"	234	"	"C/T"	"65,8/34,2"	"25/13"	38
controllo_3	"POPTR_0008s03160.1"	234	"	"C/T"	"50,2/49,8"	"162/161"	323	stress_45	"POPTR_0008s03160.1"	234	"	"C/T"	"58,3/41,7"	"49/35"	84
controllo_3	"POPTR_0016s07220.1"	319	"	"T/G"	"50,2/49,8"	"111/110"	221	stress_12bis	"POPTR_0016s07220.1"	319	"	"G/T"	"60,0/40,0"	"21/14"	35
controllo_3	"POPTR_0016s07220.1"	319	"	"T/G"	"50,2/49,8"	"111/110"	221	stress_42	"POPTR_0016s07220.1"	319	"	"T/G"	"70,6/29,4"	"12/5"	17
controllo_3	"POPTR_0016s07220.1"	319	"	"T/G"	"50,2/49,8"	"111/110"	221	stress_45	"POPTR_0016s07220.1"	319	"	"G/T"	"50,0/50,0"	"17/17"	34
controllo_3	"POPTR_0015s09990.1"	864	"	"C/T"	"50,3/48,7"	"96/93"	191	stress_12bis	"POPTR_0015s09990.1"	864	"	"T/C"	"53,8/46,2"	"35/30"	65
controllo_3	"POPTR_0015s09990.1"	864	"	"C/T"	"50,3/48,7"	"96/93"	191	stress_42	"POPTR_0015s09990.1"	864	"	"C/T"	"50,0/50,0"	"7/7"	14
controllo_3	"POPTR_0015s09990.1"	864	"	"C/T"	"50,3/48,7"	"96/93"	191	stress_45	"POPTR_0015s09990.1"	864	"	"C/T"	"53,8/46,2"	"7/6"	13
controllo_3	"POPTR_0004s18190.1"	711	"	"C/A"	"50,3/48,8"	"512/496"	1017	stress_12bis	"POPTR_0004s18190.1"	711	"	"A/C"	"51,2/48,6"	"234/222"	457
controllo_3	"POPTR_0004s18190.1"	711	"	"C/A"	"50,3/48,8"	"512/496"	1017	stress_42	"POPTR_0004s18190.1"	711	"	"A/C"	"48,9/47,8"	"45/44"	92
controllo_3	"POPTR_0004s18190.1"	711	"	"C/A"	"50,3/48,8"	"512/496"	1017	stress_45	"POPTR_0004s18190.1"	711	"	"A/C"	"53,8/45,2"	"56/47"	104
controllo_3	"POPTR_0010s19930.1"	402	"	"C/T"	"50,3/49,2"	"97/95"	193	stress_42	"POPTR_0010s19930.1"	402	"	"T/C"	"68,1/27,0"	"96/38"	141
controllo_3	"POPTR_0010s19930.1"	402	"	"C/T"	"50,3/49,2"	"97/95"	193	stress_45	"POPTR_0010s19930.1"	402	"	"T/C"	"75,5/23,6"	"80/25"	106
controllo_3	"POPTR_0013s00760.1"	310	"	"G/T"	"50,3/49,5"	"198/195"	394	stress_12bis	"POPTR_0013s00760.1"	310	"	"T/G"	"57,9/42,1"	"70/51"	121
controllo_3	"POPTR_0013s00760.1"	310	"	"G/T"	"50,3/49,5"	"198/195"	394	stress_42	"POPTR_0013s00760.1"	310	"	"G/T"	"72,2/27,8"	"13/5"	18
controllo_3	"POPTR_0013s00760.1"	310	"	"G/T"	"50,3/49,5"	"198/195"	394	stress_45	"POPTR_0013s00760.1"	310	"	"G/T"	"65,8/34,2"	"25/13"	38
controllo_3	"POPTR_0014s13660.1"	306	"	"T/C"	"50,3/49,6"	"616/607"	1224	stress_12bis	"POPTR_0014s13660.1"	306	"	"C/T"	"50,9/49,1"	"171/165"	336
controllo_3	"POPTR_0014s13660.1"	306	"	"T/C"	"50,3/49,6"	"616/607"	1224	stress_42	"POPTR_0014s13660.1"	306	"	"C/T"	"50,5/49,5"	"48/47"	95
controllo_3	"POPTR_0014s13660.1"	306	"	"T/C"	"50,3/49,6"	"616/607"	1224	stress_45	"POPTR_0014s13660.1"	306	"	"C/T"	"50,9/49,1"	"57/55"	112
controllo_3	"POPTR_0005s05450.1"	850	"	"A/G"	"50,3/49,7"	"93/92"	185	stress_12bis	"POPTR_0005s05450.1"	850	"	"A/G"	"50,0/50,0"	"16/16"	32
controllo_3	"POPTR_0005s05450.1"	850	"	"A/G"	"50,3/49,7"	"93/92"	185	stress_42	"POPTR_0005s05450.1"	850	"	"A/G"	"62,5/37,5"	"10/6"	16
controllo_3	"POPTR_0005s05450.1"	850	"	"A/G"	"50,3/49,7"	"93/92"	185	stress_45	"POPTR_0005s05450.1"	850	"	"A/G"	"53,3/46,7"	"8/7"	15
controllo_3	"POPTR_0005s25850.1"	651	"	"A/T"	"50,3/49,7"	"77/76"	153	stress_12bis	"POPTR_0005s25850.1"	651	"	"A/T"	"60,0/40,0"	"6/4"	10
controllo_3	"POPTR_0005s04090.1"	135	"	"T/C"	"50,3/49,7"	"198/196"	394	stress_12bis	"POPTR_0005s04090.1"	135	"	"T/C"	"51,4/48,6"	"54/51"	105
controllo_3	"POPTR_0005s04090.1"	135	"	"T/C"	"50,3/49,7"	"198/196"	394	stress_42	"POPTR_0005s04090.1"	135	"	"T/C"	"54,1/45,9"	"20/17"	37
controllo_3	"POPTR_0005s04090.1"	135	"	"T/C"	"50,3/49,7"	"198/196"	394	stress_45	"POPTR_0005s04090.1"	135	"	"T/C"	"54,8/45,2"	"23/19"	42
controllo_3	"POPTR_0005s10440.1"	180	"	"T/C"	"50,3/49,7"	"89/88"	177	stress_12bis	"POPTR_0005s10440.1"	180	"	"C/T"	"55,2/44,8"	"16/13"	29
controllo_3	"POPTR_0005s10440.1"	180	"	"T/C"	"50,3/49,7"	"89/88"	177	stress_42	"POPTR_0005s10440.1"	180	"	"C/T"	"52,8/47,2"	"19/17"	36
controllo_3	"POPTR_0005s10440.1"	180	"	"T/C"	"50,3/49,7"	"89/88"	177	stress_45	"POPTR_0005s10440.1"	180	"	"C/T"	"60,8/39,2"	"45/29"	74
controllo_3	"POPTR_0005s11500.1"	873	"	"G/A"	"50,3/49,7"	"572/566"	1138	stress_12bis	"POPTR_0005s11500.1"	873	"	"G/A"	"53,1/46,5"	"144/126"	271
controllo_3	"POPTR_0005s11500.1"	873	"	"G/A"	"50,3/49,7"	"572/566"	1138	stress_42	"POPTR_0005s11500.1"	873	"	"G/A"	"52,6/47,4"	"50/45"	95
controllo_3	"POPTR_0005s11500.1"	873	"	"G/A"	"50,3/49,7"	"572/566"	1138	stress_45	"POPTR_0005s11500.1"	873	"	"A/G"	"50,0/50,0"	"66/66"	132
controllo_3	"POPTR_0005s26700.1"	760	"	"C/T"	"50,3/49,7"	"152/150"	302	stress_12bis	"POPTR_0005s26700.1"	760	"	"C/T"	"52,5/47,5"	"64/58"	122
controllo_3	"POPTR_0005s26700.1"	760	"	"C/T"	"50,3/49,7"	"152/150"	302	stress_42	"POPTR_0005s26700.1"	760	"	"C/T"	"60,9/39,1"	"14/9"	23
controllo_3	"POPTR_0005s26700.1"	760	"	"C/T"	"50,3/49,7"	"152/150"	302	stress_45	"POPTR_0005s26700.1"	760	"	"C/T"	"52,0/48,0"	"13/12"	25
controllo_3	"POPTR_0017s12590.1"	717	"	"A/G"	"50,3/49,7"	"86/85"	171	stress_12bis	"POPTR_0017s12590.1"	717	"	"A/G"	"50,0/50,0"	"20/20"	40
controllo_3	"POPTR_0006s28990.1"	2263	"	"A/G"	"50,3/49,7"	"174/172"	346	stress_12bis	"POPTR_0006s28990.1"	2263	"	"A/G"	"64,6/35,4"	"31/17"	48
controllo_3	"POPTR_0006s28990.1"	2263	"	"A/G"	"50,3/49,7"	"174/172"	346	stress_42	"POPTR_0006s28990.1"	2263	"	"G/A"	"51,7/48,3"	"75/70"	145
controllo_3	"POPTR_0006s28990.1"	2263	"	"A/G"	"50,3/49,7"	"174/172"	346	stress_45	"POPTR_0006s28990.1"	2263	"	"A/G"	"54,7/45,3"	"88/73"	161
controllo_3	"POPTR_0006s28350.1"	273	"	"T/C"	"50,3/49,7"	"74/73"	147	stress_12bis	"POPTR_0006s28350.1"	273	"	"C/T"	"50,0/50,0"	"6/6"	12
controllo_3	"POPTR_0006s28350.1"	273	"	"T/C"	"50,3/49,7"	"74/73"	147	stress_45	"POPTR_0006s28350.1"	273	"	"C/T"	"61,9/38,1"	"13/8"	21
controllo_3	"POPTR_0006s12910.1"	551	"	"G/A"	"50,3/49,7"	"184/182"	366	stress_12bis	"POPTR_0006s12910.1"	551	"	"A/G"	"53,5/46,5"	"68/59"	127
controllo_3	"POPTR_0006s12910.1"	551	"	"G/A"	"50,3/49,7"	"184/182"	366	stress_42	"POPTR_0006s12910.1"	551	"	"A/G"	"52,0/48,0"	"53/49"	102
controllo_3	"POPTR_0006s12910.1"	551	"	"G/A"	"50,3/49,7"	"184/182"	366	stress_45	"POPTR_0006s12910.1"	551	"	"G/A"	"52,8/47,2"	"66/59"	125
controllo_3	"POPTR_0003s10720.1"	370	"	"A/G"	"50,3/49,7"	"93/92"	185	stress_12bis	"POPTR_0003s10720.1"	370	"	"A/G"	"50,0/50,0"	"35/35"	70
controllo_3	"POPTR_0003s10720.1"	370	"	"A/G"	"50,3/49,7"	"93/92"	185	stress_42	"POPTR_0003s10720.1"	370	"	"A/G"	"53,2/46,8"	"33/29"	62
controllo_3	"POPTR_0003s10720.1"	370	"	"A/G"	"50,3/49,7"	"93/92"	185	stress_45	"POPTR_0003s10720.1"	370	"	"G/A"	"52,4/47,6"	"66/60"	126
controllo_3	"POPTR_0003s13880.1"	342	"	"A/G"	"50,3/49,7"	"73/72"	145	stress_12bis	"POPTR_0003s13880.1"	342	"	"G/A"	"50,8/49,2"	"30/29"	59
controllo_3	"POPTR_0003s13880.1"	342	"	"A/G"	"50,3/49,7"	"73/72"	145	stress_42	"POPTR_0003s13880.1"	342	"	"A/G"	"59,5/40,5"	"100/68"	168
controllo_3	"POPTR_0003s13880.1"	342	"	"A/G"	"50,3/49,7"	"73/72"	145	stress_45	"POPTR_0003s13880.1"	342	"	"A/G"	"53,3/46,7"	"130/114"	244
controllo_3	"POPTR_0022s00530.1"	1512	"	"T/C"	"50,3/49,7"	"85/84"	169	stress_12bis	"POPTR_0022s00530.1"	1512	"	"C/T"	"58,1/41,9"	"25/18"	43
controllo_3	"POPTR_0022s00530.1"	1512	"	"T/C"	"50,3/49,7"	"85/84"	169	stress_42	"POPTR_0022s00530.1"	1512	"	"C/T"	"54,2/45,8"	"13/11"	24
controllo_3	"POPTR_0022s00530.1"	1512	"	"T/C"	"50,3/49,7"	"85/84"	169	stress_45	"POPTR_0022s00530.1"	1512	"	"C/T"	"57,1/42,9"	"24/18"	42
controllo_3	"POPTR_0019s11720.1"	42	"	"C/G"	"50,3/49,7"	"229/226"	455	stress_12bis	"POPTR_0019s11720.1"	42	"	"C/G"	"54,3/45,7"	"57/48"	105
controllo_3	"POPTR_0019s11720.1"	42	"	"C/G"	"50,3/49,7"	"229/226"	455	stress_42	"POPTR_0019s11720.1"	42	"	"G/C"	"64,0/36,0"	"16/9"	25
controllo_3	"POPTR_0019s11720.1"	42	"	"C/G"	"50,3/49,7"	"229/226"	455	stress_45	"POPTR_0019s11720.1"	42	"	"C/G"	"53,5/46,5"	"23/20"	43
controllo_3	"POPTR_0013s13190.1"	249	"	"A/G"	"50,3/49,7"	"168/166"	334	stress_12bis	"POPTR_0013s13190.1"	249	"	"G/A"	"55,3/44,7"	"63/51"	114
controllo_3	"POPTR_0013s13190.1"	249	"	"A/G"	"50,3/49,7"	"168/166"	334	stress_42	"POPTR_0013s13190.1"	249	"	"G/A"	"56,9/43,1"	"33/25"	58
controllo_3	"POPTR_0013s13190.1"	249	"	"A/G"	"50,3/49,7"	"168/166"	334	stress_45	"POPTR_0013s13190.1"	249	"	"A/G"	"62,5/37,5"	"15/9"	24
controllo_3	"POPTR_0013s13190.1"	348	"	"C/T"	"50,3/49,7"	"168/166"	334	stress_12bis	"POPTR_0013s13190.1"	348	"	"T/C"	"50,3/49,7"	"74/73"	147
controllo_3	"POPTR_0013s13190.1"	348	"	"C/T"	"50,3/49,7"	"168/166"	334	stress_42	"POPTR_0013s13190.1"	348	"	"C/T"	"55,0/45,0"	"33/27"	60
controllo_3	"POPTR_0013s13190.1"	348	"	"C/T"	"50,3/49,7"	"168/166"	334	stress_45	"POPTR_0013s13190.1"	348	"	"T/C"	"53,7/46,3"	"22/19"	41
controllo_3	"POPTR_0013s09550.1"	145	"	"A/G"	"50,3/49,7"	"95/94"	189	stress_12bis	"POPTR_0013s09550.1"	145	"	"A/G"	"64,3/35,7"	"18/10"	28
controllo_3	"POPTR_0013s09550.1"	145	"	"A/G"	"50,3/49,7"	"95/94"	189	stress_42	"POPTR_0013s09550.1"	145	"	"A/G"	"81,8/18,2"	"9/2"	11
controllo_3	"POPTR_0013s09550.1"	145	"	"A/G"	"50,3/49,7"	"95/94"	189	stress_45	"POPTR_0013s09550.1"	145	"	"G/A"	"52,9/47,1"	"9/8"	17
controllo_3	"POPTR_0013s04210.1"	1215	"	"C/T"	"50,3/49,7"	"75/74"	149	stress_12bis	"POPTR_0013s04210.1"	1215	"	"C/T"	"53,3/46,7"	"24/21"	45
controllo_3	"POPTR_0013s04210.1"	1215	"	"C/T"	"50,3/49,7"	"75/74"	149	stress_42	"POPTR_0013s04210.1"	1215	"	"C/T"	"64,3/35,7"	"9/5"	14
controllo_3	"POPTR_0013s04210.1"	1215	"	"C/T"	"50,3/49,7"	"75/74"	149	stress_45	"POPTR_0013s04210.1"	1215	"	"T/C"	"56,7/43,3"	"17/13"	30
controllo_3	"POPTR_0013s01080.1"	1452	"	"T/C"	"50,3/49,7"	"75/74"	149	stress_12bis	"POPTR_0013s01080.1"	1452	"	"C/T"	"51,6/48,4"	"32/30"	62
controllo_3	"POPTR_0013s01080.1"	1452	"	"T/C"	"50,3/49,7"	"75/74"	149	stress_42	"POPTR_0013s01080.1"	1452	"	"T/C"	"53,8/46,2"	"14/12"	26
controllo_3	"POPTR_0013s01080.1"	1452	"	"T/C"	"50,3/49,7"	"75/74"	149	stress_45	"POPTR_0013s01080.1"	1452	"	"T/C"	"51,5/48,5"	"17/16"	33
controllo_3	"POPTR_0014s02550.1"	312	"	"C/A"	"50,3/49,7"	"72/71"	143	stress_12bis	"POPTR_0014s02550.1"	312	"	"A/C"	"53,6/46,4"	"30/26"	56
controllo_3	"POPTR_0014s02550.1"	312	"	"C/A"	"50,3/49,7"	"72/71"	143	stress_42	"POPTR_0014s02550.1"	312	"	"A/C"	"51,4/48,6"	"19/18"	37
controllo_3	"POPTR_0014s02550.1"	312	"	"C/A"	"50,3/49,7"	"72/71"	143	stress_45	"POPTR_0014s02550.1"	312	"	"A/C"	"53,2/45,9"	"58/50"	109
controllo_3	"POPTR_0014s02550.1"	1515	"	"G/T"	"50,3/49,7"	"81/80"	161	stress_12bis	"POPTR_0014s02550.1"	1515	"	"G/T"	"55,6/44,4"	"35/28"	63
controllo_3	"POPTR_0014s02550.1"	1515	"	"G/T"	"50,3/49,7"	"81/80"	161	stress_42	"POPTR_0014s02550.1"	1515	"	"G/T"	"51,9/48,1"	"41/38"	79
controllo_3	"POPTR_0014s02550.1"	1515	"	"G/T"	"50,3/49,7"	"81/80"	161	stress_45	"POPTR_0014s02550.1"	1515	"	"G/T"	"62,0/38,0"	"75/46"	121
controllo_3	"POPTR_0004s14960.1"	2980	"	"A/G"	"50,3/49,7"	"73/72"	145	stress_12bis	"POPTR_0004s14960.1"	2980	"	"G/A"	"63,6/36,4"	"28/16"	44
controllo_3	"POPTR_0004s14960.1"	2980	"	"A/G"	"50,3/49,7"	"73/72"	145	stress_42	"POPTR_0004s14960.1"	2980	"	"G/A"	"81,2/18,8"	"13/3"	16
controllo_3	"POPTR_0004s14960.1"	2980	"	"A/G"	"50,3/49,7"	"73/72"	145	stress_45	"POPTR_0004s14960.1"	2980	"	"A/G"	"52,4/47,6"	"11/10"	21
controllo_3	"POPTR_0004s14780.1"	240	"	"T/G"	"50,3/49,7"	"147/145"	292	stress_12bis	"POPTR_0004s14780.1"	240	"	"T/G"	"67,1/32,9"	"55/27"	82
controllo_3	"POPTR_0004s14780.1"	240	"	"T/G"	"50,3/49,7"	"147/145"	292	stress_42	"POPTR_0004s14780.1"	240	"	"T/G"	"70,0/30,0"	"28/12"	40
controllo_3	"POPTR_0004s14780.1"	240	"	"T/G"	"50,3/49,7"	"147/145"	292	stress_45	"POPTR_0004s14780.1"	240	"	"T/G"	"51,9/48,1"	"28/26"	54
controllo_3	"POPTR_0004s01320.1"	225	"	"T/C"	"50,3/49,7"	"75/74"	149	stress_12bis	"POPTR_0004s01320.1"	225	"	"C/T"	"63,5/36,5"	"40/23"	63
controllo_3	"POPTR_0004s01320.1"	225	"	"T/C"	"50,3/49,7"	"75/74"	149	stress_42	"POPTR_0004s01320.1"	225	"	"T/C"	"60,0/40,0"	"9/6"	15
controllo_3	"POPTR_0004s01320.1"	225	"	"T/C"	"50,3/49,7"	"75/74"	149	stress_45	"POPTR_0004s01320.1"	225	"	"T/C"	"53,7/46,3"	"22/19"	41
controllo_3	"POPTR_0004s04860.1"	225	"	"T/C"	"50,3/49,7"	"100/99"	199	stress_12bis	"POPTR_0004s04860.1"	225	"	"C/T"	"63,8/36,2"	"30/17"	47
controllo_3	"POPTR_0004s04860.1"	225	"	"T/C"	"50,3/49,7"	"100/99"	199	stress_42	"POPTR_0004s04860.1"	225	"	"C/T"	"58,3/41,7"	"7/5"	12
controllo_3	"POPTR_0004s04860.1"	225	"	"T/C"	"50,3/49,7"	"100/99"	199	stress_45	"POPTR_0004s04860.1"	225	"	"C/T"	"63,2/36,8"	"12/7"	19
controllo_3	"POPTR_0004s15440.1"	286	"	"A/G"	"50,3/49,7"	"149/147"	296	stress_12bis	"POPTR_0004s15440.1"	286	"	"A/G"	"52,0/48,0"	"26/24"	50
controllo_3	"POPTR_0004s15440.1"	286	"	"A/G"	"50,3/49,7"	"149/147"	296	stress_42	"POPTR_0004s15440.1"	286	"	"A/G"	"62,5/37,5"	"15/9"	24
controllo_3	"POPTR_0004s15440.1"	286	"	"A/G"	"50,3/49,7"	"149/147"	296	stress_45	"POPTR_0004s15440.1"	286	"	"A/G"	"56,2/43,8"	"9/7"	16
controllo_3	"POPTR_0009s12790.1"	399	"	"T/C"	"50,3/49,7"	"77/76"	153	stress_12bis	"POPTR_0009s12790.1"	399	"	"C/T"	"53,8/46,2"	"21/18"	39
controllo_3	"POPTR_0009s12790.1"	399	"	"T/C"	"50,3/49,7"	"77/76"	153	stress_42	"POPTR_0009s12790.1"	399	"	"C/T"	"55,3/44,7"	"26/21"	47
controllo_3	"POPTR_0009s12790.1"	399	"	"T/C"	"50,3/49,7"	"77/76"	153	stress_45	"POPTR_0009s12790.1"	399	"	"T/C"	"60,5/39,5"	"23/15"	38
controllo_3	"POPTR_0009s06690.1"	165	"	"C/A"	"50,3/49,7"	"73/72"	145	stress_12bis	"POPTR_0009s06690.1"	165	"	"A/C"	"63,4/36,6"	"26/15"	41
controllo_3	"POPTR_0009s06690.1"	165	"	"C/A"	"50,3/49,7"	"73/72"	145	stress_42	"POPTR_0009s06690.1"	165	"	"A/C"	"50,9/49,1"	"28/27"	55
controllo_3	"POPTR_0009s06690.1"	165	"	"C/A"	"50,3/49,7"	"73/72"	145	stress_45	"POPTR_0009s06690.1"	165	"	"C/A"	"57,0/43,0"	"90/68"	158
controllo_3	"POPTR_0009s06690.1"	745	"	"A/G"	"50,3/49,7"	"77/76"	153	stress_12bis	"POPTR_0009s06690.1"	745	"	"G/A"	"53,7/46,3"	"22/19"	41
controllo_3	"POPTR_0009s06690.1"	745	"	"A/G"	"50,3/49,7"	"77/76"	153	stress_42	"POPTR_0009s06690.1"	745	"	"A/G"	"54,4/45,6"	"49/41"	90
controllo_3	"POPTR_0009s06690.1"	745	"	"A/G"	"50,3/49,7"	"77/76"	153	stress_45	"POPTR_0009s06690.1"	745	"	"G/A"	"51,9/48,1"	"83/77"	160
controllo_3	"POPTR_0009s05850.1"	70	"	"C/A"	"50,3/49,7"	"100/99"	199	stress_12bis	"POPTR_0009s05850.1"	70	"	"C/A"	"57,7/42,3"	"15/11"	26
controllo_3	"POPTR_0009s05850.1"	70	"	"C/A"	"50,3/49,7"	"100/99"	199	stress_42	"POPTR_0009s05850.1"	70	"	"C/A"	"60,0/40,0"	"18/12"	30
controllo_3	"POPTR_0009s05850.1"	70	"	"C/A"	"50,3/49,7"	"100/99"	199	stress_45	"POPTR_0009s05850.1"	70	"	"C/A"	"50,8/49,2"	"63/61"	124
controllo_3	"POPTR_0009s05850.1"	534	"	"C/T"	"50,3/49,7"	"88/87"	175	stress_12bis	"POPTR_0009s05850.1"	534	"	"C/T"	"54,2/45,8"	"13/11"	24
controllo_3	"POPTR_0009s05850.1"	534	"	"C/T"	"50,3/49,7"	"88/87"	175	stress_42	"POPTR_0009s05850.1"	534	"	"C/T"	"52,1/47,9"	"25/23"	48
controllo_3	"POPTR_0009s05850.1"	534	"	"C/T"	"50,3/49,7"	"88/87"	175	stress_45	"POPTR_0009s05850.1"	534	"	"T/C"	"60,2/39,8"	"65/43"	108
controllo_3	"POPTR_0012s07060.1"	1380	"	"G/A"	"50,3/49,7"	"177/175"	352	stress_12bis	"POPTR_0012s07060.1"	1380	"	"G/A"	"50,9/49,1"	"54/52"	106
controllo_3	"POPTR_0012s07060.1"	1380	"	"G/A"	"50,3/49,7"	"177/175"	352	stress_42	"POPTR_0012s07060.1"	1380	"	"G/A"	"52,6/47,4"	"40/36"	76
controllo_3	"POPTR_0012s07060.1"	1380	"	"G/A"	"50,3/49,7"	"177/175"	352	stress_45	"POPTR_0012s07060.1"	1380	"	"A/G"	"58,3/41,7"	"67/48"	115
controllo_3	"POPTR_0001s26970.1"	345	"	"G/A"	"50,3/49,7"	"82/81"	163	stress_12bis	"POPTR_0001s26970.1"	345	"	"G/A"	"50,9/49,1"	"28/27"	55
controllo_3	"POPTR_0001s26970.1"	345	"	"G/A"	"50,3/49,7"	"82/81"	163	stress_45	"POPTR_0001s26970.1"	345	"	"G/A"	"52,0/48,0"	"13/12"	25
controllo_3	"POPTR_0001s44870.1"	140	"	"G/C"	"50,3/49,7"	"158/156"	314	stress_12bis	"POPTR_0001s44870.1"	140	"	"G/C"	"56,1/43,9"	"23/18"	41
controllo_3	"POPTR_0001s44870.1"	140	"	"G/C"	"50,3/49,7"	"158/156"	314	stress_42	"POPTR_0001s44870.1"	140	"	"G/C"	"68,2/31,8"	"30/14"	44
controllo_3	"POPTR_0001s44870.1"	140	"	"G/C"	"50,3/49,7"	"158/156"	314	stress_45	"POPTR_0001s44870.1"	140	"	"G/C"	"59,2/40,8"	"29/20"	49
controllo_3	"POPTR_0001s35230.1"	267	"	"A/G"	"50,3/49,7"	"368/364"	732	stress_12bis	"POPTR_0001s35230.1"	267	"	"G/A"	"51,6/47,8"	"96/89"	186
controllo_3	"POPTR_0001s35230.1"	267	"	"A/G"	"50,3/49,7"	"368/364"	732	stress_42	"POPTR_0001s35230.1"	267	"	"G/A"	"52,0/48,0"	"53/49"	102
controllo_3	"POPTR_0001s35230.1"	267	"	"A/G"	"50,3/49,7"	"368/364"	732	stress_45	"POPTR_0001s35230.1"	267	"	"G/A"	"57,0/43,0"	"69/52"	121
controllo_3	"POPTR_0001s29350.1"	951	"	"C/T"	"50,3/49,7"	"83/82"	165	stress_12bis	"POPTR_0001s29350.1"	951	"	"T/C"	"51,9/48,1"	"27/25"	52
controllo_3	"POPTR_0001s29350.1"	951	"	"C/T"	"50,3/49,7"	"83/82"	165	stress_42	"POPTR_0001s29350.1"	951	"	"T/C"	"66,7/33,3"	"12/6"	18
controllo_3	"POPTR_0001s29350.1"	951	"	"C/T"	"50,3/49,7"	"83/82"	165	stress_45	"POPTR_0001s29350.1"	951	"	"T/C"	"58,1/41,9"	"25/18"	43
controllo_3	"POPTR_0001s26960.1"	1116	"	"T/A"	"50,3/49,7"	"76/75"	151	stress_12bis	"POPTR_0001s26960.1"	1116	"	"A/T"	"52,6/47,4"	"20/18"	38
controllo_3	"POPTR_0001s26960.1"	1116	"	"T/A"	"50,3/49,7"	"76/75"	151	stress_42	"POPTR_0001s26960.1"	1116	"	"T/A"	"58,3/41,7"	"14/10"	24
controllo_3	"POPTR_0001s26960.1"	1116	"	"T/A"	"50,3/49,7"	"76/75"	151	stress_45	"POPTR_0001s26960.1"	1116	"	"A/T"	"61,1/38,9"	"11/7"	18
controllo_3	"POPTR_0007s10140.1"	736	"	"C/A"	"50,3/49,7"	"81/80"	161	stress_12bis	"POPTR_0007s10140.1"	736	"	"A/C"	"53,1/46,9"	"17/15"	32
controllo_3	"POPTR_0007s10140.1"	736	"	"C/A"	"50,3/49,7"	"81/80"	161	stress_42	"POPTR_0007s10140.1"	736	"	"C/A"	"63,0/37,0"	"17/10"	27
controllo_3	"POPTR_0007s10140.1"	736	"	"C/A"	"50,3/49,7"	"81/80"	161	stress_45	"POPTR_0007s10140.1"	736	"	"C/A"	"55,2/44,8"	"16/13"	29
controllo_3	"POPTR_0007s04160.1"	164	"	"C/G"	"50,3/49,7"	"226/223"	449	stress_12bis	"POPTR_0007s04160.1"	164	"	"G/C"	"55,0/45,0"	"66/54"	120
controllo_3	"POPTR_0007s04160.1"	164	"	"C/G"	"50,3/49,7"	"226/223"	449	stress_42	"POPTR_0007s04160.1"	164	"	"G/C"	"60,5/39,5"	"23/15"	38
controllo_3	"POPTR_0007s04160.1"	164	"	"C/G"	"50,3/49,7"	"226/223"	449	stress_45	"POPTR_0007s04160.1"	164	"	"C/G"	"60,9/39,1"	"14/9"	23
controllo_3	"POPTR_0002s18020.1"	861	"	"T/C"	"50,3/49,7"	"73/72"	145	stress_12bis	"POPTR_0002s18020.1"	861	"	"C/T"	"56,5/43,5"	"39/30"	69
controllo_3	"POPTR_0002s18020.1"	861	"	"T/C"	"50,3/49,7"	"73/72"	145	stress_42	"POPTR_0002s18020.1"	861	"	"C/T"	"58,9/41,1"	"33/23"	56
controllo_3	"POPTR_0002s18020.1"	861	"	"T/C"	"50,3/49,7"	"73/72"	145	stress_45	"POPTR_0002s18020.1"	861	"	"C/T"	"50,6/49,4"	"44/43"	87
controllo_3	"POPTR_0002s05780.1"	507	"	"C/T"	"50,3/49,7"	"84/83"	167	stress_12bis	"POPTR_0002s05780.1"	507	"	"C/T"	"50,0/50,0"	"8/8"	16
controllo_3	"POPTR_0002s05780.1"	507	"	"C/T"	"50,3/49,7"	"84/83"	167	stress_42	"POPTR_0002s05780.1"	507	"	"C/T"	"63,2/36,8"	"12/7"	19
controllo_3	"POPTR_0002s05780.1"	507	"	"C/T"	"50,3/49,7"	"84/83"	167	stress_45	"POPTR_0002s05780.1"	507	"	"C/T"	"68,4/31,6"	"13/6"	19
controllo_3	"POPTR_0002s25620.1"	858	"	"T/C"	"50,3/49,7"	"90/89"	179	stress_12bis	"POPTR_0002s25620.1"	858	"	"T/C"	"52,4/47,6"	"44/40"	84
controllo_3	"POPTR_0002s25620.1"	858	"	"T/C"	"50,3/49,7"	"90/89"	179	stress_42	"POPTR_0002s25620.1"	858	"	"T/C"	"60,9/39,1"	"14/9"	23
controllo_3	"POPTR_0002s25620.1"	858	"	"T/C"	"50,3/49,7"	"90/89"	179	stress_45	"POPTR_0002s25620.1"	858	"	"T/C"	"56,1/43,9"	"23/18"	41
controllo_3	"POPTR_0008s22310.1"	92	"	"T/C"	"50,3/49,7"	"76/75"	151	stress_12bis	"POPTR_0008s22310.1"	92	"	"T/C"	"60,6/39,4"	"97/63"	160
controllo_3	"POPTR_0008s22310.1"	92	"	"T/C"	"50,3/49,7"	"76/75"	151	stress_42	"POPTR_0008s22310.1"	92	"	"C/T"	"54,3/45,7"	"50/42"	92
controllo_3	"POPTR_0008s22310.1"	92	"	"T/C"	"50,3/49,7"	"76/75"	151	stress_45	"POPTR_0008s22310.1"	92	"	"C/T"	"59,1/40,9"	"81/56"	137
controllo_3	"POPTR_0008s01960.1"	558	"	"T/C"	"50,3/49,7"	"93/92"	185	stress_12bis	"POPTR_0008s01960.1"	558	"	"C/T"	"50,7/49,3"	"34/33"	67
controllo_3	"POPTR_0008s01960.1"	558	"	"T/C"	"50,3/49,7"	"93/92"	185	stress_42	"POPTR_0008s01960.1"	558	"	"C/T"	"57,7/42,3"	"15/11"	26
controllo_3	"POPTR_0008s01960.1"	558	"	"T/C"	"50,3/49,7"	"93/92"	185	stress_45	"POPTR_0008s01960.1"	558	"	"C/T"	"56,8/43,2"	"25/19"	44
controllo_3	"POPTR_0008s08410.1"	372	"	"T/C"	"50,3/49,7"	"311/307"	618	stress_12bis	"POPTR_0008s08410.1"	372	"	"C/T"	"51,0/49,0"	"76/73"	149
controllo_3	"POPTR_0008s08410.1"	372	"	"T/C"	"50,3/49,7"	"311/307"	618	stress_42	"POPTR_0008s08410.1"	372	"	"T/C"	"64,7/35,3"	"11/6"	17
controllo_3	"POPTR_0008s08410.1"	372	"	"T/C"	"50,3/49,7"	"311/307"	618	stress_45	"POPTR_0008s08410.1"	372	"	"T/C"	"56,8/43,2"	"21/16"	37
controllo_3	"POPTR_0016s10780.1"	468	"	"G/A"	"50,3/49,7"	"221/218"	439	stress_12bis	"POPTR_0016s10780.1"	468	"	"G/A"	"75,4/24,6"	"46/15"	61
controllo_3	"POPTR_0016s10780.1"	468	"	"G/A"	"50,3/49,7"	"221/218"	439	stress_45	"POPTR_0016s10780.1"	468	"	"G/A"	"66,7/33,3"	"18/9"	27
controllo_3	"POPTR_0009s11480.1"	1275	"	"C/T"	"50,4/48,9"	"137/133"	272	stress_12bis	"POPTR_0009s11480.1"	1275	"	"T/C"	"51,5/48,5"	"51/48"	99
controllo_3	"POPTR_0009s11480.1"	1275	"	"C/T"	"50,4/48,9"	"137/133"	272	stress_42	"POPTR_0009s11480.1"	1275	"	"T/C"	"60,9/39,1"	"14/9"	23
controllo_3	"POPTR_0009s11480.1"	1275	"	"C/T"	"50,4/48,9"	"137/133"	272	stress_45	"POPTR_0009s11480.1"	1275	"	"T/C"	"64,9/32,4"	"24/12"	37
controllo_3	"POPTR_0001s47020.1"	1719	"	"T/C"	"50,4/49,3"	"141/138"	280	stress_12bis	"POPTR_0001s47020.1"	1719	"	"T/C"	"56,7/43,3"	"51/39"	90
controllo_3	"POPTR_0001s47020.1"	1719	"	"T/C"	"50,4/49,3"	"141/138"	280	stress_42	"POPTR_0001s47020.1"	1719	"	"T/C"	"60,0/40,0"	"48/32"	80
controllo_3	"POPTR_0001s47020.1"	1719	"	"T/C"	"50,4/49,3"	"141/138"	280	stress_45	"POPTR_0001s47020.1"	1719	"	"C/T"	"55,9/44,1"	"81/64"	145
controllo_3	"POPTR_0008s18230.1"	273	"	"T/A"	"50,4/49,4"	"271/266"	538	stress_12bis	"POPTR_0008s18230.1"	273	"	"T/A"	"57,6/42,4"	"95/70"	165
controllo_3	"POPTR_0008s18230.1"	273	"	"T/A"	"50,4/49,4"	"271/266"	538	stress_42	"POPTR_0008s18230.1"	273	"	"A/T"	"51,9/48,1"	"40/37"	77
controllo_3	"POPTR_0008s18230.1"	273	"	"T/A"	"50,4/49,4"	"271/266"	538	stress_45	"POPTR_0008s18230.1"	273	"	"A/T"	"52,5/47,5"	"21/19"	40
controllo_3	"POPTR_0005s24030.1"	128	"	"A/G"	"50,4/49,6"	"561/552"	1113	stress_12bis	"POPTR_0005s24030.1"	128	"	"A/G"	"52,0/48,0"	"158/146"	304
controllo_3	"POPTR_0005s24030.1"	128	"	"A/G"	"50,4/49,6"	"561/552"	1113	stress_42	"POPTR_0005s24030.1"	128	"	"A/G"	"59,3/40,7"	"73/50"	123
controllo_3	"POPTR_0005s24030.1"	128	"	"A/G"	"50,4/49,6"	"561/552"	1113	stress_45	"POPTR_0005s24030.1"	128	"	"A/G"	"55,0/45,0"	"55/45"	100
controllo_3	"POPTR_0005s25700.1"	54	"	"A/G"	"50,4/49,6"	"59/58"	117	stress_12bis	"POPTR_0005s25700.1"	54	"	"G/A"	"60,7/39,3"	"17/11"	28
controllo_3	"POPTR_0005s25700.1"	54	"	"A/G"	"50,4/49,6"	"59/58"	117	stress_42	"POPTR_0005s25700.1"	54	"	"A/G"	"51,4/48,6"	"19/18"	37
controllo_3	"POPTR_0005s25700.1"	54	"	"A/G"	"50,4/49,6"	"59/58"	117	stress_45	"POPTR_0005s25700.1"	54	"	"G/A"	"61,5/38,5"	"24/15"	39
controllo_3	"POPTR_0006s28990.1"	2259	"	"A/T"	"50,4/49,6"	"175/172"	347	stress_12bis	"POPTR_0006s28990.1"	2259	"	"T/A"	"65,4/34,6"	"34/18"	52
controllo_3	"POPTR_0006s28990.1"	2259	"	"A/T"	"50,4/49,6"	"175/172"	347	stress_42	"POPTR_0006s28990.1"	2259	"	"T/A"	"50,7/49,3"	"74/72"	146
controllo_3	"POPTR_0006s28990.1"	2259	"	"A/T"	"50,4/49,6"	"175/172"	347	stress_45	"POPTR_0006s28990.1"	2259	"	"T/A"	"56,1/43,9"	"87/68"	155
controllo_3	"POPTR_0006s04960.1"	2832	"	"C/A"	"50,4/49,6"	"238/234"	472	stress_12bis	"POPTR_0006s04960.1"	2832	"	"A/C"	"51,9/48,1"	"54/50"	104
controllo_3	"POPTR_0006s04960.1"	2832	"	"C/A"	"50,4/49,6"	"238/234"	472	stress_42	"POPTR_0006s04960.1"	2832	"	"C/A"	"54,3/45,7"	"19/16"	35
controllo_3	"POPTR_0006s04960.1"	2832	"	"C/A"	"50,4/49,6"	"238/234"	472	stress_45	"POPTR_0006s04960.1"	2832	"	"A/C"	"56,9/43,1"	"29/22"	51
controllo_3	"POPTR_0006s12910.1"	700	"	"G/A"	"50,4/49,6"	"196/193"	389	stress_12bis	"POPTR_0006s12910.1"	700	"	"G/A"	"52,5/46,8"	"73/65"	139
controllo_3	"POPTR_0006s12910.1"	700	"	"G/A"	"50,4/49,6"	"196/193"	389	stress_42	"POPTR_0006s12910.1"	700	"	"A/G"	"51,1/48,9"	"45/43"	88
controllo_3	"POPTR_0006s12910.1"	700	"	"G/A"	"50,4/49,6"	"196/193"	389	stress_45	"POPTR_0006s12910.1"	700	"	"A/G"	"56,5/43,5"	"83/64"	147
controllo_3	"POPTR_0006s17950.1"	342	"	"G/C"	"50,4/49,6"	"58/57"	115	stress_12bis	"POPTR_0006s17950.1"	342	"	"G/C"	"59,5/40,5"	"25/17"	42
controllo_3	"POPTR_0006s17950.1"	342	"	"G/C"	"50,4/49,6"	"58/57"	115	stress_42	"POPTR_0006s17950.1"	342	"	"C/G"	"55,0/45,0"	"11/9"	20
controllo_3	"POPTR_0006s17950.1"	342	"	"G/C"	"50,4/49,6"	"58/57"	115	stress_45	"POPTR_0006s17950.1"	342	"	"G/C"	"54,5/45,5"	"12/10"	22
controllo_3	"POPTR_0021s00380.1"	1170	"	"C/T"	"50,4/49,6"	"315/310"	625	stress_12bis	"POPTR_0021s00380.1"	1170	"	"C/T"	"58,1/41,0"	"129/91"	222
controllo_3	"POPTR_0021s00380.1"	1170	"	"C/T"	"50,4/49,6"	"315/310"	625	stress_42	"POPTR_0021s00380.1"	1170	"	"C/T"	"50,0/50,0"	"18/18"	36
controllo_3	"POPTR_0021s00380.1"	1170	"	"C/T"	"50,4/49,6"	"315/310"	625	stress_45	"POPTR_0021s00380.1"	1170	"	"C/T"	"51,2/48,8"	"22/21"	43
controllo_3	"POPTR_0018s08790.1"	1311	"	"T/G"	"50,4/49,6"	"64/63"	127	stress_12bis	"POPTR_0018s08790.1"	1311	"	"G/T"	"61,9/38,1"	"26/16"	42
controllo_3	"POPTR_0018s08790.1"	1311	"	"T/G"	"50,4/49,6"	"64/63"	127	stress_42	"POPTR_0018s08790.1"	1311	"	"T/G"	"53,8/46,2"	"14/12"	26
controllo_3	"POPTR_0018s08790.1"	1311	"	"T/G"	"50,4/49,6"	"64/63"	127	stress_45	"POPTR_0018s08790.1"	1311	"	"G/T"	"56,1/43,9"	"23/18"	41
controllo_3	"POPTR_0018s02960.1"	182	"	"A/T"	"50,4/49,6"	"57/56"	113	stress_45	"POPTR_0018s02960.1"	182	"	"T/A"	"61,9/38,1"	"13/8"	21
controllo_3	"POPTR_0018s01420.1"	156	"	"C/G"	"50,4/49,6"	"63/62"	125	stress_12bis	"POPTR_0018s01420.1"	156	"	"G/C"	"56,7/43,3"	"38/29"	67
controllo_3	"POPTR_0018s01420.1"	156	"	"C/G"	"50,4/49,6"	"63/62"	125	stress_42	"POPTR_0018s01420.1"	156	"	"C/G"	"50,7/49,3"	"37/36"	73
controllo_3	"POPTR_0018s01420.1"	156	"	"C/G"	"50,4/49,6"	"63/62"	125	stress_45	"POPTR_0018s01420.1"	156	"	"G/C"	"52,4/47,6"	"54/49"	103
controllo_3	"POPTR_0003s18530.1"	54	"	"A/G"	"50,4/49,6"	"69/68"	137	stress_12bis	"POPTR_0003s18530.1"	54	"	"A/G"	"55,3/44,7"	"26/21"	47
controllo_3	"POPTR_0003s18530.1"	54	"	"A/G"	"50,4/49,6"	"69/68"	137	stress_42	"POPTR_0003s18530.1"	54	"	"G/A"	"69,2/30,8"	"18/8"	26
controllo_3	"POPTR_0003s18530.1"	54	"	"A/G"	"50,4/49,6"	"69/68"	137	stress_45	"POPTR_0003s18530.1"	54	"	"A/G"	"55,6/44,4"	"30/24"	54
controllo_3	"POPTR_0003s20890.1"	112	"	"C/T"	"50,4/49,6"	"71/70"	141	stress_12bis	"POPTR_0003s20890.1"	112	"	"C/T"	"68,0/32,0"	"17/8"	25
controllo_3	"POPTR_0003s20890.1"	112	"	"C/T"	"50,4/49,6"	"71/70"	141	stress_45	"POPTR_0003s20890.1"	112	"	"C/T"	"50,0/50,0"	"6/6"	12
controllo_3	"POPTR_0013s13910.1"	753	"	"G/T"	"50,4/49,6"	"57/56"	113	stress_12bis	"POPTR_0013s13910.1"	753	"	"G/T"	"52,4/47,6"	"22/20"	42
controllo_3	"POPTR_0013s13910.1"	753	"	"G/T"	"50,4/49,6"	"57/56"	113	stress_42	"POPTR_0013s13910.1"	753	"	"G/T"	"52,9/47,1"	"9/8"	17
controllo_3	"POPTR_0013s13910.1"	753	"	"G/T"	"50,4/49,6"	"57/56"	113	stress_45	"POPTR_0013s13910.1"	753	"	"G/T"	"64,7/35,3"	"11/6"	17
controllo_3	"POPTR_0013s12130.1"	354	"	"G/A"	"50,4/49,6"	"63/62"	125	stress_12bis	"POPTR_0013s12130.1"	354	"	"A/G"	"56,0/44,0"	"14/11"	25
controllo_3	"POPTR_0013s12130.1"	354	"	"G/A"	"50,4/49,6"	"63/62"	125	stress_42	"POPTR_0013s12130.1"	354	"	"A/G"	"58,3/41,7"	"7/5"	12
controllo_3	"POPTR_0013s12130.1"	354	"	"G/A"	"50,4/49,6"	"63/62"	125	stress_45	"POPTR_0013s12130.1"	354	"	"A/G"	"55,0/45,0"	"11/9"	20
controllo_3	"POPTR_0013s01930.1"	333	"	"C/T"	"50,4/49,6"	"58/57"	115	stress_12bis	"POPTR_0013s01930.1"	333	"	"T/C"	"70,2/29,8"	"33/14"	47
controllo_3	"POPTR_0013s01930.1"	333	"	"C/T"	"50,4/49,6"	"58/57"	115	stress_42	"POPTR_0013s01930.1"	333	"	"C/T"	"54,5/45,5"	"6/5"	11
controllo_3	"POPTR_0013s01930.1"	333	"	"C/T"	"50,4/49,6"	"58/57"	115	stress_45	"POPTR_0013s01930.1"	333	"	"C/T"	"52,6/47,4"	"10/9"	19
controllo_3	"POPTR_0013s11340.1"	277	"	"C/G"	"50,4/49,6"	"61/60"	121	stress_12bis	"POPTR_0013s11340.1"	277	"	"C/G"	"51,4/48,6"	"19/18"	37
controllo_3	"POPTR_0013s09270.1"	239	"	"C/T"	"50,4/49,6"	"59/58"	117	stress_12bis	"POPTR_0013s09270.1"	239	"	"T/C"	"57,1/42,9"	"20/15"	35
controllo_3	"POPTR_0013s09270.1"	239	"	"C/T"	"50,4/49,6"	"59/58"	117	stress_42	"POPTR_0013s09270.1"	239	"	"C/T"	"52,9/47,1"	"18/16"	34
controllo_3	"POPTR_0013s09270.1"	239	"	"C/T"	"50,4/49,6"	"59/58"	117	stress_45	"POPTR_0013s09270.1"	239	"	"T/C"	"74,3/25,7"	"26/9"	35
controllo_3	"POPTR_0013s07150.1"	717	"	"A/G"	"50,4/49,6"	"61/60"	121	stress_12bis	"POPTR_0013s07150.1"	717	"	"G/A"	"56,4/43,6"	"22/17"	39
controllo_3	"POPTR_0013s07150.1"	717	"	"A/G"	"50,4/49,6"	"61/60"	121	stress_42	"POPTR_0013s07150.1"	717	"	"A/G"	"50,0/50,0"	"8/8"	16
controllo_3	"POPTR_0013s07150.1"	717	"	"A/G"	"50,4/49,6"	"61/60"	121	stress_45	"POPTR_0013s07150.1"	717	"	"A/G"	"66,7/33,3"	"10/5"	15
controllo_3	"POPTR_0013s00760.1"	104	"	"G/A"	"50,4/49,6"	"351/346"	697	stress_12bis	"POPTR_0013s00760.1"	104	"	"G/A"	"50,9/49,1"	"82/79"	161
controllo_3	"POPTR_0013s00760.1"	104	"	"G/A"	"50,4/49,6"	"351/346"	697	stress_42	"POPTR_0013s00760.1"	104	"	"A/G"	"53,7/46,3"	"22/19"	41
controllo_3	"POPTR_0013s00760.1"	104	"	"G/A"	"50,4/49,6"	"351/346"	697	stress_45	"POPTR_0013s00760.1"	104	"	"A/G"	"52,9/47,1"	"36/32"	68
controllo_3	"POPTR_0013s06710.1"	744	"	"A/C"	"50,4/49,6"	"114/112"	226	stress_12bis	"POPTR_0013s06710.1"	744	"	"A/C"	"51,1/48,9"	"45/43"	88
controllo_3	"POPTR_0013s06710.1"	744	"	"A/C"	"50,4/49,6"	"114/112"	226	stress_42	"POPTR_0013s06710.1"	744	"	"A/C"	"56,2/43,8"	"18/14"	32
controllo_3	"POPTR_0013s06710.1"	744	"	"A/C"	"50,4/49,6"	"114/112"	226	stress_45	"POPTR_0013s06710.1"	744	"	"A/C"	"68,6/31,4"	"24/11"	35
controllo_3	"POPTR_0004s21940.1"	2856	"	"A/G"	"50,4/49,6"	"60/59"	119	stress_12bis	"POPTR_0004s21940.1"	2856	"	"A/G"	"64,7/35,3"	"22/12"	34
controllo_3	"POPTR_0004s21940.1"	2856	"	"A/G"	"50,4/49,6"	"60/59"	119	stress_42	"POPTR_0004s21940.1"	2856	"	"G/A"	"62,5/37,5"	"10/6"	16
controllo_3	"POPTR_0004s21940.1"	2856	"	"A/G"	"50,4/49,6"	"60/59"	119	stress_45	"POPTR_0004s21940.1"	2856	"	"A/G"	"60,0/40,0"	"12/8"	20
controllo_3	"POPTR_0004s16920.1"	42	"	"T/C"	"50,4/49,6"	"1816/1788"	3605	stress_12bis	"POPTR_0004s16920.1"	42	"	"C/T"	"51,7/48,3"	"536/500"	1036
controllo_3	"POPTR_0004s16920.1"	42	"	"T/C"	"50,4/49,6"	"1816/1788"	3605	stress_42	"POPTR_0004s16920.1"	42	"	"C/T"	"66,7/33,3"	"54/27"	81
controllo_3	"POPTR_0004s16920.1"	42	"	"T/C"	"50,4/49,6"	"1816/1788"	3605	stress_45	"POPTR_0004s16920.1"	42	"	"C/T"	"68,5/31,5"	"98/45"	143
controllo_3	"POPTR_0004s16920.1"	561	"	"T/C"	"50,4/49,6"	"1708/1680"	3390	stress_12bis	"POPTR_0004s16920.1"	561	"	"C/T"	"54,9/45,0"	"546/447"	994
controllo_3	"POPTR_0004s16920.1"	561	"	"T/C"	"50,4/49,6"	"1708/1680"	3390	stress_42	"POPTR_0004s16920.1"	561	"	"C/T"	"61,0/39,0"	"64/41"	105
controllo_3	"POPTR_0004s16920.1"	561	"	"T/C"	"50,4/49,6"	"1708/1680"	3390	stress_45	"POPTR_0004s16920.1"	561	"	"C/T"	"63,4/36,6"	"90/52"	142
controllo_3	"POPTR_0004s01320.1"	355	"	"G/A"	"50,4/49,6"	"69/68"	137	stress_12bis	"POPTR_0004s01320.1"	355	"	"G/A"	"59,2/40,8"	"42/29"	71
controllo_3	"POPTR_0004s01320.1"	355	"	"G/A"	"50,4/49,6"	"69/68"	137	stress_42	"POPTR_0004s01320.1"	355	"	"A/G"	"55,0/45,0"	"22/18"	40
controllo_3	"POPTR_0004s01320.1"	355	"	"G/A"	"50,4/49,6"	"69/68"	137	stress_45	"POPTR_0004s01320.1"	355	"	"A/G"	"50,0/50,0"	"17/17"	34
controllo_3	"POPTR_0004s22810.1"	66	"	"T/G"	"50,4/49,6"	"2269/2234"	4506	stress_12bis	"POPTR_0004s22810.1"	66	"	"T/G"	"56,4/43,6"	"633/490"	1123
controllo_3	"POPTR_0004s22810.1"	66	"	"T/G"	"50,4/49,6"	"2269/2234"	4506	stress_42	"POPTR_0004s22810.1"	66	"	"G/T"	"52,0/48,0"	"205/189"	394
controllo_3	"POPTR_0004s22810.1"	66	"	"T/G"	"50,4/49,6"	"2269/2234"	4506	stress_45	"POPTR_0004s22810.1"	66	"	"G/T"	"57,4/42,4"	"260/192"	453
controllo_3	"POPTR_0009s13650.1"	543	"	"G/A"	"50,4/49,6"	"70/69"	139	stress_12bis	"POPTR_0009s13650.1"	543	"	"A/G"	"52,4/47,6"	"55/50"	105
controllo_3	"POPTR_0009s13650.1"	543	"	"G/A"	"50,4/49,6"	"70/69"	139	stress_42	"POPTR_0009s13650.1"	543	"	"G/A"	"67,3/32,7"	"35/17"	52
controllo_3	"POPTR_0009s13650.1"	543	"	"G/A"	"50,4/49,6"	"70/69"	139	stress_45	"POPTR_0009s13650.1"	543	"	"A/G"	"64,3/35,7"	"27/15"	42
controllo_3	"POPTR_0009s06720.1"	324	"	"A/G"	"50,4/49,6"	"68/67"	135	stress_12bis	"POPTR_0009s06720.1"	324	"	"A/G"	"54,1/45,9"	"20/17"	37
controllo_3	"POPTR_0009s06720.1"	324	"	"A/G"	"50,4/49,6"	"68/67"	135	stress_42	"POPTR_0009s06720.1"	324	"	"G/A"	"57,1/42,9"	"8/6"	14
controllo_3	"POPTR_0009s06720.1"	324	"	"A/G"	"50,4/49,6"	"68/67"	135	stress_45	"POPTR_0009s06720.1"	324	"	"G/A"	"68,0/32,0"	"17/8"	25
controllo_3	"POPTR_0009s11480.1"	93	"	"C/A"	"50,4/49,6"	"215/212"	427	stress_12bis	"POPTR_0009s11480.1"	93	"	"C/A"	"54,8/45,2"	"109/90"	199
controllo_3	"POPTR_0009s11480.1"	93	"	"C/A"	"50,4/49,6"	"215/212"	427	stress_42	"POPTR_0009s11480.1"	93	"	"C/A"	"56,7/43,3"	"17/13"	30
controllo_3	"POPTR_0009s11480.1"	93	"	"C/A"	"50,4/49,6"	"215/212"	427	stress_45	"POPTR_0009s11480.1"	93	"	"A/C"	"60,0/40,0"	"30/20"	50
controllo_3	"POPTR_0012s11570.1"	546	"	"T/C"	"50,4/49,6"	"57/56"	113	stress_12bis	"POPTR_0012s11570.1"	546	"	"T/C"	"57,4/42,6"	"31/23"	54
controllo_3	"POPTR_0012s11570.1"	546	"	"T/C"	"50,4/49,6"	"57/56"	113	stress_42	"POPTR_0012s11570.1"	546	"	"T/C"	"60,0/40,0"	"9/6"	15
controllo_3	"POPTR_0012s11570.1"	546	"	"T/C"	"50,4/49,6"	"57/56"	113	stress_45	"POPTR_0012s11570.1"	546	"	"C/T"	"75,0/25,0"	"24/8"	32
controllo_3	"POPTR_0015s09810.1"	864	"	"A/T"	"50,4/49,6"	"61/60"	121	stress_12bis	"POPTR_0015s09810.1"	864	"	"A/T"	"56,8/40,9"	"25/18"	44
controllo_3	"POPTR_0015s09810.1"	864	"	"A/T"	"50,4/49,6"	"61/60"	121	stress_42	"POPTR_0015s09810.1"	864	"	"A/T"	"50,0/50,0"	"8/8"	16
controllo_3	"POPTR_0015s09810.1"	864	"	"A/T"	"50,4/49,6"	"61/60"	121	stress_45	"POPTR_0015s09810.1"	864	"	"T/A"	"65,2/34,8"	"15/8"	23
controllo_3	"POPTR_0001s42720.1"	2799	"	"A/G"	"50,4/49,6"	"65/64"	129	stress_12bis	"POPTR_0001s42720.1"	2799	"	"A/G"	"63,6/36,4"	"14/8"	22
controllo_3	"POPTR_0001s42720.1"	2799	"	"A/G"	"50,4/49,6"	"65/64"	129	stress_45	"POPTR_0001s42720.1"	2799	"	"G/A"	"54,5/45,5"	"12/10"	22
controllo_3	"POPTR_0001s45410.1"	1164	"	"G/T"	"50,4/49,6"	"61/60"	121	stress_12bis	"POPTR_0001s45410.1"	1164	"	"G/T"	"58,2/41,8"	"32/23"	55
controllo_3	"POPTR_0001s45410.1"	1164	"	"G/T"	"50,4/49,6"	"61/60"	121	stress_42	"POPTR_0001s45410.1"	1164	"	"G/T"	"59,3/40,7"	"16/11"	27
controllo_3	"POPTR_0001s45410.1"	1164	"	"G/T"	"50,4/49,6"	"61/60"	121	stress_45	"POPTR_0001s45410.1"	1164	"	"G/T"	"65,4/34,6"	"17/9"	26
controllo_3	"POPTR_0001s12630.1"	255	"	"T/C"	"50,4/49,6"	"71/70"	141	stress_12bis	"POPTR_0001s12630.1"	255	"	"C/T"	"54,0/46,0"	"27/23"	50
controllo_3	"POPTR_0001s12630.1"	255	"	"T/C"	"50,4/49,6"	"71/70"	141	stress_42	"POPTR_0001s12630.1"	255	"	"C/T"	"53,2/46,8"	"42/37"	79
controllo_3	"POPTR_0001s12630.1"	255	"	"T/C"	"50,4/49,6"	"71/70"	141	stress_45	"POPTR_0001s12630.1"	255	"	"C/T"	"56,0/44,0"	"61/48"	109
controllo_3	"POPTR_0001s38810.1"	576	"	"C/T"	"50,4/49,6"	"411/404"	815	stress_12bis	"POPTR_0001s38810.1"	576	"	"C/T"	"59,8/40,2"	"143/96"	239
controllo_3	"POPTR_0001s38810.1"	576	"	"C/T"	"50,4/49,6"	"411/404"	815	stress_42	"POPTR_0001s38810.1"	576	"	"T/C"	"67,3/32,4"	"216/104"	321
controllo_3	"POPTR_0001s38810.1"	576	"	"C/T"	"50,4/49,6"	"411/404"	815	stress_45	"POPTR_0001s38810.1"	576	"	"T/C"	"61,2/38,8"	"237/150"	387
controllo_3	"POPTR_0001s35220.1"	1035	"	"T/C"	"50,4/49,6"	"59/58"	117	stress_12bis	"POPTR_0001s35220.1"	1035	"	"C/T"	"56,2/43,8"	"18/14"	32
controllo_3	"POPTR_0001s35220.1"	1035	"	"T/C"	"50,4/49,6"	"59/58"	117	stress_42	"POPTR_0001s35220.1"	1035	"	"C/T"	"70,0/30,0"	"7/3"	10
controllo_3	"POPTR_0001s07870.1"	883	"	"A/G"	"50,4/49,6"	"66/65"	131	stress_12bis	"POPTR_0001s07870.1"	883	"	"A/G"	"55,0/45,0"	"11/9"	20
controllo_3	"POPTR_0001s07870.1"	883	"	"A/G"	"50,4/49,6"	"66/65"	131	stress_42	"POPTR_0001s07870.1"	883	"	"A/G"	"80,0/20,0"	"8/2"	10
controllo_3	"POPTR_0001s07870.1"	883	"	"A/G"	"50,4/49,6"	"66/65"	131	stress_45	"POPTR_0001s07870.1"	883	"	"A/G"	"65,9/34,1"	"29/15"	44
controllo_3	"POPTR_0001s07870.1"	1027	"	"G/A"	"50,4/49,6"	"59/58"	117	stress_12bis	"POPTR_0001s07870.1"	1027	"	"G/A"	"70,0/30,0"	"14/6"	20
controllo_3	"POPTR_0001s07870.1"	1027	"	"G/A"	"50,4/49,6"	"59/58"	117	stress_42	"POPTR_0001s07870.1"	1027	"	"G/A"	"80,0/20,0"	"16/4"	20
controllo_3	"POPTR_0001s07870.1"	1027	"	"G/A"	"50,4/49,6"	"59/58"	117	stress_45	"POPTR_0001s07870.1"	1027	"	"G/A"	"71,8/28,2"	"28/11"	39
controllo_3	"POPTR_0010s20060.1"	405	"	"T/C"	"50,4/49,6"	"228/224"	452	stress_12bis	"POPTR_0010s20060.1"	405	"	"T/C"	"59,4/40,6"	"85/58"	143
controllo_3	"POPTR_0010s20060.1"	405	"	"T/C"	"50,4/49,6"	"228/224"	452	stress_42	"POPTR_0010s20060.1"	405	"	"T/C"	"56,7/43,3"	"17/13"	30
controllo_3	"POPTR_0010s20060.1"	405	"	"T/C"	"50,4/49,6"	"228/224"	452	stress_45	"POPTR_0010s20060.1"	405	"	"T/C"	"70,6/29,4"	"24/10"	34
controllo_3	"POPTR_0002s18510.1"	727	"	"G/A"	"50,4/49,6"	"59/58"	117	stress_12bis	"POPTR_0002s18510.1"	727	"	"G/A"	"64,3/35,7"	"27/15"	42
controllo_3	"POPTR_0002s18510.1"	727	"	"G/A"	"50,4/49,6"	"59/58"	117	stress_42	"POPTR_0002s18510.1"	727	"	"G/A"	"60,5/39,5"	"26/17"	43
controllo_3	"POPTR_0002s18510.1"	727	"	"G/A"	"50,4/49,6"	"59/58"	117	stress_45	"POPTR_0002s18510.1"	727	"	"G/A"	"55,1/44,9"	"27/22"	49
controllo_3	"POPTR_0002s08010.1"	96	"	"A/C"	"50,4/49,6"	"58/57"	115	stress_12bis	"POPTR_0002s08010.1"	96	"	"A/C"	"69,6/30,4"	"16/7"	23
controllo_3	"POPTR_0002s08010.1"	96	"	"A/C"	"50,4/49,6"	"58/57"	115	stress_45	"POPTR_0002s08010.1"	96	"	"A/C"	"50,0/50,0"	"6/6"	12
controllo_3	"POPTR_0002s08900.1"	231	"	"A/G"	"50,4/49,6"	"60/59"	119	stress_12bis	"POPTR_0002s08900.1"	231	"	"G/A"	"61,4/38,6"	"27/17"	44
controllo_3	"POPTR_0002s08900.1"	231	"	"A/G"	"50,4/49,6"	"60/59"	119	stress_42	"POPTR_0002s08900.1"	231	"	"G/A"	"68,8/31,2"	"11/5"	16
controllo_3	"POPTR_0002s08900.1"	231	"	"A/G"	"50,4/49,6"	"60/59"	119	stress_45	"POPTR_0002s08900.1"	231	"	"G/A"	"60,0/40,0"	"9/6"	15
controllo_3	"POPTR_0002s11310.1"	315	"	"T/C"	"50,4/49,6"	"68/67"	135	stress_12bis	"POPTR_0002s11310.1"	315	"	"T/C"	"57,4/42,6"	"27/20"	47
controllo_3	"POPTR_0002s11310.1"	315	"	"T/C"	"50,4/49,6"	"68/67"	135	stress_42	"POPTR_0002s11310.1"	315	"	"C/T"	"70,0/30,0"	"14/6"	20
controllo_3	"POPTR_0008s17190.1"	273	"	"G/A"	"50,4/49,6"	"67/66"	133	stress_12bis	"POPTR_0008s17190.1"	273	"	"G/A"	"53,7/46,3"	"29/25"	54
controllo_3	"POPTR_0008s17190.1"	273	"	"G/A"	"50,4/49,6"	"67/66"	133	stress_45	"POPTR_0008s17190.1"	273	"	"A/G"	"55,6/44,4"	"10/8"	18
controllo_3	"POPTR_0008s01960.1"	1185	"	"A/G"	"50,4/49,6"	"61/60"	121	stress_12bis	"POPTR_0008s01960.1"	1185	"	"A/G"	"60,0/40,0"	"21/14"	35
controllo_3	"POPTR_0008s01960.1"	1185	"	"A/G"	"50,4/49,6"	"61/60"	121	stress_42	"POPTR_0008s01960.1"	1185	"	"A/G"	"50,0/50,0"	"19/19"	38
controllo_3	"POPTR_0008s01960.1"	1185	"	"A/G"	"50,4/49,6"	"61/60"	121	stress_45	"POPTR_0008s01960.1"	1185	"	"G/A"	"56,1/43,9"	"23/18"	41
controllo_3	"POPTR_0016s08520.1"	765	"	"A/G"	"50,4/49,6"	"57/56"	113	stress_12bis	"POPTR_0016s08520.1"	765	"	"G/A"	"63,0/37,0"	"17/10"	27
controllo_3	"POPTR_0016s08520.1"	765	"	"A/G"	"50,4/49,6"	"57/56"	113	stress_42	"POPTR_0016s08520.1"	765	"	"A/G"	"54,3/45,7"	"19/16"	35
controllo_3	"POPTR_0016s08520.1"	765	"	"A/G"	"50,4/49,6"	"57/56"	113	stress_45	"POPTR_0016s08520.1"	765	"	"A/G"	"52,3/47,7"	"56/51"	107
controllo_3	"POPTR_0016s12100.1"	1276	"	"A/G"	"50,4/49,6"	"58/57"	115	stress_12bis	"POPTR_0016s12100.1"	1276	"	"A/G"	"80,0/20,0"	"12/3"	15
controllo_3	"POPTR_0016s02430.1"	327	"	"A/G"	"50,4/49,6"	"65/64"	129	stress_12bis	"POPTR_0016s02430.1"	327	"	"A/G"	"58,6/41,4"	"17/12"	29
controllo_3	"POPTR_0016s02430.1"	327	"	"A/G"	"50,4/49,6"	"65/64"	129	stress_42	"POPTR_0016s02430.1"	327	"	"G/A"	"53,5/46,5"	"23/20"	43
controllo_3	"POPTR_0016s02430.1"	327	"	"A/G"	"50,4/49,6"	"65/64"	129	stress_45	"POPTR_0016s02430.1"	327	"	"A/G"	"60,8/39,2"	"31/20"	51
controllo_3	"POPTR_0008s17190.1"	363	"	"A/C"	"50,5/47,6"	"52/49"	103	stress_12bis	"POPTR_0008s17190.1"	363	"	"A/C"	"63,6/36,4"	"21/12"	33
controllo_3	"POPTR_0008s17190.1"	363	"	"A/C"	"50,5/47,6"	"52/49"	103	stress_42	"POPTR_0008s17190.1"	363	"	"A/C"	"64,7/29,4"	"11/5"	17
controllo_3	"POPTR_0008s17190.1"	363	"	"A/C"	"50,5/47,6"	"52/49"	103	stress_45	"POPTR_0008s17190.1"	363	"	"A/C"	"68,2/31,8"	"15/7"	22
controllo_3	"POPTR_0001s07870.1"	1401	"	"A/G"	"50,5/48,5"	"51/49"	101	stress_12bis	"POPTR_0001s07870.1"	1401	"	"G/A"	"57,1/42,9"	"12/9"	21
controllo_3	"POPTR_0001s07870.1"	1401	"	"A/G"	"50,5/48,5"	"51/49"	101	stress_42	"POPTR_0001s07870.1"	1401	"	"A/G"	"68,4/31,6"	"13/6"	19
controllo_3	"POPTR_0001s07870.1"	1401	"	"A/G"	"50,5/48,5"	"51/49"	101	stress_45	"POPTR_0001s07870.1"	1401	"	"A/G"	"58,3/41,7"	"14/10"	24
controllo_3	"POPTR_0006s00620.1"	1515	"	"T/A"	"50,5/48,6"	"54/52"	107	stress_12bis	"POPTR_0006s00620.1"	1515	"	"T/A"	"66,7/33,3"	"12/6"	18
controllo_3	"POPTR_0008s19960.1"	1041	"	"G/T"	"50,5/48,6"	"56/54"	111	stress_12bis	"POPTR_0008s19960.1"	1041	"	"G/T"	"60,0/40,0"	"9/6"	15
controllo_3	"POPTR_0010s21560.1"	183	"	"C/T"	"50,5/48,9"	"92/89"	182	stress_12bis	"POPTR_0010s21560.1"	183	"	"T/C"	"57,6/42,4"	"34/25"	59
controllo_3	"POPTR_0010s21560.1"	183	"	"C/T"	"50,5/48,9"	"92/89"	182	stress_42	"POPTR_0010s21560.1"	183	"	"C/T"	"50,0/50,0"	"27/27"	54
controllo_3	"POPTR_0010s21560.1"	183	"	"C/T"	"50,5/48,9"	"92/89"	182	stress_45	"POPTR_0010s21560.1"	183	"	"C/T"	"55,2/43,1"	"32/25"	58
controllo_3	"POPTR_0004s22810.1"	240	"	"A/T"	"50,5/49,1"	"2342/2278"	4638	stress_12bis	"POPTR_0004s22810.1"	240	"	"A/T"	"52,8/46,6"	"707/624"	1338
controllo_3	"POPTR_0004s22810.1"	240	"	"A/T"	"50,5/49,1"	"2342/2278"	4638	stress_42	"POPTR_0004s22810.1"	240	"	"T/A"	"52,1/47,1"	"269/243"	516
controllo_3	"POPTR_0004s22810.1"	240	"	"A/T"	"50,5/49,1"	"2342/2278"	4638	stress_45	"POPTR_0004s22810.1"	240	"	"T/A"	"51,8/47,4"	"317/290"	612
controllo_3	"POPTR_0013s10250.1"	165	"	"C/T"	"50,5/49,2"	"234/228"	463	stress_12bis	"POPTR_0013s10250.1"	165	"	"T/C"	"51,7/46,6"	"120/108"	232
controllo_3	"POPTR_0013s10250.1"	165	"	"C/T"	"50,5/49,2"	"234/228"	463	stress_42	"POPTR_0013s10250.1"	165	"	"C/T"	"58,9/41,1"	"43/30"	73
controllo_3	"POPTR_0013s10250.1"	165	"	"C/T"	"50,5/49,2"	"234/228"	463	stress_45	"POPTR_0013s10250.1"	165	"	"C/T"	"63,4/36,6"	"59/34"	93
controllo_3	"POPTR_0013s00760.1"	429	"	"G/A"	"50,5/49,3"	"380/371"	752	stress_12bis	"POPTR_0013s00760.1"	429	"	"G/A"	"52,4/47,6"	"88/80"	168
controllo_3	"POPTR_0013s00760.1"	429	"	"G/A"	"50,5/49,3"	"380/371"	752	stress_42	"POPTR_0013s00760.1"	429	"	"G/A"	"53,5/46,5"	"23/20"	43
controllo_3	"POPTR_0013s00760.1"	429	"	"G/A"	"50,5/49,3"	"380/371"	752	stress_45	"POPTR_0013s00760.1"	429	"	"A/G"	"58,1/41,9"	"36/26"	62
controllo_3	"POPTR_0001s36560.1"	186	"	"C/T"	"50,5/49,3"	"220/215"	436	stress_12bis	"POPTR_0001s36560.1"	186	"	"T/C"	"52,7/47,3"	"49/44"	93
controllo_3	"POPTR_0001s36560.1"	186	"	"C/T"	"50,5/49,3"	"220/215"	436	stress_45	"POPTR_0001s36560.1"	186	"	"T/C"	"51,7/48,3"	"15/14"	29
controllo_3	"POPTR_0010s24290.1"	39	"	"C/T"	"50,5/49,4"	"1552/1519"	3072	stress_12bis	"POPTR_0010s24290.1"	39	"	"C/T"	"59,4/40,6"	"449/307"	756
controllo_3	"POPTR_0010s24290.1"	39	"	"C/T"	"50,5/49,4"	"1552/1519"	3072	stress_42	"POPTR_0010s24290.1"	39	"	"T/C"	"55,2/44,7"	"843/682"	1526
controllo_3	"POPTR_0010s24290.1"	39	"	"C/T"	"50,5/49,4"	"1552/1519"	3072	stress_45	"POPTR_0010s24290.1"	39	"	"T/C"	"58,8/41,2"	"700/491"	1191
controllo_3	"POPTR_0005s05130.1"	1173	"	"A/G"	"50,5/49,5"	"52/51"	103	stress_12bis	"POPTR_0005s05130.1"	1173	"	"G/A"	"61,1/38,9"	"11/7"	18
controllo_3	"POPTR_0006s18280.1"	1678	"	"A/G"	"50,5/49,5"	"56/55"	111	stress_12bis	"POPTR_0006s18280.1"	1678	"	"A/G"	"53,2/46,8"	"25/22"	47
controllo_3	"POPTR_0006s18280.1"	1678	"	"A/G"	"50,5/49,5"	"56/55"	111	stress_42	"POPTR_0006s18280.1"	1678	"	"A/G"	"58,1/41,9"	"25/18"	43
controllo_3	"POPTR_0006s18280.1"	1678	"	"A/G"	"50,5/49,5"	"56/55"	111	stress_45	"POPTR_0006s18280.1"	1678	"	"G/A"	"59,6/40,4"	"34/23"	57
controllo_3	"POPTR_0006s04960.1"	999	"	"A/T"	"50,5/49,5"	"93/91"	184	stress_12bis	"POPTR_0006s04960.1"	999	"	"T/A"	"62,2/37,8"	"28/17"	45
controllo_3	"POPTR_0006s04960.1"	999	"	"A/T"	"50,5/49,5"	"93/91"	184	stress_45	"POPTR_0006s04960.1"	999	"	"T/A"	"81,2/18,8"	"13/3"	16
controllo_3	"POPTR_0019s14180.1"	1653	"	"C/T"	"50,5/49,5"	"51/50"	101	stress_12bis	"POPTR_0019s14180.1"	1653	"	"C/T"	"64,7/35,3"	"11/6"	17
controllo_3	"POPTR_0019s14180.1"	1653	"	"C/T"	"50,5/49,5"	"51/50"	101	stress_42	"POPTR_0019s14180.1"	1653	"	"C/T"	"50,0/50,0"	"10/10"	20
controllo_3	"POPTR_0019s14180.1"	1653	"	"C/T"	"50,5/49,5"	"51/50"	101	stress_45	"POPTR_0019s14180.1"	1653	"	"T/C"	"58,8/41,2"	"10/7"	17
controllo_3	"POPTR_0013s01930.1"	789	"	"A/G"	"50,5/49,5"	"55/54"	109	stress_12bis	"POPTR_0013s01930.1"	789	"	"A/G"	"56,8/43,2"	"25/19"	44
controllo_3	"POPTR_0013s01930.1"	789	"	"A/G"	"50,5/49,5"	"55/54"	109	stress_42	"POPTR_0013s01930.1"	789	"	"A/G"	"54,5/45,5"	"12/10"	22
controllo_3	"POPTR_0013s01930.1"	789	"	"A/G"	"50,5/49,5"	"55/54"	109	stress_45	"POPTR_0013s01930.1"	789	"	"G/A"	"53,8/46,2"	"7/6"	13
controllo_3	"POPTR_0013s06710.1"	440	"	"G/C"	"50,5/49,5"	"108/106"	214	stress_12bis	"POPTR_0013s06710.1"	440	"	"G/C"	"64,3/35,7"	"36/20"	56
controllo_3	"POPTR_0013s06710.1"	440	"	"G/C"	"50,5/49,5"	"108/106"	214	stress_42	"POPTR_0013s06710.1"	440	"	"C/G"	"54,5/45,5"	"12/10"	22
controllo_3	"POPTR_0013s06710.1"	440	"	"G/C"	"50,5/49,5"	"108/106"	214	stress_45	"POPTR_0013s06710.1"	440	"	"C/G"	"56,4/43,6"	"22/17"	39
controllo_3	"POPTR_0014s02410.1"	929	"	"A/T"	"50,5/49,5"	"368/360"	728	stress_12bis	"POPTR_0014s02410.1"	929	"	"T/A"	"60,7/39,3"	"54/35"	89
controllo_3	"POPTR_0014s02410.1"	929	"	"A/T"	"50,5/49,5"	"368/360"	728	stress_42	"POPTR_0014s02410.1"	929	"	"T/A"	"54,9/45,1"	"79/65"	144
controllo_3	"POPTR_0014s02410.1"	929	"	"A/T"	"50,5/49,5"	"368/360"	728	stress_45	"POPTR_0014s02410.1"	929	"	"A/T"	"54,9/45,1"	"145/119"	264
controllo_3	"POPTR_0014s13430.1"	638	"	"A/G"	"50,5/49,5"	"54/53"	107	stress_12bis	"POPTR_0014s13430.1"	638	"	"A/G"	"62,9/37,1"	"22/13"	35
controllo_3	"POPTR_0014s13430.1"	638	"	"A/G"	"50,5/49,5"	"54/53"	107	stress_45	"POPTR_0014s13430.1"	638	"	"G/A"	"70,0/30,0"	"7/3"	10
controllo_3	"POPTR_0004s16920.1"	132	"	"T/C"	"50,5/49,5"	"3059/2998"	6060	stress_12bis	"POPTR_0004s16920.1"	132	"	"C/T"	"50,0/50,0"	"836/836"	1673
controllo_3	"POPTR_0004s16920.1"	132	"	"T/C"	"50,5/49,5"	"3059/2998"	6060	stress_42	"POPTR_0004s16920.1"	132	"	"C/T"	"63,5/36,5"	"73/42"	115
controllo_3	"POPTR_0004s16920.1"	132	"	"T/C"	"50,5/49,5"	"3059/2998"	6060	stress_45	"POPTR_0004s16920.1"	132	"	"C/T"	"65,0/35,0"	"141/76"	217
controllo_3	"POPTR_0004s14960.1"	2196	"	"C/T"	"50,5/49,5"	"55/54"	109	stress_12bis	"POPTR_0004s14960.1"	2196	"	"C/T"	"62,5/37,5"	"25/15"	40
controllo_3	"POPTR_0004s14960.1"	2196	"	"C/T"	"50,5/49,5"	"55/54"	109	stress_42	"POPTR_0004s14960.1"	2196	"	"C/T"	"64,7/35,3"	"11/6"	17
controllo_3	"POPTR_0004s14960.1"	2196	"	"C/T"	"50,5/49,5"	"55/54"	109	stress_45	"POPTR_0004s14960.1"	2196	"	"T/C"	"60,0/40,0"	"9/6"	15
controllo_3	"POPTR_0009s03440.1"	699	"	"A/G"	"50,5/49,5"	"51/50"	101	stress_12bis	"POPTR_0009s03440.1"	699	"	"G/A"	"61,1/38,9"	"22/14"	36
controllo_3	"POPTR_0009s03440.1"	699	"	"A/G"	"50,5/49,5"	"51/50"	101	stress_42	"POPTR_0009s03440.1"	699	"	"A/G"	"63,6/36,4"	"7/4"	11
controllo_3	"POPTR_0011s02610.1"	852	"	"A/T"	"50,5/49,5"	"101/99"	200	stress_12bis	"POPTR_0011s02610.1"	852	"	"A/T"	"51,4/48,6"	"18/17"	35
controllo_3	"POPTR_0011s02610.1"	852	"	"A/T"	"50,5/49,5"	"101/99"	200	stress_42	"POPTR_0011s02610.1"	852	"	"T/A"	"54,5/45,5"	"6/5"	11
controllo_3	"POPTR_0011s02610.1"	852	"	"A/T"	"50,5/49,5"	"101/99"	200	stress_45	"POPTR_0011s02610.1"	852	"	"A/T"	"50,0/50,0"	"5/5"	10
controllo_3	"POPTR_0015s12460.1"	405	"	"C/T"	"50,5/49,5"	"53/52"	105	stress_12bis	"POPTR_0015s12460.1"	405	"	"T/C"	"52,6/47,4"	"20/18"	38
controllo_3	"POPTR_0015s12460.1"	405	"	"C/T"	"50,5/49,5"	"53/52"	105	stress_42	"POPTR_0015s12460.1"	405	"	"T/C"	"54,2/45,8"	"32/27"	59
controllo_3	"POPTR_0015s12460.1"	405	"	"C/T"	"50,5/49,5"	"53/52"	105	stress_45	"POPTR_0015s12460.1"	405	"	"T/C"	"51,0/49,0"	"53/51"	104
controllo_3	"POPTR_0001s08420.1"	102	"	"C/T"	"50,5/49,5"	"56/55"	111	stress_12bis	"POPTR_0001s08420.1"	102	"	"C/T"	"58,6/41,4"	"17/12"	29
controllo_3	"POPTR_0001s26970.1"	657	"	"A/G"	"50,5/49,5"	"96/94"	190	stress_12bis	"POPTR_0001s26970.1"	657	"	"G/A"	"66,7/33,3"	"42/21"	63
controllo_3	"POPTR_0001s26970.1"	657	"	"A/G"	"50,5/49,5"	"96/94"	190	stress_42	"POPTR_0001s26970.1"	657	"	"A/G"	"63,6/36,4"	"7/4"	11
controllo_3	"POPTR_0001s26970.1"	657	"	"A/G"	"50,5/49,5"	"96/94"	190	stress_45	"POPTR_0001s26970.1"	657	"	"A/G"	"52,9/47,1"	"9/8"	17
controllo_3	"POPTR_0001s40700.1"	153	"	"A/C"	"50,5/49,5"	"106/104"	210	stress_12bis	"POPTR_0001s40700.1"	153	"	"C/A"	"56,8/43,2"	"42/32"	74
controllo_3	"POPTR_0001s40700.1"	153	"	"A/C"	"50,5/49,5"	"106/104"	210	stress_42	"POPTR_0001s40700.1"	153	"	"C/A"	"60,6/39,4"	"20/13"	33
controllo_3	"POPTR_0001s40700.1"	153	"	"A/C"	"50,5/49,5"	"106/104"	210	stress_45	"POPTR_0001s40700.1"	153	"	"C/A"	"61,1/38,9"	"33/21"	54
controllo_3	"POPTR_0001s40700.1"	195	"	"C/T"	"50,5/49,5"	"98/96"	194	stress_12bis	"POPTR_0001s40700.1"	195	"	"C/T"	"62,2/37,8"	"51/31"	82
controllo_3	"POPTR_0001s40700.1"	195	"	"C/T"	"50,5/49,5"	"98/96"	194	stress_42	"POPTR_0001s40700.1"	195	"	"C/T"	"57,1/42,9"	"16/12"	28
controllo_3	"POPTR_0001s40700.1"	195	"	"C/T"	"50,5/49,5"	"98/96"	194	stress_45	"POPTR_0001s40700.1"	195	"	"C/T"	"75,5/24,5"	"40/13"	53
controllo_3	"POPTR_0010s14080.1"	1356	"	"G/A"	"50,5/49,5"	"110/108"	218	stress_12bis	"POPTR_0010s14080.1"	1356	"	"G/A"	"63,3/36,7"	"50/29"	79
controllo_3	"POPTR_0010s14080.1"	1356	"	"G/A"	"50,5/49,5"	"110/108"	218	stress_42	"POPTR_0010s14080.1"	1356	"	"G/A"	"83,3/16,7"	"20/4"	24
controllo_3	"POPTR_0010s14080.1"	1356	"	"G/A"	"50,5/49,5"	"110/108"	218	stress_45	"POPTR_0010s14080.1"	1356	"	"G/A"	"66,7/33,3"	"26/13"	39
controllo_3	"POPTR_0010s18770.1"	856	"	"C/T"	"50,5/49,5"	"184/180"	364	stress_12bis	"POPTR_0010s18770.1"	856	"	"T/C"	"51,9/48,1"	"42/39"	81
controllo_3	"POPTR_0010s18770.1"	856	"	"C/T"	"50,5/49,5"	"184/180"	364	stress_42	"POPTR_0010s18770.1"	856	"	"C/T"	"76,5/23,5"	"13/4"	17
controllo_3	"POPTR_0010s18770.1"	856	"	"C/T"	"50,5/49,5"	"184/180"	364	stress_45	"POPTR_0010s18770.1"	856	"	"C/T"	"50,0/50,0"	"10/10"	20
controllo_3	"POPTR_0002s25810.1"	354	"	"T/C"	"50,5/49,5"	"97/95"	192	stress_12bis	"POPTR_0002s25810.1"	354	"	"C/T"	"52,8/47,2"	"47/42"	89
controllo_3	"POPTR_0002s25810.1"	354	"	"T/C"	"50,5/49,5"	"97/95"	192	stress_42	"POPTR_0002s25810.1"	354	"	"T/C"	"51,4/48,6"	"18/17"	35
controllo_3	"POPTR_0002s25810.1"	354	"	"T/C"	"50,5/49,5"	"97/95"	192	stress_45	"POPTR_0002s25810.1"	354	"	"C/T"	"50,0/50,0"	"21/21"	42
controllo_3	"POPTR_0002s21340.1"	231	"	"T/C"	"50,5/49,5"	"56/55"	111	stress_12bis	"POPTR_0002s21340.1"	231	"	"C/T"	"55,9/44,1"	"19/15"	34
controllo_3	"POPTR_0002s21340.1"	231	"	"T/C"	"50,5/49,5"	"56/55"	111	stress_42	"POPTR_0002s21340.1"	231	"	"C/T"	"64,7/35,3"	"22/12"	34
controllo_3	"POPTR_0002s21340.1"	231	"	"T/C"	"50,5/49,5"	"56/55"	111	stress_45	"POPTR_0002s21340.1"	231	"	"C/T"	"63,5/36,5"	"40/23"	63
controllo_3	"POPTR_0002s01080.1"	42	"	"T/C"	"50,5/49,5"	"383/375"	758	stress_12bis	"POPTR_0002s01080.1"	42	"	"T/C"	"53,8/46,2"	"222/191"	413
controllo_3	"POPTR_0002s01080.1"	42	"	"T/C"	"50,5/49,5"	"383/375"	758	stress_42	"POPTR_0002s01080.1"	42	"	"T/C"	"56,3/43,7"	"85/66"	151
controllo_3	"POPTR_0002s01080.1"	42	"	"T/C"	"50,5/49,5"	"383/375"	758	stress_45	"POPTR_0002s01080.1"	42	"	"C/T"	"50,2/49,8"	"119/118"	237
controllo_3	"POPTR_0008s06640.1"	1332	"	"C/T"	"50,5/49,5"	"51/50"	101	stress_12bis	"POPTR_0008s06640.1"	1332	"	"C/T"	"74,1/25,9"	"20/7"	27
controllo_3	"POPTR_0008s06640.1"	1332	"	"C/T"	"50,5/49,5"	"51/50"	101	stress_42	"POPTR_0008s06640.1"	1332	"	"C/T"	"64,3/35,7"	"9/5"	14
controllo_3	"POPTR_0008s06640.1"	1332	"	"C/T"	"50,5/49,5"	"51/50"	101	stress_45	"POPTR_0008s06640.1"	1332	"	"C/T"	"75,0/25,0"	"15/5"	20
controllo_3	"POPTR_0008s19960.1"	1296	"	"A/T"	"50,5/49,5"	"96/94"	190	stress_12bis	"POPTR_0008s19960.1"	1296	"	"T/A"	"62,5/37,5"	"25/15"	40
controllo_3	"POPTR_0016s14100.1"	749	"	"A/G"	"50,5/49,5"	"101/99"	200	stress_12bis	"POPTR_0016s14100.1"	749	"	"A/G"	"56,4/43,6"	"53/41"	94
controllo_3	"POPTR_0016s14100.1"	749	"	"A/G"	"50,5/49,5"	"101/99"	200	stress_42	"POPTR_0016s14100.1"	749	"	"A/G"	"50,0/50,0"	"6/6"	12
controllo_3	"POPTR_0016s14100.1"	749	"	"A/G"	"50,5/49,5"	"101/99"	200	stress_45	"POPTR_0016s14100.1"	749	"	"G/A"	"66,7/33,3"	"22/11"	33
controllo_3	"POPTR_0016s06620.1"	2052	"	"T/C"	"50,5/49,5"	"51/50"	101	stress_45	"POPTR_0016s06620.1"	2052	"	"C/T"	"55,0/45,0"	"11/9"	20
controllo_3	"POPTR_0016s12100.1"	876	"	"C/T"	"50,5/49,5"	"55/54"	109	stress_12bis	"POPTR_0016s12100.1"	876	"	"C/T"	"71,4/28,6"	"10/4"	14
controllo_3	"POPTR_0012s09570.1"	279	"	"A/C"	"50,6/48,4"	"274/262"	541	stress_12bis	"POPTR_0012s09570.1"	279	"	"C/A"	"59,6/38,2"	"53/34"	89
controllo_3	"POPTR_0012s09570.1"	279	"	"A/C"	"50,6/48,4"	"274/262"	541	stress_42	"POPTR_0012s09570.1"	279	"	"A/C"	"52,2/47,0"	"60/54"	115
controllo_3	"POPTR_0012s09570.1"	279	"	"A/C"	"50,6/48,4"	"274/262"	541	stress_45	"POPTR_0012s09570.1"	279	"	"A/C"	"50,8/49,2"	"101/98"	199
controllo_3	"POPTR_0006s03660.1"	4755	"	"C/T"	"50,6/48,9"	"119/115"	235	stress_12bis	"POPTR_0006s03660.1"	4755	"	"T/C"	"65,1/34,9"	"28/15"	43
controllo_3	"POPTR_0006s03660.1"	4755	"	"C/T"	"50,6/48,9"	"119/115"	235	stress_42	"POPTR_0006s03660.1"	4755	"	"C/T"	"51,4/48,6"	"19/18"	37
controllo_3	"POPTR_0006s03660.1"	4755	"	"C/T"	"50,6/48,9"	"119/115"	235	stress_45	"POPTR_0006s03660.1"	4755	"	"T/C"	"66,2/33,8"	"51/26"	77
controllo_3	"POPTR_0018s11820.1"	651	"	"C/A"	"50,6/49,0"	"242/234"	478	stress_12bis	"POPTR_0018s11820.1"	651	"	"C/A"	"52,1/47,9"	"63/58"	121
controllo_3	"POPTR_0018s11820.1"	651	"	"C/A"	"50,6/49,0"	"242/234"	478	stress_42	"POPTR_0018s11820.1"	651	"	"A/C"	"66,7/33,3"	"14/7"	21
controllo_3	"POPTR_0018s11820.1"	651	"	"C/A"	"50,6/49,0"	"242/234"	478	stress_45	"POPTR_0018s11820.1"	651	"	"A/C"	"72,4/27,6"	"21/8"	29
controllo_3	"POPTR_0004s18190.1"	903	"	"C/T"	"50,6/49,2"	"540/525"	1067	stress_12bis	"POPTR_0004s18190.1"	903	"	"C/T"	"53,7/46,2"	"293/252"	546
controllo_3	"POPTR_0004s18190.1"	903	"	"C/T"	"50,6/49,2"	"540/525"	1067	stress_42	"POPTR_0004s18190.1"	903	"	"C/T"	"59,4/40,6"	"79/54"	133
controllo_3	"POPTR_0004s18190.1"	903	"	"C/T"	"50,6/49,2"	"540/525"	1067	stress_45	"POPTR_0004s18190.1"	903	"	"C/T"	"56,6/43,4"	"73/56"	129
controllo_3	"POPTR_0019s09140.1"	157	"	"G/C"	"50,6/49,3"	"915/890"	1807	stress_12bis	"POPTR_0019s09140.1"	157	"	"C/G"	"57,3/42,7"	"388/289"	677
controllo_3	"POPTR_0019s09140.1"	157	"	"G/C"	"50,6/49,3"	"915/890"	1807	stress_42	"POPTR_0019s09140.1"	157	"	"C/G"	"61,2/38,8"	"109/69"	178
controllo_3	"POPTR_0019s09140.1"	157	"	"G/C"	"50,6/49,3"	"915/890"	1807	stress_45	"POPTR_0019s09140.1"	157	"	"C/G"	"50,8/49,2"	"129/125"	254
controllo_3	"POPTR_0006s10080.1"	1182	"	"G/A"	"50,6/49,4"	"88/86"	174	stress_12bis	"POPTR_0006s10080.1"	1182	"	"G/A"	"53,7/46,3"	"44/38"	82
controllo_3	"POPTR_0006s10080.1"	1182	"	"G/A"	"50,6/49,4"	"88/86"	174	stress_42	"POPTR_0006s10080.1"	1182	"	"A/G"	"51,6/48,4"	"49/46"	95
controllo_3	"POPTR_0006s10080.1"	1182	"	"G/A"	"50,6/49,4"	"88/86"	174	stress_45	"POPTR_0006s10080.1"	1182	"	"A/G"	"58,2/41,8"	"110/79"	189
controllo_3	"POPTR_0006s11570.1"	1116	"	"C/T"	"50,6/49,4"	"136/133"	269	stress_12bis	"POPTR_0006s11570.1"	1116	"	"T/C"	"51,2/48,8"	"43/41"	84
controllo_3	"POPTR_0006s11570.1"	1116	"	"C/T"	"50,6/49,4"	"136/133"	269	stress_42	"POPTR_0006s11570.1"	1116	"	"T/C"	"51,4/48,6"	"57/54"	111
controllo_3	"POPTR_0006s11570.1"	1116	"	"C/T"	"50,6/49,4"	"136/133"	269	stress_45	"POPTR_0006s11570.1"	1116	"	"C/T"	"50,6/49,4"	"79/77"	156
controllo_3	"POPTR_0006s03660.1"	2766	"	"T/C"	"50,6/49,4"	"83/81"	164	stress_12bis	"POPTR_0006s03660.1"	2766	"	"T/C"	"58,8/41,2"	"20/14"	34
controllo_3	"POPTR_0006s03660.1"	2766	"	"T/C"	"50,6/49,4"	"83/81"	164	stress_45	"POPTR_0006s03660.1"	2766	"	"T/C"	"58,1/41,9"	"18/13"	31
controllo_3	"POPTR_0006s03660.1"	3255	"	"C/T"	"50,6/49,4"	"89/87"	176	stress_12bis	"POPTR_0006s03660.1"	3255	"	"T/C"	"57,1/42,9"	"24/18"	42
controllo_3	"POPTR_0006s03660.1"	3255	"	"C/T"	"50,6/49,4"	"89/87"	176	stress_45	"POPTR_0006s03660.1"	3255	"	"T/C"	"59,4/40,6"	"19/13"	32
controllo_3	"POPTR_0006s08710.1"	694	"	"C/T"	"50,6/49,4"	"90/88"	178	stress_12bis	"POPTR_0006s08710.1"	694	"	"C/T"	"51,4/48,6"	"38/36"	74
controllo_3	"POPTR_0006s08710.1"	694	"	"C/T"	"50,6/49,4"	"90/88"	178	stress_42	"POPTR_0006s08710.1"	694	"	"C/T"	"52,6/47,4"	"20/18"	38
controllo_3	"POPTR_0006s08710.1"	694	"	"C/T"	"50,6/49,4"	"90/88"	178	stress_45	"POPTR_0006s08710.1"	694	"	"T/C"	"54,2/45,8"	"26/22"	48
controllo_3	"POPTR_0003s18530.1"	672	"	"T/A"	"50,6/49,4"	"80/78"	158	stress_12bis	"POPTR_0003s18530.1"	672	"	"A/T"	"56,2/43,8"	"36/28"	64
controllo_3	"POPTR_0003s18530.1"	672	"	"T/A"	"50,6/49,4"	"80/78"	158	stress_42	"POPTR_0003s18530.1"	672	"	"A/T"	"63,9/36,1"	"23/13"	36
controllo_3	"POPTR_0003s18530.1"	672	"	"T/A"	"50,6/49,4"	"80/78"	158	stress_45	"POPTR_0003s18530.1"	672	"	"T/A"	"54,0/46,0"	"34/29"	63
controllo_3	"POPTR_0014s01970.1"	250	"	"A/G"	"50,6/49,4"	"39/38"	77	stress_45	"POPTR_0014s01970.1"	250	"	"G/A"	"68,2/31,8"	"73/34"	107
controllo_3	"POPTR_0004s15440.1"	99	"	"G/A"	"50,6/49,4"	"129/126"	255	stress_12bis	"POPTR_0004s15440.1"	99	"	"G/A"	"59,4/40,6"	"19/13"	32
controllo_3	"POPTR_0004s15440.1"	99	"	"G/A"	"50,6/49,4"	"129/126"	255	stress_42	"POPTR_0004s15440.1"	99	"	"A/G"	"66,7/33,3"	"12/6"	18
controllo_3	"POPTR_0004s15440.1"	99	"	"G/A"	"50,6/49,4"	"129/126"	255	stress_45	"POPTR_0004s15440.1"	99	"	"A/G"	"61,5/38,5"	"8/5"	13
controllo_3	"POPTR_0009s05840.1"	168	"	"C/T"	"50,6/49,4"	"83/81"	164	stress_12bis	"POPTR_0009s05840.1"	168	"	"T/C"	"61,5/38,5"	"16/10"	26
controllo_3	"POPTR_0009s05840.1"	168	"	"C/T"	"50,6/49,4"	"83/81"	164	stress_42	"POPTR_0009s05840.1"	168	"	"T/C"	"52,0/48,0"	"26/24"	50
controllo_3	"POPTR_0009s05840.1"	168	"	"C/T"	"50,6/49,4"	"83/81"	164	stress_45	"POPTR_0009s05840.1"	168	"	"T/C"	"54,1/45,9"	"59/50"	109
controllo_3	"POPTR_0009s05840.1"	210	"	"G/A"	"50,6/49,4"	"80/78"	158	stress_12bis	"POPTR_0009s05840.1"	210	"	"A/G"	"72,7/27,3"	"16/6"	22
controllo_3	"POPTR_0009s05840.1"	210	"	"G/A"	"50,6/49,4"	"80/78"	158	stress_42	"POPTR_0009s05840.1"	210	"	"A/G"	"54,4/45,6"	"31/26"	57
controllo_3	"POPTR_0009s05840.1"	210	"	"G/A"	"50,6/49,4"	"80/78"	158	stress_45	"POPTR_0009s05840.1"	210	"	"A/G"	"65,4/34,6"	"83/44"	127
controllo_3	"POPTR_0009s06690.1"	834	"	"A/G"	"50,6/49,4"	"118/115"	233	stress_12bis	"POPTR_0009s06690.1"	834	"	"G/A"	"52,4/47,6"	"33/30"	63
controllo_3	"POPTR_0009s06690.1"	834	"	"A/G"	"50,6/49,4"	"118/115"	233	stress_42	"POPTR_0009s06690.1"	834	"	"A/G"	"60,0/40,0"	"78/52"	130
controllo_3	"POPTR_0009s06690.1"	834	"	"A/G"	"50,6/49,4"	"118/115"	233	stress_45	"POPTR_0009s06690.1"	834	"	"G/A"	"54,7/45,3"	"122/101"	223
controllo_3	"POPTR_0012s11410.1"	155	"	"T/A"	"50,6/49,4"	"91/89"	180	stress_12bis	"POPTR_0012s11410.1"	155	"	"A/T"	"64,9/35,1"	"24/13"	37
controllo_3	"POPTR_0012s11410.1"	155	"	"T/A"	"50,6/49,4"	"91/89"	180	stress_42	"POPTR_0012s11410.1"	155	"	"A/T"	"55,0/45,0"	"11/9"	20
controllo_3	"POPTR_0012s11410.1"	155	"	"T/A"	"50,6/49,4"	"91/89"	180	stress_45	"POPTR_0012s11410.1"	155	"	"A/T"	"59,4/40,6"	"19/13"	32
controllo_3	"POPTR_0011s08940.1"	794	"	"C/G"	"50,6/49,4"	"557/544"	1101	stress_12bis	"POPTR_0011s08940.1"	794	"	"G/C"	"50,8/49,2"	"159/154"	313
controllo_3	"POPTR_0011s08940.1"	794	"	"C/G"	"50,6/49,4"	"557/544"	1101	stress_42	"POPTR_0011s08940.1"	794	"	"C/G"	"64,1/35,9"	"50/28"	78
controllo_3	"POPTR_0011s08940.1"	794	"	"C/G"	"50,6/49,4"	"557/544"	1101	stress_45	"POPTR_0011s08940.1"	794	"	"C/G"	"67,8/32,2"	"103/49"	152
controllo_3	"POPTR_0001s40250.1"	2554	"	"C/G"	"50,6/49,4"	"41/40"	81	stress_45	"POPTR_0001s40250.1"	2554	"	"C/G"	"72,6/27,4"	"122/46"	168
controllo_3	"POPTR_0001s18210.1"	63	"	"T/A"	"50,6/49,4"	"178/174"	352	stress_12bis	"POPTR_0001s18210.1"	63	"	"T/A"	"52,3/46,9"	"67/60"	128
controllo_3	"POPTR_0001s18210.1"	63	"	"T/A"	"50,6/49,4"	"178/174"	352	stress_42	"POPTR_0001s18210.1"	63	"	"T/A"	"65,7/34,3"	"111/58"	169
controllo_3	"POPTR_0001s18210.1"	63	"	"T/A"	"50,6/49,4"	"178/174"	352	stress_45	"POPTR_0001s18210.1"	63	"	"T/A"	"58,0/42,0"	"94/68"	162
controllo_3	"POPTR_0001s08770.1"	1230	"	"A/G"	"50,6/49,4"	"234/228"	462	stress_12bis	"POPTR_0001s08770.1"	1230	"	"A/G"	"68,2/31,8"	"90/42"	132
controllo_3	"POPTR_0001s08770.1"	1230	"	"A/G"	"50,6/49,4"	"234/228"	462	stress_42	"POPTR_0001s08770.1"	1230	"	"A/G"	"55,3/44,7"	"26/21"	47
controllo_3	"POPTR_0001s08770.1"	1230	"	"A/G"	"50,6/49,4"	"234/228"	462	stress_45	"POPTR_0001s08770.1"	1230	"	"A/G"	"53,2/46,8"	"33/29"	62
controllo_3	"POPTR_0010s14080.1"	1036	"	"C/T"	"50,6/49,4"	"117/114"	231	stress_12bis	"POPTR_0010s14080.1"	1036	"	"C/T"	"62,5/36,2"	"50/29"	80
controllo_3	"POPTR_0010s14080.1"	1036	"	"C/T"	"50,6/49,4"	"117/114"	231	stress_42	"POPTR_0010s14080.1"	1036	"	"C/T"	"65,2/34,8"	"15/8"	23
controllo_3	"POPTR_0010s14080.1"	1036	"	"C/T"	"50,6/49,4"	"117/114"	231	stress_45	"POPTR_0010s14080.1"	1036	"	"C/T"	"70,0/30,0"	"28/12"	40
controllo_3	"POPTR_0010s25500.1"	661	"	"A/G"	"50,6/49,4"	"169/165"	334	stress_12bis	"POPTR_0010s25500.1"	661	"	"G/A"	"50,7/49,3"	"38/37"	75
controllo_3	"POPTR_0010s25500.1"	661	"	"A/G"	"50,6/49,4"	"169/165"	334	stress_42	"POPTR_0010s25500.1"	661	"	"A/G"	"55,0/45,0"	"11/9"	20
controllo_3	"POPTR_0010s25500.1"	661	"	"A/G"	"50,6/49,4"	"169/165"	334	stress_45	"POPTR_0010s25500.1"	661	"	"G/A"	"59,4/40,6"	"19/13"	32
controllo_3	"POPTR_0010s18770.1"	113	"	"A/G"	"50,6/49,4"	"136/133"	269	stress_12bis	"POPTR_0010s18770.1"	113	"	"G/A"	"54,9/45,1"	"28/23"	51
controllo_3	"POPTR_0010s18770.1"	113	"	"A/G"	"50,6/49,4"	"136/133"	269	stress_42	"POPTR_0010s18770.1"	113	"	"G/A"	"66,7/33,3"	"8/4"	12
controllo_3	"POPTR_0010s18770.1"	113	"	"A/G"	"50,6/49,4"	"136/133"	269	stress_45	"POPTR_0010s18770.1"	113	"	"A/G"	"73,3/26,7"	"11/4"	15
controllo_3	"POPTR_0007s08390.1"	1380	"	"C/T"	"50,6/49,4"	"123/120"	243	stress_12bis	"POPTR_0007s08390.1"	1380	"	"C/T"	"54,8/45,2"	"46/38"	84
controllo_3	"POPTR_0007s08390.1"	1380	"	"C/T"	"50,6/49,4"	"123/120"	243	stress_42	"POPTR_0007s08390.1"	1380	"	"T/C"	"61,0/39,0"	"50/32"	82
controllo_3	"POPTR_0007s08390.1"	1380	"	"C/T"	"50,6/49,4"	"123/120"	243	stress_45	"POPTR_0007s08390.1"	1380	"	"T/C"	"56,6/43,4"	"116/89"	205
controllo_3	"POPTR_0002s01080.1"	1368	"	"C/T"	"50,6/49,4"	"729/712"	1441	stress_12bis	"POPTR_0002s01080.1"	1368	"	"T/C"	"57,6/42,3"	"447/328"	776
controllo_3	"POPTR_0002s01080.1"	1368	"	"C/T"	"50,6/49,4"	"729/712"	1441	stress_42	"POPTR_0002s01080.1"	1368	"	"T/C"	"54,8/45,2"	"213/176"	389
controllo_3	"POPTR_0002s01080.1"	1368	"	"C/T"	"50,6/49,4"	"729/712"	1441	stress_45	"POPTR_0002s01080.1"	1368	"	"T/C"	"59,4/40,4"	"262/178"	441
controllo_3	"POPTR_0008s10050.1"	61	"	"C/A"	"50,6/49,4"	"85/83"	168	stress_12bis	"POPTR_0008s10050.1"	61	"	"C/A"	"55,6/44,4"	"30/24"	54
controllo_3	"POPTR_0008s10050.1"	61	"	"C/A"	"50,6/49,4"	"85/83"	168	stress_42	"POPTR_0008s10050.1"	61	"	"A/C"	"72,7/27,3"	"8/3"	11
controllo_3	"POPTR_0008s10050.1"	61	"	"C/A"	"50,6/49,4"	"85/83"	168	stress_45	"POPTR_0008s10050.1"	61	"	"A/C"	"50,0/50,0"	"8/8"	16
controllo_3	"POPTR_0016s08520.1"	234	"	"T/C"	"50,6/49,4"	"42/41"	83	stress_45	"POPTR_0016s08520.1"	234	"	"T/C"	"52,0/48,0"	"53/49"	102
controllo_3	"POPTR_0003s13880.1"	225	"	"A/C"	"50,7/48,6"	"73/70"	144	stress_12bis	"POPTR_0003s13880.1"	225	"	"A/C"	"50,8/49,2"	"31/30"	61
controllo_3	"POPTR_0003s13880.1"	225	"	"A/C"	"50,7/48,6"	"73/70"	144	stress_42	"POPTR_0003s13880.1"	225	"	"C/A"	"63,8/36,2"	"111/63"	174
controllo_3	"POPTR_0003s13880.1"	225	"	"A/C"	"50,7/48,6"	"73/70"	144	stress_45	"POPTR_0003s13880.1"	225	"	"C/A"	"57,0/43,0"	"122/92"	214
controllo_3	"POPTR_0006s12910.1"	106	"	"A/T"	"50,7/48,8"	"190/183"	375	stress_12bis	"POPTR_0006s12910.1"	106	"	"A/T"	"50,8/48,3"	"60/57"	118
controllo_3	"POPTR_0006s12910.1"	106	"	"A/T"	"50,7/48,8"	"190/183"	375	stress_42	"POPTR_0006s12910.1"	106	"	"A/T"	"55,7/44,3"	"39/31"	70
controllo_3	"POPTR_0006s12910.1"	106	"	"A/T"	"50,7/48,8"	"190/183"	375	stress_45	"POPTR_0006s12910.1"	106	"	"T/A"	"56,9/42,2"	"62/46"	109
controllo_3	"POPTR_0006s04960.1"	1791	"	"C/T"	"50,7/48,9"	"116/112"	229	stress_12bis	"POPTR_0006s04960.1"	1791	"	"C/T"	"53,4/46,6"	"31/27"	58
controllo_3	"POPTR_0006s04960.1"	1791	"	"C/T"	"50,7/48,9"	"116/112"	229	stress_42	"POPTR_0006s04960.1"	1791	"	"C/T"	"58,3/41,7"	"7/5"	12
controllo_3	"POPTR_0006s04960.1"	1791	"	"C/T"	"50,7/48,9"	"116/112"	229	stress_45	"POPTR_0006s04960.1"	1791	"	"T/C"	"71,4/28,6"	"15/6"	21
controllo_3	"POPTR_0007s10980.1"	1842	"	"A/T"	"50,7/48,9"	"112/108"	221	stress_12bis	"POPTR_0007s10980.1"	1842	"	"T/A"	"58,0/42,0"	"40/29"	69
controllo_3	"POPTR_0007s10980.1"	1842	"	"A/T"	"50,7/48,9"	"112/108"	221	stress_42	"POPTR_0007s10980.1"	1842	"	"T/A"	"68,4/31,6"	"13/6"	19
controllo_3	"POPTR_0007s10980.1"	1842	"	"A/T"	"50,7/48,9"	"112/108"	221	stress_45	"POPTR_0007s10980.1"	1842	"	"T/A"	"54,3/45,7"	"19/16"	35
controllo_3	"POPTR_0006s14400.1"	948	"	"C/T"	"50,7/49,0"	"937/906"	1849	stress_12bis	"POPTR_0006s14400.1"	948	"	"T/C"	"52,6/47,2"	"253/227"	481
controllo_3	"POPTR_0006s14400.1"	948	"	"C/T"	"50,7/49,0"	"937/906"	1849	stress_42	"POPTR_0006s14400.1"	948	"	"C/T"	"78,8/21,0"	"812/217"	1031
controllo_3	"POPTR_0006s14400.1"	948	"	"C/T"	"50,7/49,0"	"937/906"	1849	stress_45	"POPTR_0006s14400.1"	948	"	"C/T"	"80,3/19,2"	"973/233"	1211
controllo_3	"POPTR_0003s19210.1"	159	"	"C/G"	"50,7/49,1"	"215/208"	424	stress_12bis	"POPTR_0003s19210.1"	159	"	"G/C"	"52,8/47,2"	"47/42"	89
controllo_3	"POPTR_0003s19210.1"	159	"	"C/G"	"50,7/49,1"	"215/208"	424	stress_42	"POPTR_0003s19210.1"	159	"	"C/G"	"68,8/31,2"	"11/5"	16
controllo_3	"POPTR_0003s19210.1"	159	"	"C/G"	"50,7/49,1"	"215/208"	424	stress_45	"POPTR_0003s19210.1"	159	"	"C/G"	"54,8/45,2"	"23/19"	42
controllo_3	"POPTR_0009s05240.1"	930	"	"T/A"	"50,7/49,2"	"426/414"	841	stress_12bis	"POPTR_0009s05240.1"	930	"	"T/A"	"59,9/40,1"	"154/103"	257
controllo_3	"POPTR_0009s05240.1"	930	"	"T/A"	"50,7/49,2"	"426/414"	841	stress_42	"POPTR_0009s05240.1"	930	"	"T/A"	"80,6/19,4"	"87/21"	108
controllo_3	"POPTR_0009s05240.1"	930	"	"T/A"	"50,7/49,2"	"426/414"	841	stress_45	"POPTR_0009s05240.1"	930	"	"T/A"	"69,6/30,4"	"78/34"	112
controllo_3	"POPTR_0005s13860.1"	63	"	"C/T"	"50,7/49,3"	"327/318"	645	stress_12bis	"POPTR_0005s13860.1"	63	"	"T/C"	"58,7/41,3"	"91/64"	155
controllo_3	"POPTR_0005s13860.1"	63	"	"C/T"	"50,7/49,3"	"327/318"	645	stress_42	"POPTR_0005s13860.1"	63	"	"T/C"	"56,2/43,8"	"18/14"	32
controllo_3	"POPTR_0005s13860.1"	63	"	"C/T"	"50,7/49,3"	"327/318"	645	stress_45	"POPTR_0005s13860.1"	63	"	"T/C"	"61,5/38,5"	"40/25"	65
controllo_3	"POPTR_0006s04230.1"	325	"	"T/G"	"50,7/49,3"	"72/70"	142	stress_12bis	"POPTR_0006s04230.1"	325	"	"G/T"	"58,2/41,8"	"57/41"	98
controllo_3	"POPTR_0006s04230.1"	325	"	"T/G"	"50,7/49,3"	"72/70"	142	stress_42	"POPTR_0006s04230.1"	325	"	"T/G"	"54,8/45,2"	"17/14"	31
controllo_3	"POPTR_0006s04230.1"	325	"	"T/G"	"50,7/49,3"	"72/70"	142	stress_45	"POPTR_0006s04230.1"	325	"	"T/G"	"53,3/46,7"	"24/21"	45
controllo_3	"POPTR_0003s11300.1"	1944	"	"C/T"	"50,7/49,3"	"184/179"	363	stress_12bis	"POPTR_0003s11300.1"	1944	"	"C/T"	"58,2/41,8"	"71/51"	122
controllo_3	"POPTR_0003s11300.1"	1944	"	"C/T"	"50,7/49,3"	"184/179"	363	stress_42	"POPTR_0003s11300.1"	1944	"	"C/T"	"62,5/37,5"	"15/9"	24
controllo_3	"POPTR_0003s11300.1"	1944	"	"C/T"	"50,7/49,3"	"184/179"	363	stress_45	"POPTR_0003s11300.1"	1944	"	"C/T"	"55,6/44,4"	"25/20"	45
controllo_3	"POPTR_0013s09550.1"	71	"	"A/G"	"50,7/49,3"	"77/75"	152	stress_12bis	"POPTR_0013s09550.1"	71	"	"G/A"	"58,5/41,5"	"24/17"	41
controllo_3	"POPTR_0013s09550.1"	71	"	"A/G"	"50,7/49,3"	"77/75"	152	stress_42	"POPTR_0013s09550.1"	71	"	"A/G"	"71,4/28,6"	"10/4"	14
controllo_3	"POPTR_0013s01080.1"	1449	"	"C/T"	"50,7/49,3"	"69/67"	136	stress_12bis	"POPTR_0013s01080.1"	1449	"	"C/T"	"53,4/46,6"	"31/27"	58
controllo_3	"POPTR_0013s01080.1"	1449	"	"C/T"	"50,7/49,3"	"69/67"	136	stress_42	"POPTR_0013s01080.1"	1449	"	"T/C"	"65,2/34,8"	"15/8"	23
controllo_3	"POPTR_0013s01080.1"	1449	"	"C/T"	"50,7/49,3"	"69/67"	136	stress_45	"POPTR_0013s01080.1"	1449	"	"T/C"	"53,3/46,7"	"16/14"	30
controllo_3	"POPTR_0014s02550.1"	441	"	"G/T"	"50,7/49,3"	"75/73"	148	stress_12bis	"POPTR_0014s02550.1"	441	"	"T/G"	"60,4/39,6"	"29/19"	48
controllo_3	"POPTR_0014s02550.1"	441	"	"G/T"	"50,7/49,3"	"75/73"	148	stress_42	"POPTR_0014s02550.1"	441	"	"T/G"	"51,6/48,4"	"16/15"	31
controllo_3	"POPTR_0014s02550.1"	441	"	"G/T"	"50,7/49,3"	"75/73"	148	stress_45	"POPTR_0014s02550.1"	441	"	"G/T"	"54,4/45,6"	"43/36"	79
controllo_3	"POPTR_0014s10260.1"	1872	"	"A/G"	"50,7/49,3"	"112/109"	221	stress_12bis	"POPTR_0014s10260.1"	1872	"	"G/A"	"52,7/47,3"	"29/26"	55
controllo_3	"POPTR_0014s10260.1"	1872	"	"A/G"	"50,7/49,3"	"112/109"	221	stress_42	"POPTR_0014s10260.1"	1872	"	"A/G"	"60,0/38,5"	"39/25"	65
controllo_3	"POPTR_0014s10260.1"	1872	"	"A/G"	"50,7/49,3"	"112/109"	221	stress_45	"POPTR_0014s10260.1"	1872	"	"A/G"	"52,5/47,5"	"32/29"	61
controllo_3	"POPTR_0014s17280.1"	612	"	"A/G"	"50,7/49,3"	"72/70"	142	stress_12bis	"POPTR_0014s17280.1"	612	"	"G/A"	"54,5/45,5"	"18/15"	33
controllo_3	"POPTR_0014s17280.1"	612	"	"A/G"	"50,7/49,3"	"72/70"	142	stress_42	"POPTR_0014s17280.1"	612	"	"A/G"	"58,7/39,7"	"37/25"	63
controllo_3	"POPTR_0014s17280.1"	612	"	"A/G"	"50,7/49,3"	"72/70"	142	stress_45	"POPTR_0014s17280.1"	612	"	"A/G"	"58,3/41,7"	"35/25"	60
controllo_3	"POPTR_0009s15140.1"	312	"	"C/T"	"50,7/49,3"	"70/68"	138	stress_12bis	"POPTR_0009s15140.1"	312	"	"C/T"	"71,1/28,9"	"32/13"	45
controllo_3	"POPTR_0009s15140.1"	312	"	"C/T"	"50,7/49,3"	"70/68"	138	stress_42	"POPTR_0009s15140.1"	312	"	"C/T"	"54,9/45,1"	"39/32"	71
controllo_3	"POPTR_0009s15140.1"	312	"	"C/T"	"50,7/49,3"	"70/68"	138	stress_45	"POPTR_0009s15140.1"	312	"	"C/T"	"50,0/50,0"	"40/40"	80
controllo_3	"POPTR_0009s01470.1"	171	"	"A/G"	"50,7/49,3"	"74/72"	146	stress_12bis	"POPTR_0009s01470.1"	171	"	"A/G"	"55,8/44,2"	"29/23"	52
controllo_3	"POPTR_0009s01470.1"	171	"	"A/G"	"50,7/49,3"	"74/72"	146	stress_42	"POPTR_0009s01470.1"	171	"	"G/A"	"63,6/36,4"	"7/4"	11
controllo_3	"POPTR_0009s01470.1"	171	"	"A/G"	"50,7/49,3"	"74/72"	146	stress_45	"POPTR_0009s01470.1"	171	"	"A/G"	"65,3/34,7"	"32/17"	49
controllo_3	"POPTR_0011s12440.1"	44	"	"T/C"	"50,7/49,3"	"110/107"	217	stress_12bis	"POPTR_0011s12440.1"	44	"	"T/C"	"60,8/39,2"	"59/38"	97
controllo_3	"POPTR_0011s12440.1"	44	"	"T/C"	"50,7/49,3"	"110/107"	217	stress_42	"POPTR_0011s12440.1"	44	"	"C/T"	"50,0/50,0"	"9/9"	18
controllo_3	"POPTR_0011s12440.1"	44	"	"T/C"	"50,7/49,3"	"110/107"	217	stress_45	"POPTR_0011s12440.1"	44	"	"T/C"	"70,6/29,4"	"24/10"	34
controllo_3	"POPTR_0001s26410.1"	171	"	"T/C"	"50,7/49,3"	"175/170"	345	stress_12bis	"POPTR_0001s26410.1"	171	"	"T/C"	"52,1/47,9"	"38/35"	73
controllo_3	"POPTR_0001s26410.1"	171	"	"T/C"	"50,7/49,3"	"175/170"	345	stress_42	"POPTR_0001s26410.1"	171	"	"C/T"	"72,0/28,0"	"18/7"	25
controllo_3	"POPTR_0001s26970.1"	450	"	"A/G"	"50,7/49,3"	"109/106"	215	stress_12bis	"POPTR_0001s26970.1"	450	"	"A/G"	"50,5/49,5"	"47/46"	93
controllo_3	"POPTR_0001s26970.1"	450	"	"A/G"	"50,7/49,3"	"109/106"	215	stress_42	"POPTR_0001s26970.1"	450	"	"A/G"	"50,0/50,0"	"8/8"	16
controllo_3	"POPTR_0001s26970.1"	450	"	"A/G"	"50,7/49,3"	"109/106"	215	stress_45	"POPTR_0001s26970.1"	450	"	"A/G"	"60,0/40,0"	"15/10"	25
controllo_3	"POPTR_0001s34410.1"	101	"	"C/G"	"50,7/49,3"	"69/67"	136	stress_12bis	"POPTR_0001s34410.1"	101	"	"G/C"	"57,6/42,4"	"19/14"	33
controllo_3	"POPTR_0001s34410.1"	101	"	"C/G"	"50,7/49,3"	"69/67"	136	stress_42	"POPTR_0001s34410.1"	101	"	"G/C"	"52,9/47,1"	"9/8"	17
controllo_3	"POPTR_0001s34410.1"	101	"	"C/G"	"50,7/49,3"	"69/67"	136	stress_45	"POPTR_0001s34410.1"	101	"	"C/G"	"63,6/36,4"	"14/8"	22
controllo_3	"POPTR_0010s19860.1"	405	"	"A/C"	"50,7/49,3"	"70/68"	138	stress_12bis	"POPTR_0010s19860.1"	405	"	"A/C"	"57,1/41,1"	"32/23"	56
controllo_3	"POPTR_0010s19860.1"	405	"	"A/C"	"50,7/49,3"	"70/68"	138	stress_42	"POPTR_0010s19860.1"	405	"	"A/C"	"54,1/44,3"	"33/27"	61
controllo_3	"POPTR_0010s19860.1"	405	"	"A/C"	"50,7/49,3"	"70/68"	138	stress_45	"POPTR_0010s19860.1"	405	"	"A/C"	"56,3/43,7"	"80/62"	142
controllo_3	"POPTR_0010s13740.1"	271	"	"A/C"	"50,7/49,3"	"77/75"	152	stress_12bis	"POPTR_0010s13740.1"	271	"	"A/C"	"63,6/36,4"	"28/16"	44
controllo_3	"POPTR_0010s13740.1"	271	"	"A/C"	"50,7/49,3"	"77/75"	152	stress_42	"POPTR_0010s13740.1"	271	"	"C/A"	"60,0/40,0"	"6/4"	10
controllo_3	"POPTR_0010s13740.1"	271	"	"A/C"	"50,7/49,3"	"77/75"	152	stress_45	"POPTR_0010s13740.1"	271	"	"C/A"	"70,0/30,0"	"7/3"	10
controllo_3	"POPTR_0007s10980.1"	750	"	"G/A"	"50,7/49,3"	"112/109"	221	stress_12bis	"POPTR_0007s10980.1"	750	"	"G/A"	"62,3/37,7"	"48/29"	77
controllo_3	"POPTR_0007s10980.1"	750	"	"G/A"	"50,7/49,3"	"112/109"	221	stress_42	"POPTR_0007s10980.1"	750	"	"A/G"	"54,5/45,5"	"6/5"	11
controllo_3	"POPTR_0007s10980.1"	750	"	"G/A"	"50,7/49,3"	"112/109"	221	stress_45	"POPTR_0007s10980.1"	750	"	"A/G"	"60,7/39,3"	"17/11"	28
controllo_3	"POPTR_0007s10980.1"	1543	"	"T/C"	"50,7/49,3"	"104/101"	205	stress_12bis	"POPTR_0007s10980.1"	1543	"	"T/C"	"65,3/34,7"	"32/17"	49
controllo_3	"POPTR_0007s10980.1"	1543	"	"T/C"	"50,7/49,3"	"104/101"	205	stress_42	"POPTR_0007s10980.1"	1543	"	"C/T"	"53,3/46,7"	"8/7"	15
controllo_3	"POPTR_0007s10980.1"	1543	"	"T/C"	"50,7/49,3"	"104/101"	205	stress_45	"POPTR_0007s10980.1"	1543	"	"T/C"	"77,8/22,2"	"21/6"	27
controllo_3	"POPTR_0002s14730.1"	1356	"	"T/C"	"50,7/49,3"	"368/358"	726	stress_12bis	"POPTR_0002s14730.1"	1356	"	"T/C"	"52,8/47,2"	"95/85"	180
controllo_3	"POPTR_0002s14730.1"	1356	"	"T/C"	"50,7/49,3"	"368/358"	726	stress_42	"POPTR_0002s14730.1"	1356	"	"T/C"	"52,6/47,4"	"20/18"	38
controllo_3	"POPTR_0002s14730.1"	1356	"	"T/C"	"50,7/49,3"	"368/358"	726	stress_45	"POPTR_0002s14730.1"	1356	"	"T/C"	"68,1/31,9"	"49/23"	72
controllo_3	"POPTR_0002s08010.1"	172	"	"G/A"	"50,7/49,3"	"108/105"	213	stress_12bis	"POPTR_0002s08010.1"	172	"	"A/G"	"64,2/35,8"	"34/19"	53
controllo_3	"POPTR_0002s08010.1"	172	"	"G/A"	"50,7/49,3"	"108/105"	213	stress_45	"POPTR_0002s08010.1"	172	"	"A/G"	"64,7/35,3"	"11/6"	17
controllo_3	"POPTR_0008s10020.1"	351	"	"A/G"	"50,7/49,3"	"112/109"	221	stress_12bis	"POPTR_0008s10020.1"	351	"	"G/A"	"61,2/38,8"	"30/19"	49
controllo_3	"POPTR_0008s10020.1"	351	"	"A/G"	"50,7/49,3"	"112/109"	221	stress_42	"POPTR_0008s10020.1"	351	"	"G/A"	"81,5/18,5"	"22/5"	27
controllo_3	"POPTR_0008s10020.1"	351	"	"A/G"	"50,7/49,3"	"112/109"	221	stress_45	"POPTR_0008s10020.1"	351	"	"G/A"	"60,0/40,0"	"27/18"	45
controllo_3	"POPTR_0008s12550.1"	1335	"	"G/C"	"50,7/49,3"	"74/72"	146	stress_12bis	"POPTR_0008s12550.1"	1335	"	"C/G"	"54,1/45,9"	"20/17"	37
controllo_3	"POPTR_0008s12550.1"	1335	"	"G/C"	"50,7/49,3"	"74/72"	146	stress_42	"POPTR_0008s12550.1"	1335	"	"C/G"	"50,0/50,0"	"57/57"	114
controllo_3	"POPTR_0008s12550.1"	1335	"	"G/C"	"50,7/49,3"	"74/72"	146	stress_45	"POPTR_0008s12550.1"	1335	"	"G/C"	"53,5/46,5"	"84/73"	157
controllo_3	"POPTR_0016s14100.1"	876	"	"A/T"	"50,7/49,3"	"70/68"	138	stress_12bis	"POPTR_0016s14100.1"	876	"	"T/A"	"57,4/42,6"	"35/26"	61
controllo_3	"POPTR_0016s14100.1"	876	"	"A/T"	"50,7/49,3"	"70/68"	138	stress_45	"POPTR_0016s14100.1"	876	"	"T/A"	"68,4/31,6"	"13/6"	19
controllo_3	"POPTR_0012s03610.1"	447	"	"C/A"	"50,8/48,1"	"95/90"	187	stress_12bis	"POPTR_0012s03610.1"	447	"	"C/A"	"50,6/48,1"	"40/38"	79
controllo_3	"POPTR_0012s03610.1"	447	"	"C/A"	"50,8/48,1"	"95/90"	187	stress_42	"POPTR_0012s03610.1"	447	"	"C/A"	"73,3/26,7"	"11/4"	15
controllo_3	"POPTR_0012s03610.1"	447	"	"C/A"	"50,8/48,1"	"95/90"	187	stress_45	"POPTR_0012s03610.1"	447	"	"A/C"	"57,7/42,3"	"15/11"	26
controllo_3	"POPTR_0006s24570.1"	2403	"	"T/C"	"50,8/48,9"	"1153/1109"	2270	stress_12bis	"POPTR_0006s24570.1"	2403	"	"T/C"	"50,0/49,7"	"340/338"	680
controllo_3	"POPTR_0006s24570.1"	2403	"	"T/C"	"50,8/48,9"	"1153/1109"	2270	stress_42	"POPTR_0006s24570.1"	2403	"	"C/T"	"54,0/46,0"	"27/23"	50
controllo_3	"POPTR_0006s24570.1"	2403	"	"T/C"	"50,8/48,9"	"1153/1109"	2270	stress_45	"POPTR_0006s24570.1"	2403	"	"C/T"	"53,5/45,3"	"46/39"	86
controllo_3	"POPTR_0006s10040.1"	235	"	"T/C"	"50,8/48,9"	"168/162"	331	stress_12bis	"POPTR_0006s10040.1"	235	"	"C/T"	"51,0/49,0"	"125/120"	245
controllo_3	"POPTR_0006s10040.1"	235	"	"T/C"	"50,8/48,9"	"168/162"	331	stress_42	"POPTR_0006s10040.1"	235	"	"T/C"	"52,5/47,5"	"42/38"	80
controllo_3	"POPTR_0006s10040.1"	235	"	"T/C"	"50,8/48,9"	"168/162"	331	stress_45	"POPTR_0006s10040.1"	235	"	"T/C"	"59,5/40,5"	"47/32"	79
controllo_3	"POPTR_0004s03160.1"	423	"	"A/T"	"50,8/48,9"	"464/447"	914	stress_12bis	"POPTR_0004s03160.1"	423	"	"T/A"	"60,5/38,2"	"133/84"	220
controllo_3	"POPTR_0004s03160.1"	423	"	"A/T"	"50,8/48,9"	"464/447"	914	stress_42	"POPTR_0004s03160.1"	423	"	"T/A"	"73,7/26,3"	"28/10"	38
controllo_3	"POPTR_0004s03160.1"	423	"	"A/T"	"50,8/48,9"	"464/447"	914	stress_45	"POPTR_0004s03160.1"	423	"	"T/A"	"70,8/29,2"	"17/7"	24
controllo_3	"POPTR_0013s00760.1"	281	"	"A/C"	"50,8/49,0"	"308/297"	606	stress_12bis	"POPTR_0013s00760.1"	281	"	"A/C"	"62,0/38,0"	"101/62"	163
controllo_3	"POPTR_0013s00760.1"	281	"	"A/C"	"50,8/49,0"	"308/297"	606	stress_42	"POPTR_0013s00760.1"	281	"	"A/C"	"60,0/40,0"	"21/14"	35
controllo_3	"POPTR_0013s00760.1"	281	"	"A/C"	"50,8/49,0"	"308/297"	606	stress_45	"POPTR_0013s00760.1"	281	"	"C/A"	"54,7/45,3"	"29/24"	53
controllo_3	"POPTR_0005s26740.1"	300	"	"T/C"	"50,8/49,2"	"578/559"	1137	stress_12bis	"POPTR_0005s26740.1"	300	"	"C/T"	"60,5/39,5"	"188/123"	311
controllo_3	"POPTR_0005s26740.1"	300	"	"T/C"	"50,8/49,2"	"578/559"	1137	stress_42	"POPTR_0005s26740.1"	300	"	"C/T"	"64,9/35,1"	"135/73"	208
controllo_3	"POPTR_0005s26740.1"	300	"	"T/C"	"50,8/49,2"	"578/559"	1137	stress_45	"POPTR_0005s26740.1"	300	"	"C/T"	"57,3/42,7"	"122/91"	213
controllo_3	"POPTR_0005s00240.1"	2237	"	"T/C"	"50,8/49,2"	"66/64"	130	stress_12bis	"POPTR_0005s00240.1"	2237	"	"T/C"	"59,0/41,0"	"36/25"	61
controllo_3	"POPTR_0005s00240.1"	2237	"	"T/C"	"50,8/49,2"	"66/64"	130	stress_42	"POPTR_0005s00240.1"	2237	"	"T/C"	"54,8/45,2"	"17/14"	31
controllo_3	"POPTR_0005s00240.1"	2237	"	"T/C"	"50,8/49,2"	"66/64"	130	stress_45	"POPTR_0005s00240.1"	2237	"	"T/C"	"64,1/35,9"	"25/14"	39
controllo_3	"POPTR_0005s24650.1"	921	"	"A/G"	"50,8/49,2"	"62/60"	122	stress_12bis	"POPTR_0005s24650.1"	921	"	"A/G"	"58,5/41,5"	"24/17"	41
controllo_3	"POPTR_0005s24650.1"	921	"	"A/G"	"50,8/49,2"	"62/60"	122	stress_42	"POPTR_0005s24650.1"	921	"	"A/G"	"54,8/45,2"	"17/14"	31
controllo_3	"POPTR_0005s24650.1"	921	"	"A/G"	"50,8/49,2"	"62/60"	122	stress_45	"POPTR_0005s24650.1"	921	"	"A/G"	"61,8/38,2"	"34/21"	55
controllo_3	"POPTR_0017s01760.1"	510	"	"T/G"	"50,8/49,2"	"64/62"	126	stress_12bis	"POPTR_0017s01760.1"	510	"	"G/T"	"50,0/50,0"	"15/15"	30
controllo_3	"POPTR_0017s01760.1"	510	"	"T/G"	"50,8/49,2"	"64/62"	126	stress_42	"POPTR_0017s01760.1"	510	"	"T/G"	"67,4/32,6"	"29/14"	43
controllo_3	"POPTR_0017s01760.1"	510	"	"T/G"	"50,8/49,2"	"64/62"	126	stress_45	"POPTR_0017s01760.1"	510	"	"T/G"	"60,7/39,3"	"37/24"	61
controllo_3	"POPTR_0006s04960.1"	294	"	"C/T"	"50,8/49,2"	"126/122"	248	stress_12bis	"POPTR_0006s04960.1"	294	"	"C/T"	"52,1/47,9"	"25/23"	48
controllo_3	"POPTR_0006s04960.1"	294	"	"C/T"	"50,8/49,2"	"126/122"	248	stress_45	"POPTR_0006s04960.1"	294	"	"T/C"	"52,6/47,4"	"10/9"	19
controllo_3	"POPTR_0006s04960.1"	1212	"	"G/A"	"50,8/49,2"	"125/121"	246	stress_12bis	"POPTR_0006s04960.1"	1212	"	"A/G"	"50,0/50,0"	"24/24"	48
controllo_3	"POPTR_0006s04960.1"	1212	"	"G/A"	"50,8/49,2"	"125/121"	246	stress_45	"POPTR_0006s04960.1"	1212	"	"A/G"	"50,0/50,0"	"14/14"	28
controllo_3	"POPTR_0006s27170.1"	381	"	"T/C"	"50,8/49,2"	"583/565"	1148	stress_12bis	"POPTR_0006s27170.1"	381	"	"C/T"	"51,7/48,3"	"178/166"	344
controllo_3	"POPTR_0006s27170.1"	381	"	"T/C"	"50,8/49,2"	"583/565"	1148	stress_42	"POPTR_0006s27170.1"	381	"	"C/T"	"63,6/36,4"	"21/12"	33
controllo_3	"POPTR_0006s27170.1"	381	"	"T/C"	"50,8/49,2"	"583/565"	1148	stress_45	"POPTR_0006s27170.1"	381	"	"C/T"	"53,5/46,5"	"38/33"	71
controllo_3	"POPTR_0018s08790.1"	1014	"	"T/C"	"50,8/49,2"	"65/63"	128	stress_12bis	"POPTR_0018s08790.1"	1014	"	"C/T"	"52,6/47,4"	"20/18"	38
controllo_3	"POPTR_0018s08790.1"	1014	"	"T/C"	"50,8/49,2"	"65/63"	128	stress_42	"POPTR_0018s08790.1"	1014	"	"C/T"	"63,6/36,4"	"21/12"	33
controllo_3	"POPTR_0018s08790.1"	1014	"	"T/C"	"50,8/49,2"	"65/63"	128	stress_45	"POPTR_0018s08790.1"	1014	"	"C/T"	"62,5/37,5"	"20/12"	32
controllo_3	"POPTR_0018s11170.1"	217	"	"T/A"	"50,8/49,2"	"127/123"	250	stress_12bis	"POPTR_0018s11170.1"	217	"	"T/A"	"58,1/41,9"	"25/18"	43
controllo_3	"POPTR_0018s11170.1"	217	"	"T/A"	"50,8/49,2"	"127/123"	250	stress_42	"POPTR_0018s11170.1"	217	"	"A/T"	"53,8/46,2"	"7/6"	13
controllo_3	"POPTR_0018s11170.1"	217	"	"T/A"	"50,8/49,2"	"127/123"	250	stress_45	"POPTR_0018s11170.1"	217	"	"T/A"	"56,2/43,8"	"9/7"	16
controllo_3	"POPTR_0003s18530.1"	658	"	"G/A"	"50,8/49,2"	"98/95"	193	stress_12bis	"POPTR_0003s18530.1"	658	"	"G/A"	"56,7/43,3"	"38/29"	67
controllo_3	"POPTR_0003s18530.1"	658	"	"G/A"	"50,8/49,2"	"98/95"	193	stress_42	"POPTR_0003s18530.1"	658	"	"G/A"	"64,3/35,7"	"27/15"	42
controllo_3	"POPTR_0003s18530.1"	658	"	"G/A"	"50,8/49,2"	"98/95"	193	stress_45	"POPTR_0003s18530.1"	658	"	"G/A"	"52,4/47,6"	"44/40"	84
controllo_3	"POPTR_0003s09830.1"	894	"	"T/C"	"50,8/49,2"	"258/250"	508	stress_12bis	"POPTR_0003s09830.1"	894	"	"C/T"	"51,0/49,0"	"52/50"	102
controllo_3	"POPTR_0003s09830.1"	894	"	"T/C"	"50,8/49,2"	"258/250"	508	stress_42	"POPTR_0003s09830.1"	894	"	"T/C"	"61,5/38,5"	"16/10"	26
controllo_3	"POPTR_0003s09830.1"	894	"	"T/C"	"50,8/49,2"	"258/250"	508	stress_45	"POPTR_0003s09830.1"	894	"	"C/T"	"50,0/50,0"	"10/10"	20
controllo_3	"POPTR_0019s11720.1"	654	"	"G/A"	"50,8/49,2"	"253/245"	498	stress_12bis	"POPTR_0019s11720.1"	654	"	"G/A"	"57,1/42,9"	"56/42"	98
controllo_3	"POPTR_0019s11720.1"	654	"	"G/A"	"50,8/49,2"	"253/245"	498	stress_42	"POPTR_0019s11720.1"	654	"	"A/G"	"53,6/46,4"	"15/13"	28
controllo_3	"POPTR_0019s11720.1"	654	"	"G/A"	"50,8/49,2"	"253/245"	498	stress_45	"POPTR_0019s11720.1"	654	"	"A/G"	"61,4/38,6"	"27/17"	44
controllo_3	"POPTR_0013s07150.1"	718	"	"A/G"	"50,8/49,2"	"60/58"	118	stress_12bis	"POPTR_0013s07150.1"	718	"	"G/A"	"55,0/45,0"	"22/18"	40
controllo_3	"POPTR_0013s07150.1"	718	"	"A/G"	"50,8/49,2"	"60/58"	118	stress_42	"POPTR_0013s07150.1"	718	"	"A/G"	"53,3/46,7"	"8/7"	15
controllo_3	"POPTR_0013s07150.1"	718	"	"A/G"	"50,8/49,2"	"60/58"	118	stress_45	"POPTR_0013s07150.1"	718	"	"A/G"	"62,5/37,5"	"10/6"	16
controllo_3	"POPTR_0013s04210.1"	787	"	"G/A"	"50,8/49,2"	"64/62"	126	stress_12bis	"POPTR_0013s04210.1"	787	"	"G/A"	"64,3/35,7"	"18/10"	28
controllo_3	"POPTR_0013s04210.1"	787	"	"G/A"	"50,8/49,2"	"64/62"	126	stress_42	"POPTR_0013s04210.1"	787	"	"A/G"	"68,4/31,6"	"13/6"	19
controllo_3	"POPTR_0013s04210.1"	787	"	"G/A"	"50,8/49,2"	"64/62"	126	stress_45	"POPTR_0013s04210.1"	787	"	"G/A"	"58,3/41,7"	"14/10"	24
controllo_3	"POPTR_0014s10200.1"	355	"	"A/G"	"50,8/49,2"	"503/488"	991	stress_12bis	"POPTR_0014s10200.1"	355	"	"G/A"	"53,0/47,0"	"184/163"	347
controllo_3	"POPTR_0014s10200.1"	355	"	"A/G"	"50,8/49,2"	"503/488"	991	stress_42	"POPTR_0014s10200.1"	355	"	"G/A"	"56,7/43,3"	"55/42"	97
controllo_3	"POPTR_0014s10200.1"	355	"	"A/G"	"50,8/49,2"	"503/488"	991	stress_45	"POPTR_0014s10200.1"	355	"	"G/A"	"60,0/40,0"	"48/32"	80
controllo_3	"POPTR_0004s17020.1"	702	"	"A/G"	"50,8/49,2"	"66/64"	130	stress_12bis	"POPTR_0004s17020.1"	702	"	"G/A"	"57,6/42,4"	"57/42"	99
controllo_3	"POPTR_0004s17020.1"	702	"	"A/G"	"50,8/49,2"	"66/64"	130	stress_42	"POPTR_0004s17020.1"	702	"	"G/A"	"75,8/24,2"	"69/22"	91
controllo_3	"POPTR_0004s17020.1"	702	"	"A/G"	"50,8/49,2"	"66/64"	130	stress_45	"POPTR_0004s17020.1"	702	"	"G/A"	"66,2/33,8"	"102/52"	154
controllo_3	"POPTR_0009s06720.1"	235	"	"T/G"	"50,8/49,2"	"90/87"	177	stress_12bis	"POPTR_0009s06720.1"	235	"	"T/G"	"50,0/47,5"	"20/19"	40
controllo_3	"POPTR_0009s06720.1"	235	"	"T/G"	"50,8/49,2"	"90/87"	177	stress_42	"POPTR_0009s06720.1"	235	"	"G/T"	"56,2/43,8"	"9/7"	16
controllo_3	"POPTR_0009s06720.1"	235	"	"T/G"	"50,8/49,2"	"90/87"	177	stress_45	"POPTR_0009s06720.1"	235	"	"G/T"	"66,7/33,3"	"12/6"	18
controllo_3	"POPTR_0009s05240.1"	60	"	"C/T"	"50,8/49,2"	"369/357"	726	stress_12bis	"POPTR_0009s05240.1"	60	"	"C/T"	"59,3/40,7"	"115/79"	194
controllo_3	"POPTR_0009s05240.1"	60	"	"C/T"	"50,8/49,2"	"369/357"	726	stress_45	"POPTR_0009s05240.1"	60	"	"C/T"	"79,8/20,2"	"75/19"	94
controllo_3	"POPTR_0011s05670.1"	1115	"	"A/G"	"50,8/49,2"	"153/148"	301	stress_12bis	"POPTR_0011s05670.1"	1115	"	"A/G"	"51,3/48,7"	"39/37"	76
controllo_3	"POPTR_0011s05670.1"	1115	"	"A/G"	"50,8/49,2"	"153/148"	301	stress_42	"POPTR_0011s05670.1"	1115	"	"G/A"	"50,9/49,1"	"29/28"	57
controllo_3	"POPTR_0011s05670.1"	1115	"	"A/G"	"50,8/49,2"	"153/148"	301	stress_45	"POPTR_0011s05670.1"	1115	"	"G/A"	"50,6/49,4"	"39/38"	77
controllo_3	"POPTR_0015s09000.1"	231	"	"G/T"	"50,8/49,2"	"31/30"	61	stress_42	"POPTR_0015s09000.1"	231	"	"T/G"	"72,7/27,3"	"88/33"	121
controllo_3	"POPTR_0001s44870.1"	621	"	"T/C"	"50,8/49,2"	"129/125"	254	stress_12bis	"POPTR_0001s44870.1"	621	"	"T/C"	"67,3/32,7"	"37/18"	55
controllo_3	"POPTR_0001s44870.1"	621	"	"T/C"	"50,8/49,2"	"129/125"	254	stress_42	"POPTR_0001s44870.1"	621	"	"T/C"	"67,5/32,5"	"27/13"	40
controllo_3	"POPTR_0001s44870.1"	621	"	"T/C"	"50,8/49,2"	"129/125"	254	stress_45	"POPTR_0001s44870.1"	621	"	"T/C"	"60,0/40,0"	"24/16"	40
controllo_3	"POPTR_0001s47020.1"	33	"	"T/C"	"50,8/49,2"	"64/62"	126	stress_12bis	"POPTR_0001s47020.1"	33	"	"C/T"	"67,5/32,5"	"27/13"	40
controllo_3	"POPTR_0001s47020.1"	33	"	"T/C"	"50,8/49,2"	"64/62"	126	stress_42	"POPTR_0001s47020.1"	33	"	"T/C"	"81,8/18,2"	"18/4"	22
controllo_3	"POPTR_0001s47020.1"	33	"	"T/C"	"50,8/49,2"	"64/62"	126	stress_45	"POPTR_0001s47020.1"	33	"	"C/T"	"65,4/34,6"	"34/18"	52
controllo_3	"POPTR_0001s02770.1"	240	"	"G/A"	"50,8/49,2"	"99/96"	195	stress_12bis	"POPTR_0001s02770.1"	240	"	"A/G"	"51,4/48,6"	"18/17"	35
controllo_3	"POPTR_0001s29350.1"	399	"	"C/T"	"50,8/49,2"	"66/64"	130	stress_12bis	"POPTR_0001s29350.1"	399	"	"C/T"	"66,7/33,3"	"26/13"	39
controllo_3	"POPTR_0001s29350.1"	399	"	"C/T"	"50,8/49,2"	"66/64"	130	stress_42	"POPTR_0001s29350.1"	399	"	"C/T"	"70,0/30,0"	"7/3"	10
controllo_3	"POPTR_0001s29350.1"	399	"	"C/T"	"50,8/49,2"	"66/64"	130	stress_45	"POPTR_0001s29350.1"	399	"	"C/T"	"54,5/45,5"	"12/10"	22
controllo_3	"POPTR_0001s10040.1"	45	"	"A/G"	"50,8/49,2"	"60/58"	118	stress_12bis	"POPTR_0001s10040.1"	45	"	"G/A"	"51,9/48,1"	"27/25"	52
controllo_3	"POPTR_0001s10040.1"	45	"	"A/G"	"50,8/49,2"	"60/58"	118	stress_42	"POPTR_0001s10040.1"	45	"	"G/A"	"54,1/45,9"	"20/17"	37
controllo_3	"POPTR_0001s10040.1"	45	"	"A/G"	"50,8/49,2"	"60/58"	118	stress_45	"POPTR_0001s10040.1"	45	"	"A/G"	"56,5/43,5"	"39/30"	69
controllo_3	"POPTR_0010s22290.1"	157	"	"A/G"	"50,8/49,2"	"61/59"	120	stress_12bis	"POPTR_0010s22290.1"	157	"	"A/G"	"59,3/40,7"	"16/11"	27
controllo_3	"POPTR_0010s22290.1"	157	"	"A/G"	"50,8/49,2"	"61/59"	120	stress_42	"POPTR_0010s22290.1"	157	"	"A/G"	"60,0/40,0"	"6/4"	10
controllo_3	"POPTR_0007s12010.1"	441	"	"C/T"	"50,8/49,2"	"63/61"	124	stress_12bis	"POPTR_0007s12010.1"	441	"	"T/C"	"51,4/48,6"	"19/18"	37
controllo_3	"POPTR_0007s12010.1"	441	"	"C/T"	"50,8/49,2"	"63/61"	124	stress_45	"POPTR_0007s12010.1"	441	"	"T/C"	"72,7/27,3"	"8/3"	11
controllo_3	"POPTR_0002s11560.1"	56	"	"T/C"	"50,8/49,2"	"62/60"	122	stress_12bis	"POPTR_0002s11560.1"	56	"	"C/T"	"53,8/46,2"	"21/18"	39
controllo_3	"POPTR_0002s11560.1"	56	"	"T/C"	"50,8/49,2"	"62/60"	122	stress_42	"POPTR_0002s11560.1"	56	"	"T/C"	"68,8/31,2"	"11/5"	16
controllo_3	"POPTR_0002s11560.1"	56	"	"T/C"	"50,8/49,2"	"62/60"	122	stress_45	"POPTR_0002s11560.1"	56	"	"C/T"	"59,1/40,9"	"13/9"	22
controllo_3	"POPTR_0002s24310.1"	201	"	"G/T"	"50,8/49,2"	"91/88"	179	stress_12bis	"POPTR_0002s24310.1"	201	"	"T/G"	"51,1/48,9"	"23/22"	45
controllo_3	"POPTR_0002s24310.1"	201	"	"G/T"	"50,8/49,2"	"91/88"	179	stress_42	"POPTR_0002s24310.1"	201	"	"T/G"	"55,0/45,0"	"11/9"	20
controllo_3	"POPTR_0002s24310.1"	201	"	"G/T"	"50,8/49,2"	"91/88"	179	stress_45	"POPTR_0002s24310.1"	201	"	"G/T"	"54,5/45,5"	"12/10"	22
controllo_3	"POPTR_0008s12550.1"	1638	"	"C/T"	"50,8/49,2"	"62/60"	122	stress_12bis	"POPTR_0008s12550.1"	1638	"	"T/C"	"54,8/45,2"	"17/14"	31
controllo_3	"POPTR_0008s12550.1"	1638	"	"C/T"	"50,8/49,2"	"62/60"	122	stress_42	"POPTR_0008s12550.1"	1638	"	"T/C"	"51,5/48,5"	"35/33"	68
controllo_3	"POPTR_0008s12550.1"	1638	"	"C/T"	"50,8/49,2"	"62/60"	122	stress_45	"POPTR_0008s12550.1"	1638	"	"T/C"	"50,9/49,1"	"57/55"	112
controllo_3	"POPTR_0008s06960.1"	939	"	"T/C"	"50,8/49,2"	"63/61"	124	stress_12bis	"POPTR_0008s06960.1"	939	"	"C/T"	"50,0/50,0"	"6/6"	12
controllo_3	"POPTR_0008s08400.1"	1047	"	"G/A"	"50,8/49,2"	"63/61"	124	stress_12bis	"POPTR_0008s08400.1"	1047	"	"G/A"	"61,9/38,1"	"13/8"	21
controllo_3	"POPTR_0008s08400.1"	1047	"	"G/A"	"50,8/49,2"	"63/61"	124	stress_42	"POPTR_0008s08400.1"	1047	"	"A/G"	"56,2/43,8"	"27/21"	48
controllo_3	"POPTR_0008s08400.1"	1047	"	"G/A"	"50,8/49,2"	"63/61"	124	stress_45	"POPTR_0008s08400.1"	1047	"	"A/G"	"56,0/44,0"	"28/22"	50
controllo_3	"POPTR_0016s00410.1"	2055	"	"T/C"	"50,8/49,2"	"66/64"	130	stress_12bis	"POPTR_0016s00410.1"	2055	"	"T/C"	"66,7/33,3"	"16/8"	24
controllo_3	"POPTR_0006s14180.1"	459	"	"T/C"	"50,9/48,1"	"54/51"	106	stress_12bis	"POPTR_0006s14180.1"	459	"	"C/T"	"50,0/50,0"	"23/23"	46
controllo_3	"POPTR_0006s14180.1"	459	"	"T/C"	"50,9/48,1"	"54/51"	106	stress_45	"POPTR_0006s14180.1"	459	"	"T/C"	"76,9/23,1"	"10/3"	13
controllo_3	"POPTR_0004s14960.1"	1335	"	"T/C"	"50,9/48,2"	"58/55"	114	stress_12bis	"POPTR_0004s14960.1"	1335	"	"T/C"	"66,7/33,3"	"26/13"	39
controllo_3	"POPTR_0004s14960.1"	1335	"	"T/C"	"50,9/48,2"	"58/55"	114	stress_42	"POPTR_0004s14960.1"	1335	"	"C/T"	"81,2/18,8"	"13/3"	16
controllo_3	"POPTR_0004s14960.1"	1335	"	"T/C"	"50,9/48,2"	"58/55"	114	stress_45	"POPTR_0004s14960.1"	1335	"	"T/C"	"56,5/43,5"	"13/10"	23
controllo_3	"POPTR_0008s17190.1"	184	"	"A/G"	"50,9/48,2"	"57/54"	112	stress_12bis	"POPTR_0008s17190.1"	184	"	"G/A"	"54,5/45,5"	"12/10"	22
controllo_3	"POPTR_0008s17190.1"	184	"	"A/G"	"50,9/48,2"	"57/54"	112	stress_42	"POPTR_0008s17190.1"	184	"	"A/G"	"58,3/41,7"	"7/5"	12
controllo_3	"POPTR_0008s17190.1"	184	"	"A/G"	"50,9/48,2"	"57/54"	112	stress_45	"POPTR_0008s17190.1"	184	"	"G/A"	"62,5/37,5"	"10/6"	16
controllo_3	"POPTR_0001s07870.1"	171	"	"C/T"	"50,9/48,4"	"81/77"	159	stress_12bis	"POPTR_0001s07870.1"	171	"	"C/T"	"50,0/50,0"	"7/7"	14
controllo_3	"POPTR_0001s07870.1"	171	"	"C/T"	"50,9/48,4"	"81/77"	159	stress_45	"POPTR_0001s07870.1"	171	"	"T/C"	"62,2/35,1"	"23/13"	37
controllo_3	"POPTR_0016s14100.1"	926	"	"A/T"	"50,9/48,4"	"81/77"	159	stress_12bis	"POPTR_0016s14100.1"	926	"	"T/A"	"58,2/41,8"	"39/28"	67
controllo_3	"POPTR_0016s14100.1"	926	"	"A/T"	"50,9/48,4"	"81/77"	159	stress_42	"POPTR_0016s14100.1"	926	"	"T/A"	"58,3/41,7"	"7/5"	12
controllo_3	"POPTR_0016s14100.1"	926	"	"A/T"	"50,9/48,4"	"81/77"	159	stress_45	"POPTR_0016s14100.1"	926	"	"T/A"	"58,3/41,7"	"14/10"	24
controllo_3	"POPTR_0013s04210.1"	322	"	"A/T"	"50,9/48,6"	"88/84"	173	stress_12bis	"POPTR_0013s04210.1"	322	"	"A/T"	"56,6/43,4"	"30/23"	53
controllo_3	"POPTR_0013s04210.1"	322	"	"A/T"	"50,9/48,6"	"88/84"	173	stress_42	"POPTR_0013s04210.1"	322	"	"A/T"	"54,5/45,5"	"6/5"	11
controllo_3	"POPTR_0013s04210.1"	322	"	"A/T"	"50,9/48,6"	"88/84"	173	stress_45	"POPTR_0013s04210.1"	322	"	"A/T"	"61,5/38,5"	"16/10"	26
controllo_3	"POPTR_0004s15440.1"	51	"	"C/A"	"50,9/48,7"	"141/135"	277	stress_12bis	"POPTR_0004s15440.1"	51	"	"C/A"	"61,4/38,6"	"27/17"	44
controllo_3	"POPTR_0004s15440.1"	51	"	"C/A"	"50,9/48,7"	"141/135"	277	stress_42	"POPTR_0004s15440.1"	51	"	"C/A"	"61,9/38,1"	"13/8"	21
controllo_3	"POPTR_0004s15440.1"	51	"	"C/A"	"50,9/48,7"	"141/135"	277	stress_45	"POPTR_0004s15440.1"	51	"	"C/A"	"63,6/36,4"	"7/4"	11
controllo_3	"POPTR_0012s07060.1"	1257	"	"A/G"	"50,9/48,9"	"239/230"	470	stress_12bis	"POPTR_0012s07060.1"	1257	"	"G/A"	"50,3/49,7"	"91/90"	181
controllo_3	"POPTR_0012s07060.1"	1257	"	"A/G"	"50,9/48,9"	"239/230"	470	stress_42	"POPTR_0012s07060.1"	1257	"	"A/G"	"51,7/48,3"	"46/43"	89
controllo_3	"POPTR_0012s07060.1"	1257	"	"A/G"	"50,9/48,9"	"239/230"	470	stress_45	"POPTR_0012s07060.1"	1257	"	"G/A"	"57,6/42,4"	"68/50"	118
controllo_3	"POPTR_0011s14410.1"	450	"	"C/T"	"50,9/49,0"	"429/413"	843	stress_12bis	"POPTR_0011s14410.1"	450	"	"C/T"	"55,7/44,3"	"93/74"	167
controllo_3	"POPTR_0011s14410.1"	450	"	"C/T"	"50,9/49,0"	"429/413"	843	stress_42	"POPTR_0011s14410.1"	450	"	"C/T"	"63,6/36,4"	"21/12"	33
controllo_3	"POPTR_0011s14410.1"	450	"	"C/T"	"50,9/49,0"	"429/413"	843	stress_45	"POPTR_0011s14410.1"	450	"	"C/T"	"50,0/50,0"	"19/19"	38
controllo_3	"POPTR_0001s38810.1"	560	"	"G/C"	"50,9/49,0"	"466/448"	915	stress_12bis	"POPTR_0001s38810.1"	560	"	"G/C"	"60,2/39,8"	"150/99"	249
controllo_3	"POPTR_0001s38810.1"	560	"	"G/C"	"50,9/49,0"	"466/448"	915	stress_42	"POPTR_0001s38810.1"	560	"	"C/G"	"66,0/34,0"	"217/112"	329
controllo_3	"POPTR_0001s38810.1"	560	"	"G/C"	"50,9/49,0"	"466/448"	915	stress_45	"POPTR_0001s38810.1"	560	"	"C/G"	"62,4/37,6"	"266/160"	426
controllo_3	"POPTR_0005s20560.1"	547	"	"C/T"	"50,9/49,1"	"58/56"	114	stress_12bis	"POPTR_0005s20560.1"	547	"	"T/C"	"51,7/48,3"	"15/14"	29
controllo_3	"POPTR_0005s20560.1"	547	"	"C/T"	"50,9/49,1"	"58/56"	114	stress_45	"POPTR_0005s20560.1"	547	"	"T/C"	"58,3/41,7"	"7/5"	12
controllo_3	"POPTR_0005s17100.1"	1365	"	"C/T"	"50,9/49,1"	"54/52"	106	stress_12bis	"POPTR_0005s17100.1"	1365	"	"C/T"	"56,2/43,8"	"9/7"	16
controllo_3	"POPTR_0005s17100.1"	1365	"	"C/T"	"50,9/49,1"	"54/52"	106	stress_42	"POPTR_0005s17100.1"	1365	"	"T/C"	"63,6/36,4"	"7/4"	11
controllo_3	"POPTR_0005s17100.1"	1365	"	"C/T"	"50,9/49,1"	"54/52"	106	stress_45	"POPTR_0005s17100.1"	1365	"	"T/C"	"76,0/24,0"	"19/6"	25
controllo_3	"POPTR_0005s05450.1"	405	"	"G/A"	"50,9/49,1"	"110/106"	216	stress_12bis	"POPTR_0005s05450.1"	405	"	"A/G"	"56,6/43,4"	"30/23"	53
controllo_3	"POPTR_0005s05450.1"	405	"	"G/A"	"50,9/49,1"	"110/106"	216	stress_42	"POPTR_0005s05450.1"	405	"	"A/G"	"54,5/45,5"	"6/5"	11
controllo_3	"POPTR_0005s05450.1"	405	"	"G/A"	"50,9/49,1"	"110/106"	216	stress_45	"POPTR_0005s05450.1"	405	"	"G/A"	"78,6/21,4"	"11/3"	14
controllo_3	"POPTR_0005s11300.1"	90	"	"C/T"	"50,9/49,1"	"54/52"	106	stress_12bis	"POPTR_0005s11300.1"	90	"	"C/T"	"55,6/44,4"	"15/12"	27
controllo_3	"POPTR_0005s11300.1"	90	"	"C/T"	"50,9/49,1"	"54/52"	106	stress_42	"POPTR_0005s11300.1"	90	"	"C/T"	"62,5/37,5"	"20/12"	32
controllo_3	"POPTR_0005s11300.1"	90	"	"C/T"	"50,9/49,1"	"54/52"	106	stress_45	"POPTR_0005s11300.1"	90	"	"C/T"	"72,6/27,4"	"53/20"	73
controllo_3	"POPTR_0005s26700.1"	708	"	"T/C"	"50,9/49,1"	"140/135"	275	stress_12bis	"POPTR_0005s26700.1"	708	"	"T/C"	"54,5/44,8"	"73/60"	134
controllo_3	"POPTR_0005s26700.1"	708	"	"T/C"	"50,9/49,1"	"140/135"	275	stress_42	"POPTR_0005s26700.1"	708	"	"C/T"	"73,9/26,1"	"17/6"	23
controllo_3	"POPTR_0005s26700.1"	708	"	"T/C"	"50,9/49,1"	"140/135"	275	stress_45	"POPTR_0005s26700.1"	708	"	"C/T"	"50,0/50,0"	"16/16"	32
controllo_3	"POPTR_0005s08610.1"	74	"	"C/T"	"50,9/49,1"	"83/80"	163	stress_12bis	"POPTR_0005s08610.1"	74	"	"C/T"	"57,4/42,6"	"39/29"	68
controllo_3	"POPTR_0005s08610.1"	74	"	"C/T"	"50,9/49,1"	"83/80"	163	stress_42	"POPTR_0005s08610.1"	74	"	"C/T"	"57,9/42,1"	"22/16"	38
controllo_3	"POPTR_0005s08610.1"	74	"	"C/T"	"50,9/49,1"	"83/80"	163	stress_45	"POPTR_0005s08610.1"	74	"	"C/T"	"57,5/42,5"	"23/17"	40
controllo_3	"POPTR_0005s26610.1"	537	"	"G/T"	"50,9/49,1"	"55/53"	108	stress_12bis	"POPTR_0005s26610.1"	537	"	"T/G"	"53,1/46,9"	"34/30"	64
controllo_3	"POPTR_0005s26610.1"	537	"	"G/T"	"50,9/49,1"	"55/53"	108	stress_42	"POPTR_0005s26610.1"	537	"	"T/G"	"56,2/43,8"	"41/32"	73
controllo_3	"POPTR_0005s26610.1"	537	"	"G/T"	"50,9/49,1"	"55/53"	108	stress_45	"POPTR_0005s26610.1"	537	"	"G/T"	"52,5/47,5"	"42/38"	80
controllo_3	"POPTR_0017s14410.1"	754	"	"A/G"	"50,9/49,1"	"56/54"	110	stress_12bis	"POPTR_0017s14410.1"	754	"	"G/A"	"54,5/45,5"	"12/10"	22
controllo_3	"POPTR_0017s14410.1"	754	"	"A/G"	"50,9/49,1"	"56/54"	110	stress_42	"POPTR_0017s14410.1"	754	"	"G/A"	"76,5/23,5"	"13/4"	17
controllo_3	"POPTR_0017s14410.1"	754	"	"A/G"	"50,9/49,1"	"56/54"	110	stress_45	"POPTR_0017s14410.1"	754	"	"G/A"	"63,6/36,4"	"14/8"	22
controllo_3	"POPTR_0017s12590.1"	270	"	"C/T"	"50,9/49,1"	"54/52"	106	stress_12bis	"POPTR_0017s12590.1"	270	"	"T/C"	"58,8/41,2"	"10/7"	17
controllo_3	"POPTR_0017s12590.1"	345	"	"T/C"	"50,9/49,1"	"57/55"	112	stress_12bis	"POPTR_0017s12590.1"	345	"	"C/T"	"53,1/46,9"	"17/15"	32
controllo_3	"POPTR_0006s23580.1"	204	"	"C/T"	"50,9/49,1"	"81/78"	159	stress_12bis	"POPTR_0006s23580.1"	204	"	"T/C"	"56,0/44,0"	"28/22"	50
controllo_3	"POPTR_0006s23580.1"	204	"	"C/T"	"50,9/49,1"	"81/78"	159	stress_42	"POPTR_0006s23580.1"	204	"	"C/T"	"62,2/37,8"	"46/28"	74
controllo_3	"POPTR_0006s23580.1"	204	"	"C/T"	"50,9/49,1"	"81/78"	159	stress_45	"POPTR_0006s23580.1"	204	"	"C/T"	"63,2/36,8"	"72/42"	114
controllo_3	"POPTR_0006s04960.1"	3732	"	"G/A"	"50,9/49,1"	"246/237"	483	stress_12bis	"POPTR_0006s04960.1"	3732	"	"A/G"	"49,5/49,5"	"52/52"	105
controllo_3	"POPTR_0006s04960.1"	3732	"	"G/A"	"50,9/49,1"	"246/237"	483	stress_42	"POPTR_0006s04960.1"	3732	"	"G/A"	"55,9/44,1"	"19/15"	34
controllo_3	"POPTR_0006s04960.1"	3732	"	"G/A"	"50,9/49,1"	"246/237"	483	stress_45	"POPTR_0006s04960.1"	3732	"	"A/G"	"53,0/47,0"	"35/31"	66
controllo_3	"POPTR_0003s11300.1"	456	"	"G/T"	"50,9/49,1"	"141/136"	277	stress_12bis	"POPTR_0003s11300.1"	456	"	"T/G"	"53,6/46,4"	"37/32"	69
controllo_3	"POPTR_0003s11300.1"	456	"	"G/T"	"50,9/49,1"	"141/136"	277	stress_42	"POPTR_0003s11300.1"	456	"	"T/G"	"58,3/41,7"	"7/5"	12
controllo_3	"POPTR_0003s11300.1"	456	"	"G/T"	"50,9/49,1"	"141/136"	277	stress_45	"POPTR_0003s11300.1"	456	"	"T/G"	"55,0/45,0"	"11/9"	20
controllo_3	"POPTR_0019s14180.1"	1617	"	"C/T"	"50,9/49,1"	"58/56"	114	stress_12bis	"POPTR_0019s14180.1"	1617	"	"T/C"	"66,7/33,3"	"10/5"	15
controllo_3	"POPTR_0019s14180.1"	1617	"	"C/T"	"50,9/49,1"	"58/56"	114	stress_42	"POPTR_0019s14180.1"	1617	"	"T/C"	"61,5/38,5"	"8/5"	13
controllo_3	"POPTR_0019s14180.1"	1617	"	"C/T"	"50,9/49,1"	"58/56"	114	stress_45	"POPTR_0019s14180.1"	1617	"	"C/T"	"53,3/46,7"	"16/14"	30
controllo_3	"POPTR_0013s07150.1"	2686	"	"T/G"	"50,9/49,1"	"117/113"	230	stress_12bis	"POPTR_0013s07150.1"	2686	"	"T/G"	"50,9/49,1"	"27/26"	53
controllo_3	"POPTR_0013s07150.1"	2686	"	"T/G"	"50,9/49,1"	"117/113"	230	stress_42	"POPTR_0013s07150.1"	2686	"	"T/G"	"68,6/31,4"	"24/11"	35
controllo_3	"POPTR_0013s07150.1"	2686	"	"T/G"	"50,9/49,1"	"117/113"	230	stress_45	"POPTR_0013s07150.1"	2686	"	"G/T"	"50,0/50,0"	"22/22"	44
controllo_3	"POPTR_0014s04380.1"	134	"	"C/A"	"50,9/49,1"	"56/54"	110	stress_12bis	"POPTR_0014s04380.1"	134	"	"A/C"	"54,8/45,2"	"17/14"	31
controllo_3	"POPTR_0014s04380.1"	134	"	"C/A"	"50,9/49,1"	"56/54"	110	stress_42	"POPTR_0014s04380.1"	134	"	"C/A"	"54,5/45,5"	"12/10"	22
controllo_3	"POPTR_0014s04380.1"	134	"	"C/A"	"50,9/49,1"	"56/54"	110	stress_45	"POPTR_0014s04380.1"	134	"	"A/C"	"50,0/50,0"	"18/18"	36
controllo_3	"POPTR_0014s02550.1"	1647	"	"G/A"	"50,9/49,1"	"84/81"	165	stress_12bis	"POPTR_0014s02550.1"	1647	"	"A/G"	"51,4/48,6"	"38/36"	74
controllo_3	"POPTR_0014s02550.1"	1647	"	"G/A"	"50,9/49,1"	"84/81"	165	stress_42	"POPTR_0014s02550.1"	1647	"	"A/G"	"53,2/46,8"	"41/36"	77
controllo_3	"POPTR_0014s02550.1"	1647	"	"G/A"	"50,9/49,1"	"84/81"	165	stress_45	"POPTR_0014s02550.1"	1647	"	"A/G"	"52,4/47,6"	"65/59"	124
controllo_3	"POPTR_0014s02410.1"	1008	"	"A/T"	"50,9/49,1"	"452/436"	888	stress_12bis	"POPTR_0014s02410.1"	1008	"	"A/T"	"54,3/45,7"	"63/53"	116
controllo_3	"POPTR_0014s02410.1"	1008	"	"A/T"	"50,9/49,1"	"452/436"	888	stress_42	"POPTR_0014s02410.1"	1008	"	"A/T"	"54,6/45,4"	"118/98"	216
controllo_3	"POPTR_0014s02410.1"	1008	"	"A/T"	"50,9/49,1"	"452/436"	888	stress_45	"POPTR_0014s02410.1"	1008	"	"A/T"	"56,6/43,4"	"179/137"	316
controllo_3	"POPTR_0004s14960.1"	1989	"	"C/T"	"50,9/49,1"	"56/54"	110	stress_12bis	"POPTR_0004s14960.1"	1989	"	"C/T"	"66,7/33,3"	"22/11"	33
controllo_3	"POPTR_0004s14960.1"	1989	"	"C/T"	"50,9/49,1"	"56/54"	110	stress_45	"POPTR_0004s14960.1"	1989	"	"T/C"	"52,2/43,5"	"12/10"	23
controllo_3	"POPTR_0004s01220.1"	281	"	"T/C"	"50,9/49,1"	"233/225"	458	stress_12bis	"POPTR_0004s01220.1"	281	"	"T/C"	"52,0/48,0"	"39/36"	75
controllo_3	"POPTR_0004s01220.1"	281	"	"T/C"	"50,9/49,1"	"233/225"	458	stress_45	"POPTR_0004s01220.1"	281	"	"C/T"	"56,2/43,8"	"9/7"	16
controllo_3	"POPTR_0004s04860.1"	1102	"	"A/G"	"50,9/49,1"	"142/137"	279	stress_12bis	"POPTR_0004s04860.1"	1102	"	"G/A"	"53,8/46,2"	"42/36"	78
controllo_3	"POPTR_0004s04860.1"	1102	"	"A/G"	"50,9/49,1"	"142/137"	279	stress_42	"POPTR_0004s04860.1"	1102	"	"G/A"	"69,0/31,0"	"29/13"	42
controllo_3	"POPTR_0004s04860.1"	1102	"	"A/G"	"50,9/49,1"	"142/137"	279	stress_45	"POPTR_0004s04860.1"	1102	"	"G/A"	"65,9/34,1"	"29/15"	44
controllo_3	"POPTR_0009s05850.1"	168	"	"A/G"	"50,9/49,1"	"83/80"	163	stress_12bis	"POPTR_0009s05850.1"	168	"	"G/A"	"77,1/22,9"	"27/8"	35
controllo_3	"POPTR_0009s05850.1"	168	"	"A/G"	"50,9/49,1"	"83/80"	163	stress_42	"POPTR_0009s05850.1"	168	"	"A/G"	"65,6/34,4"	"21/11"	32
controllo_3	"POPTR_0009s05850.1"	168	"	"A/G"	"50,9/49,1"	"83/80"	163	stress_45	"POPTR_0009s05850.1"	168	"	"A/G"	"56,9/43,1"	"58/44"	102
controllo_3	"POPTR_0012s07270.1"	595	"	"G/T"	"50,9/49,1"	"88/85"	173	stress_12bis	"POPTR_0012s07270.1"	595	"	"T/G"	"68,9/29,5"	"42/18"	61
controllo_3	"POPTR_0012s07270.1"	595	"	"G/T"	"50,9/49,1"	"88/85"	173	stress_42	"POPTR_0012s07270.1"	595	"	"T/G"	"71,2/28,8"	"42/17"	59
controllo_3	"POPTR_0012s07270.1"	595	"	"G/T"	"50,9/49,1"	"88/85"	173	stress_45	"POPTR_0012s07270.1"	595	"	"T/G"	"60,0/40,0"	"39/26"	65
controllo_3	"POPTR_0011s05670.1"	1167	"	"G/A"	"50,9/49,1"	"119/115"	234	stress_12bis	"POPTR_0011s05670.1"	1167	"	"G/A"	"55,6/44,4"	"35/28"	63
controllo_3	"POPTR_0011s05670.1"	1167	"	"G/A"	"50,9/49,1"	"119/115"	234	stress_42	"POPTR_0011s05670.1"	1167	"	"A/G"	"65,9/34,1"	"29/15"	44
controllo_3	"POPTR_0011s05670.1"	1167	"	"G/A"	"50,9/49,1"	"119/115"	234	stress_45	"POPTR_0011s05670.1"	1167	"	"G/A"	"56,2/41,7"	"27/20"	48
controllo_3	"POPTR_0001s29660.1"	122	"	"T/C"	"50,9/49,1"	"55/53"	108	stress_12bis	"POPTR_0001s29660.1"	122	"	"C/T"	"50,0/50,0"	"22/22"	44
controllo_3	"POPTR_0001s29660.1"	122	"	"T/C"	"50,9/49,1"	"55/53"	108	stress_42	"POPTR_0001s29660.1"	122	"	"C/T"	"70,0/30,0"	"7/3"	10
controllo_3	"POPTR_0001s29660.1"	122	"	"T/C"	"50,9/49,1"	"55/53"	108	stress_45	"POPTR_0001s29660.1"	122	"	"C/T"	"65,2/34,8"	"15/8"	23
controllo_3	"POPTR_0001s29660.1"	178	"	"A/T"	"50,9/49,1"	"57/55"	112	stress_12bis	"POPTR_0001s29660.1"	178	"	"A/T"	"57,4/42,6"	"31/23"	54
controllo_3	"POPTR_0001s29660.1"	178	"	"A/T"	"50,9/49,1"	"57/55"	112	stress_42	"POPTR_0001s29660.1"	178	"	"T/A"	"60,0/40,0"	"9/6"	15
controllo_3	"POPTR_0001s29660.1"	178	"	"A/T"	"50,9/49,1"	"57/55"	112	stress_45	"POPTR_0001s29660.1"	178	"	"T/A"	"81,2/18,8"	"26/6"	32
controllo_3	"POPTR_0001s29660.1"	180	"	"G/A"	"50,9/49,1"	"58/56"	114	stress_12bis	"POPTR_0001s29660.1"	180	"	"G/A"	"55,8/44,2"	"29/23"	52
controllo_3	"POPTR_0001s29660.1"	180	"	"G/A"	"50,9/49,1"	"58/56"	114	stress_42	"POPTR_0001s29660.1"	180	"	"A/G"	"69,2/30,8"	"9/4"	13
controllo_3	"POPTR_0001s29660.1"	180	"	"G/A"	"50,9/49,1"	"58/56"	114	stress_45	"POPTR_0001s29660.1"	180	"	"A/G"	"80,6/19,4"	"25/6"	31
controllo_3	"POPTR_0001s19360.1"	1620	"	"T/C"	"50,9/49,1"	"55/53"	108	stress_12bis	"POPTR_0001s19360.1"	1620	"	"T/C"	"64,7/35,3"	"22/12"	34
controllo_3	"POPTR_0001s19360.1"	1620	"	"T/C"	"50,9/49,1"	"55/53"	108	stress_42	"POPTR_0001s19360.1"	1620	"	"T/C"	"59,4/40,6"	"19/13"	32
controllo_3	"POPTR_0001s19360.1"	1620	"	"T/C"	"50,9/49,1"	"55/53"	108	stress_45	"POPTR_0001s19360.1"	1620	"	"T/C"	"52,5/47,5"	"32/29"	61
controllo_3	"POPTR_0001s47020.1"	225	"	"G/A"	"50,9/49,1"	"85/82"	167	stress_12bis	"POPTR_0001s47020.1"	225	"	"A/G"	"51,9/48,1"	"28/26"	54
controllo_3	"POPTR_0001s47020.1"	225	"	"G/A"	"50,9/49,1"	"85/82"	167	stress_42	"POPTR_0001s47020.1"	225	"	"G/A"	"62,1/37,9"	"18/11"	29
controllo_3	"POPTR_0001s47020.1"	225	"	"G/A"	"50,9/49,1"	"85/82"	167	stress_45	"POPTR_0001s47020.1"	225	"	"G/A"	"57,1/42,9"	"40/30"	70
controllo_3	"POPTR_0001s29350.1"	2046	"	"T/C"	"50,9/49,1"	"111/107"	218	stress_12bis	"POPTR_0001s29350.1"	2046	"	"T/C"	"55,4/43,2"	"41/32"	74
controllo_3	"POPTR_0001s29350.1"	2046	"	"T/C"	"50,9/49,1"	"111/107"	218	stress_42	"POPTR_0001s29350.1"	2046	"	"T/C"	"56,8/43,2"	"25/19"	44
controllo_3	"POPTR_0001s29350.1"	2046	"	"T/C"	"50,9/49,1"	"111/107"	218	stress_45	"POPTR_0001s29350.1"	2046	"	"T/C"	"56,6/43,4"	"30/23"	53
controllo_3	"POPTR_0001s12970.1"	1938	"	"A/G"	"50,9/49,1"	"54/52"	106	stress_12bis	"POPTR_0001s12970.1"	1938	"	"A/G"	"57,5/42,5"	"23/17"	40
controllo_3	"POPTR_0001s12970.1"	1938	"	"A/G"	"50,9/49,1"	"54/52"	106	stress_42	"POPTR_0001s12970.1"	1938	"	"A/G"	"52,9/47,1"	"9/8"	17
controllo_3	"POPTR_0001s12970.1"	1938	"	"A/G"	"50,9/49,1"	"54/52"	106	stress_45	"POPTR_0001s12970.1"	1938	"	"A/G"	"54,5/45,5"	"12/10"	22
controllo_3	"POPTR_0001s07870.1"	702	"	"A/G"	"50,9/49,1"	"56/54"	110	stress_12bis	"POPTR_0001s07870.1"	702	"	"A/G"	"61,5/38,5"	"8/5"	13
controllo_3	"POPTR_0001s07870.1"	702	"	"A/G"	"50,9/49,1"	"56/54"	110	stress_42	"POPTR_0001s07870.1"	702	"	"A/G"	"72,7/27,3"	"8/3"	11
controllo_3	"POPTR_0001s07870.1"	702	"	"A/G"	"50,9/49,1"	"56/54"	110	stress_45	"POPTR_0001s07870.1"	702	"	"A/G"	"66,7/33,3"	"18/9"	27
controllo_3	"POPTR_0001s40480.1"	44	"	"A/T"	"50,9/49,1"	"412/397"	809	stress_12bis	"POPTR_0001s40480.1"	44	"	"A/T"	"60,0/40,0"	"156/104"	260
controllo_3	"POPTR_0001s40480.1"	44	"	"A/T"	"50,9/49,1"	"412/397"	809	stress_42	"POPTR_0001s40480.1"	44	"	"A/T"	"55,9/44,1"	"19/15"	34
controllo_3	"POPTR_0001s40480.1"	44	"	"A/T"	"50,9/49,1"	"412/397"	809	stress_45	"POPTR_0001s40480.1"	44	"	"A/T"	"59,5/40,5"	"22/15"	37
controllo_3	"POPTR_0010s19930.1"	133	"	"G/A"	"50,9/49,1"	"230/222"	452	stress_12bis	"POPTR_0010s19930.1"	133	"	"A/G"	"75,0/25,0"	"39/13"	52
controllo_3	"POPTR_0010s19930.1"	133	"	"G/A"	"50,9/49,1"	"230/222"	452	stress_42	"POPTR_0010s19930.1"	133	"	"A/G"	"66,0/34,0"	"159/82"	241
controllo_3	"POPTR_0010s19930.1"	133	"	"G/A"	"50,9/49,1"	"230/222"	452	stress_45	"POPTR_0010s19930.1"	133	"	"A/G"	"68,3/31,7"	"164/76"	240
controllo_3	"POPTR_0010s11780.1"	843	"	"T/G"	"50,9/49,1"	"58/56"	114	stress_12bis	"POPTR_0010s11780.1"	843	"	"G/T"	"50,0/50,0"	"17/17"	34
controllo_3	"POPTR_0010s11780.1"	843	"	"T/G"	"50,9/49,1"	"58/56"	114	stress_42	"POPTR_0010s11780.1"	843	"	"T/G"	"53,7/46,3"	"36/31"	67
controllo_3	"POPTR_0010s11780.1"	843	"	"T/G"	"50,9/49,1"	"58/56"	114	stress_45	"POPTR_0010s11780.1"	843	"	"T/G"	"60,0/40,0"	"54/36"	90
controllo_3	"POPTR_0010s06750.1"	1332	"	"T/C"	"50,9/49,1"	"58/56"	114	stress_12bis	"POPTR_0010s06750.1"	1332	"	"C/T"	"67,4/32,6"	"29/14"	43
controllo_3	"POPTR_0010s06750.1"	1332	"	"T/C"	"50,9/49,1"	"58/56"	114	stress_42	"POPTR_0010s06750.1"	1332	"	"C/T"	"55,2/44,8"	"37/30"	67
controllo_3	"POPTR_0010s06750.1"	1332	"	"T/C"	"50,9/49,1"	"58/56"	114	stress_45	"POPTR_0010s06750.1"	1332	"	"T/C"	"55,2/44,8"	"32/26"	58
controllo_3	"POPTR_0008s15930.1"	1023	"	"T/A"	"50,9/49,1"	"57/55"	112	stress_12bis	"POPTR_0008s15930.1"	1023	"	"A/T"	"50,0/50,0"	"14/14"	28
controllo_3	"POPTR_0008s15930.1"	1023	"	"T/A"	"50,9/49,1"	"57/55"	112	stress_45	"POPTR_0008s15930.1"	1023	"	"T/A"	"55,9/42,6"	"38/29"	68
controllo_3	"POPTR_0008s03160.1"	1094	"	"A/G"	"50,9/49,1"	"145/140"	285	stress_12bis	"POPTR_0008s03160.1"	1094	"	"A/G"	"53,3/46,7"	"57/50"	107
controllo_3	"POPTR_0008s03160.1"	1094	"	"A/G"	"50,9/49,1"	"145/140"	285	stress_42	"POPTR_0008s03160.1"	1094	"	"G/A"	"56,2/43,8"	"27/21"	48
controllo_3	"POPTR_0008s03160.1"	1094	"	"A/G"	"50,9/49,1"	"145/140"	285	stress_45	"POPTR_0008s03160.1"	1094	"	"A/G"	"50,0/50,0"	"23/23"	46
controllo_3	"POPTR_0015s09990.1"	402	"	"A/T"	"51,0/47,1"	"106/98"	208	stress_12bis	"POPTR_0015s09990.1"	402	"	"A/T"	"60,0/40,0"	"30/20"	50
controllo_3	"POPTR_0015s09990.1"	402	"	"A/T"	"51,0/47,1"	"106/98"	208	stress_42	"POPTR_0015s09990.1"	402	"	"A/T"	"68,4/31,6"	"13/6"	19
controllo_3	"POPTR_0015s09990.1"	402	"	"A/T"	"51,0/47,1"	"106/98"	208	stress_45	"POPTR_0015s09990.1"	402	"	"T/A"	"60,0/40,0"	"6/4"	10
controllo_3	"POPTR_0010s19860.1"	318	"	"C/T"	"51,0/48,0"	"50/47"	98	stress_45	"POPTR_0010s19860.1"	318	"	"T/C"	"57,3/42,7"	"59/44"	103
controllo_3	"POPTR_0012s09200.1"	1005	"	"T/A"	"51,0/48,5"	"122/116"	239	stress_12bis	"POPTR_0012s09200.1"	1005	"	"A/T"	"49,2/49,2"	"29/29"	59
controllo_3	"POPTR_0012s09200.1"	1005	"	"T/A"	"51,0/48,5"	"122/116"	239	stress_42	"POPTR_0012s09200.1"	1005	"	"A/T"	"51,9/48,1"	"14/13"	27
controllo_3	"POPTR_0012s09200.1"	1005	"	"T/A"	"51,0/48,5"	"122/116"	239	stress_45	"POPTR_0012s09200.1"	1005	"	"T/A"	"52,2/47,8"	"24/22"	46
controllo_3	"POPTR_0001s21140.1"	486	"	"T/G"	"51,0/48,8"	"308/295"	604	stress_12bis	"POPTR_0001s21140.1"	486	"	"G/T"	"50,0/50,0"	"121/121"	242
controllo_3	"POPTR_0001s21140.1"	486	"	"T/G"	"51,0/48,8"	"308/295"	604	stress_42	"POPTR_0001s21140.1"	486	"	"T/G"	"57,1/42,9"	"24/18"	42
controllo_3	"POPTR_0001s21140.1"	486	"	"T/G"	"51,0/48,8"	"308/295"	604	stress_45	"POPTR_0001s21140.1"	486	"	"T/G"	"51,9/46,2"	"27/24"	52
controllo_3	"POPTR_0004s08380.1"	258	"	"C/T"	"51,0/48,9"	"952/912"	1866	stress_12bis	"POPTR_0004s08380.1"	258	"	"C/T"	"53,5/46,5"	"265/230"	495
controllo_3	"POPTR_0004s08380.1"	258	"	"C/T"	"51,0/48,9"	"952/912"	1866	stress_42	"POPTR_0004s08380.1"	258	"	"T/C"	"54,0/46,0"	"34/29"	63
controllo_3	"POPTR_0004s08380.1"	258	"	"C/T"	"51,0/48,9"	"952/912"	1866	stress_45	"POPTR_0004s08380.1"	258	"	"C/T"	"59,3/40,7"	"32/22"	54
controllo_3	"POPTR_0004s08380.1"	1011	"	"T/C"	"51,0/48,9"	"910/872"	1783	stress_12bis	"POPTR_0004s08380.1"	1011	"	"C/T"	"50,5/49,5"	"230/225"	455
controllo_3	"POPTR_0004s08380.1"	1011	"	"T/C"	"51,0/48,9"	"910/872"	1783	stress_42	"POPTR_0004s08380.1"	1011	"	"T/C"	"56,5/43,5"	"39/30"	69
controllo_3	"POPTR_0004s08380.1"	1011	"	"T/C"	"51,0/48,9"	"910/872"	1783	stress_45	"POPTR_0004s08380.1"	1011	"	"T/C"	"52,9/47,1"	"36/32"	68
controllo_3	"POPTR_0004s18190.1"	1098	"	"T/A"	"51,0/48,9"	"531/509"	1041	stress_12bis	"POPTR_0004s18190.1"	1098	"	"T/A"	"54,2/45,3"	"243/203"	448
controllo_3	"POPTR_0004s18190.1"	1098	"	"T/A"	"51,0/48,9"	"531/509"	1041	stress_42	"POPTR_0004s18190.1"	1098	"	"A/T"	"56,8/43,2"	"84/64"	148
controllo_3	"POPTR_0004s18190.1"	1098	"	"T/A"	"51,0/48,9"	"531/509"	1041	stress_45	"POPTR_0004s18190.1"	1098	"	"A/T"	"50,6/49,4"	"44/43"	87
controllo_3	"POPTR_0005s25700.1"	78	"	"A/T"	"51,0/49,0"	"52/50"	102	stress_12bis	"POPTR_0005s25700.1"	78	"	"T/A"	"53,8/46,2"	"14/12"	26
controllo_3	"POPTR_0005s25700.1"	78	"	"A/T"	"51,0/49,0"	"52/50"	102	stress_42	"POPTR_0005s25700.1"	78	"	"T/A"	"54,5/45,5"	"18/15"	33
controllo_3	"POPTR_0005s25700.1"	78	"	"A/T"	"51,0/49,0"	"52/50"	102	stress_45	"POPTR_0005s25700.1"	78	"	"T/A"	"57,1/42,9"	"20/15"	35
controllo_3	"POPTR_0006s13980.1"	438	"	"G/A"	"51,0/49,0"	"134/129"	263	stress_12bis	"POPTR_0006s13980.1"	438	"	"G/A"	"51,9/48,1"	"41/38"	79
controllo_3	"POPTR_0006s13980.1"	438	"	"G/A"	"51,0/49,0"	"134/129"	263	stress_42	"POPTR_0006s13980.1"	438	"	"G/A"	"56,2/43,8"	"9/7"	16
controllo_3	"POPTR_0006s13980.1"	438	"	"G/A"	"51,0/49,0"	"134/129"	263	stress_45	"POPTR_0006s13980.1"	438	"	"G/A"	"76,2/23,8"	"16/5"	21
controllo_3	"POPTR_0006s15520.1"	113	"	"A/G"	"51,0/49,0"	"53/51"	104	stress_12bis	"POPTR_0006s15520.1"	113	"	"G/A"	"75,0/25,0"	"15/5"	20
controllo_3	"POPTR_0006s15520.1"	113	"	"A/G"	"51,0/49,0"	"53/51"	104	stress_42	"POPTR_0006s15520.1"	113	"	"A/G"	"60,0/40,0"	"6/4"	10
controllo_3	"POPTR_0006s07470.1"	537	"	"T/C"	"51,0/49,0"	"74/71"	145	stress_12bis	"POPTR_0006s07470.1"	537	"	"T/C"	"56,8/43,2"	"25/19"	44
controllo_3	"POPTR_0006s07470.1"	537	"	"T/C"	"51,0/49,0"	"74/71"	145	stress_42	"POPTR_0006s07470.1"	537	"	"C/T"	"61,5/38,5"	"8/5"	13
controllo_3	"POPTR_0006s07470.1"	537	"	"T/C"	"51,0/49,0"	"74/71"	145	stress_45	"POPTR_0006s07470.1"	537	"	"T/C"	"53,3/46,7"	"8/7"	15
controllo_3	"POPTR_0006s10130.1"	900	"	"G/A"	"51,0/49,0"	"306/294"	600	stress_12bis	"POPTR_0006s10130.1"	900	"	"G/A"	"50,6/49,4"	"43/42"	85
controllo_3	"POPTR_0006s10130.1"	900	"	"G/A"	"51,0/49,0"	"306/294"	600	stress_42	"POPTR_0006s10130.1"	900	"	"G/A"	"56,1/43,9"	"23/18"	41
controllo_3	"POPTR_0006s10130.1"	900	"	"G/A"	"51,0/49,0"	"306/294"	600	stress_45	"POPTR_0006s10130.1"	900	"	"A/G"	"57,5/42,5"	"46/34"	80
controllo_3	"POPTR_0006s04960.1"	1005	"	"C/T"	"51,0/49,0"	"102/98"	200	stress_12bis	"POPTR_0006s04960.1"	1005	"	"T/C"	"61,4/38,6"	"27/17"	44
controllo_3	"POPTR_0006s04960.1"	1005	"	"C/T"	"51,0/49,0"	"102/98"	200	stress_45	"POPTR_0006s04960.1"	1005	"	"T/C"	"81,2/18,8"	"13/3"	16
controllo_3	"POPTR_0006s08710.1"	925	"	"A/G"	"51,0/49,0"	"77/74"	151	stress_12bis	"POPTR_0006s08710.1"	925	"	"G/A"	"52,0/48,0"	"26/24"	50
controllo_3	"POPTR_0006s08710.1"	925	"	"A/G"	"51,0/49,0"	"77/74"	151	stress_42	"POPTR_0006s08710.1"	925	"	"A/G"	"61,5/38,5"	"16/10"	26
controllo_3	"POPTR_0006s08710.1"	925	"	"A/G"	"51,0/49,0"	"77/74"	151	stress_45	"POPTR_0006s08710.1"	925	"	"A/G"	"71,4/28,6"	"25/10"	35
controllo_3	"POPTR_0006s00620.1"	1160	"	"G/T"	"51,0/49,0"	"52/50"	102	stress_12bis	"POPTR_0006s00620.1"	1160	"	"G/T"	"54,5/45,5"	"12/10"	22
controllo_3	"POPTR_0003s11300.1"	846	"	"A/T"	"51,0/49,0"	"133/128"	261	stress_12bis	"POPTR_0003s11300.1"	846	"	"A/T"	"72,8/27,2"	"59/22"	81
controllo_3	"POPTR_0003s11300.1"	846	"	"A/T"	"51,0/49,0"	"133/128"	261	stress_45	"POPTR_0003s11300.1"	846	"	"A/T"	"53,3/46,7"	"16/14"	30
controllo_3	"POPTR_0003s14170.1"	270	"	"A/G"	"51,0/49,0"	"159/153"	312	stress_12bis	"POPTR_0003s14170.1"	270	"	"G/A"	"51,2/48,8"	"22/21"	43
controllo_3	"POPTR_0003s14170.1"	270	"	"A/G"	"51,0/49,0"	"159/153"	312	stress_45	"POPTR_0003s14170.1"	270	"	"G/A"	"68,6/31,4"	"24/11"	35
controllo_3	"POPTR_0013s07050.1"	142	"	"T/C"	"51,0/49,0"	"78/75"	153	stress_12bis	"POPTR_0013s07050.1"	142	"	"T/C"	"55,0/45,0"	"22/18"	40
controllo_3	"POPTR_0013s07050.1"	142	"	"T/C"	"51,0/49,0"	"78/75"	153	stress_42	"POPTR_0013s07050.1"	142	"	"T/C"	"58,6/41,4"	"17/12"	29
controllo_3	"POPTR_0013s07050.1"	142	"	"T/C"	"51,0/49,0"	"78/75"	153	stress_45	"POPTR_0013s07050.1"	142	"	"T/C"	"63,8/36,2"	"37/21"	58
controllo_3	"POPTR_0013s07050.1"	351	"	"T/C"	"51,0/49,0"	"77/74"	151	stress_12bis	"POPTR_0013s07050.1"	351	"	"C/T"	"67,6/32,4"	"23/11"	34
controllo_3	"POPTR_0013s07050.1"	351	"	"T/C"	"51,0/49,0"	"77/74"	151	stress_42	"POPTR_0013s07050.1"	351	"	"C/T"	"69,8/30,2"	"30/13"	43
controllo_3	"POPTR_0013s07050.1"	351	"	"T/C"	"51,0/49,0"	"77/74"	151	stress_45	"POPTR_0013s07050.1"	351	"	"C/T"	"65,4/34,6"	"34/18"	52
controllo_3	"POPTR_0013s01080.1"	1017	"	"C/A"	"51,0/49,0"	"76/73"	149	stress_12bis	"POPTR_0013s01080.1"	1017	"	"A/C"	"56,4/43,6"	"31/24"	55
controllo_3	"POPTR_0013s01080.1"	1017	"	"C/A"	"51,0/49,0"	"76/73"	149	stress_42	"POPTR_0013s01080.1"	1017	"	"A/C"	"61,9/38,1"	"13/8"	21
controllo_3	"POPTR_0013s01080.1"	1017	"	"C/A"	"51,0/49,0"	"76/73"	149	stress_45	"POPTR_0013s01080.1"	1017	"	"A/C"	"61,1/38,9"	"11/7"	18
controllo_3	"POPTR_0014s02550.1"	1252	"	"T/A"	"51,0/49,0"	"75/72"	147	stress_12bis	"POPTR_0014s02550.1"	1252	"	"A/T"	"58,5/41,5"	"24/17"	41
controllo_3	"POPTR_0014s02550.1"	1252	"	"T/A"	"51,0/49,0"	"75/72"	147	stress_42	"POPTR_0014s02550.1"	1252	"	"A/T"	"58,6/41,4"	"41/29"	70
controllo_3	"POPTR_0014s02550.1"	1252	"	"T/A"	"51,0/49,0"	"75/72"	147	stress_45	"POPTR_0014s02550.1"	1252	"	"T/A"	"56,3/43,7"	"58/45"	103
controllo_3	"POPTR_0004s17530.1"	58	"	"A/C"	"51,0/49,0"	"53/51"	104	stress_12bis	"POPTR_0004s17530.1"	58	"	"C/A"	"55,0/45,0"	"11/9"	20
controllo_3	"POPTR_0004s17530.1"	58	"	"A/C"	"51,0/49,0"	"53/51"	104	stress_42	"POPTR_0004s17530.1"	58	"	"A/C"	"64,3/35,7"	"9/5"	14
controllo_3	"POPTR_0004s17530.1"	58	"	"A/C"	"51,0/49,0"	"53/51"	104	stress_45	"POPTR_0004s17530.1"	58	"	"A/C"	"52,4/47,6"	"11/10"	21
controllo_3	"POPTR_0011s05250.1"	1350	"	"G/A"	"51,0/49,0"	"50/48"	98	stress_45	"POPTR_0011s05250.1"	1350	"	"G/A"	"61,4/38,6"	"94/59"	153
controllo_3	"POPTR_0001s02500.1"	429	"	"G/A"	"51,0/49,0"	"181/174"	355	stress_12bis	"POPTR_0001s02500.1"	429	"	"G/A"	"55,0/45,0"	"33/27"	60
controllo_3	"POPTR_0001s10930.1"	354	"	"C/T"	"51,0/49,0"	"100/96"	196	stress_12bis	"POPTR_0001s10930.1"	354	"	"C/T"	"51,1/48,9"	"23/22"	45
controllo_3	"POPTR_0001s10930.1"	354	"	"C/T"	"51,0/49,0"	"100/96"	196	stress_42	"POPTR_0001s10930.1"	354	"	"C/T"	"60,0/40,0"	"24/16"	40
controllo_3	"POPTR_0001s10930.1"	354	"	"C/T"	"51,0/49,0"	"100/96"	196	stress_45	"POPTR_0001s10930.1"	354	"	"C/T"	"53,1/46,9"	"26/23"	49
controllo_3	"POPTR_0001s35220.1"	1026	"	"C/T"	"51,0/49,0"	"53/51"	104	stress_12bis	"POPTR_0001s35220.1"	1026	"	"T/C"	"60,0/40,0"	"18/12"	30
controllo_3	"POPTR_0001s35220.1"	1026	"	"C/T"	"51,0/49,0"	"53/51"	104	stress_42	"POPTR_0001s35220.1"	1026	"	"C/T"	"53,8/46,2"	"7/6"	13
controllo_3	"POPTR_0001s07870.1"	952	"	"C/T"	"51,0/49,0"	"74/71"	145	stress_12bis	"POPTR_0001s07870.1"	952	"	"T/C"	"56,2/43,8"	"9/7"	16
controllo_3	"POPTR_0001s07870.1"	952	"	"C/T"	"51,0/49,0"	"74/71"	145	stress_42	"POPTR_0001s07870.1"	952	"	"T/C"	"83,3/16,7"	"15/3"	18
controllo_3	"POPTR_0001s07870.1"	952	"	"C/T"	"51,0/49,0"	"74/71"	145	stress_45	"POPTR_0001s07870.1"	952	"	"T/C"	"68,6/31,4"	"24/11"	35
controllo_3	"POPTR_0001s08770.1"	1179	"	"G/T"	"51,0/49,0"	"246/236"	482	stress_12bis	"POPTR_0001s08770.1"	1179	"	"T/G"	"51,0/49,0"	"80/77"	157
controllo_3	"POPTR_0001s08770.1"	1179	"	"G/T"	"51,0/49,0"	"246/236"	482	stress_42	"POPTR_0001s08770.1"	1179	"	"G/T"	"50,8/49,2"	"33/32"	65
controllo_3	"POPTR_0001s08770.1"	1179	"	"G/T"	"51,0/49,0"	"246/236"	482	stress_45	"POPTR_0001s08770.1"	1179	"	"G/T"	"61,5/38,5"	"59/37"	96
controllo_3	"POPTR_0010s21700.1"	489	"	"C/A"	"51,0/49,0"	"154/148"	302	stress_42	"POPTR_0010s21700.1"	489	"	"A/C"	"50,0/50,0"	"34/34"	68
controllo_3	"POPTR_0010s21700.1"	489	"	"C/A"	"51,0/49,0"	"154/148"	302	stress_45	"POPTR_0010s21700.1"	489	"	"C/A"	"54,5/45,5"	"12/10"	22
controllo_3	"POPTR_0007s08400.1"	1827	"	"A/C"	"51,0/49,0"	"99/95"	194	stress_12bis	"POPTR_0007s08400.1"	1827	"	"A/C"	"52,8/47,2"	"28/25"	53
controllo_3	"POPTR_0007s08400.1"	1827	"	"A/C"	"51,0/49,0"	"99/95"	194	stress_42	"POPTR_0007s08400.1"	1827	"	"C/A"	"58,6/41,4"	"41/29"	70
controllo_3	"POPTR_0007s08400.1"	1827	"	"A/C"	"51,0/49,0"	"99/95"	194	stress_45	"POPTR_0007s08400.1"	1827	"	"C/A"	"56,1/43,9"	"92/72"	164
controllo_3	"POPTR_0007s04160.1"	165	"	"T/C"	"51,0/49,0"	"226/217"	443	stress_12bis	"POPTR_0007s04160.1"	165	"	"C/T"	"54,2/45,8"	"64/54"	118
controllo_3	"POPTR_0007s04160.1"	165	"	"T/C"	"51,0/49,0"	"226/217"	443	stress_42	"POPTR_0007s04160.1"	165	"	"C/T"	"60,5/39,5"	"23/15"	38
controllo_3	"POPTR_0007s04160.1"	165	"	"T/C"	"51,0/49,0"	"226/217"	443	stress_45	"POPTR_0007s04160.1"	165	"	"T/C"	"60,9/39,1"	"14/9"	23
controllo_3	"POPTR_0007s04180.1"	606	"	"A/T"	"51,0/49,0"	"79/76"	155	stress_12bis	"POPTR_0007s04180.1"	606	"	"T/A"	"59,0/41,0"	"36/25"	61
controllo_3	"POPTR_0007s04180.1"	606	"	"A/T"	"51,0/49,0"	"79/76"	155	stress_42	"POPTR_0007s04180.1"	606	"	"T/A"	"61,1/38,9"	"11/7"	18
controllo_3	"POPTR_0007s04180.1"	606	"	"A/T"	"51,0/49,0"	"79/76"	155	stress_45	"POPTR_0007s04180.1"	606	"	"T/A"	"54,2/45,8"	"13/11"	24
controllo_3	"POPTR_0007s14540.1"	100	"	"C/A"	"51,0/49,0"	"52/50"	102	stress_12bis	"POPTR_0007s14540.1"	100	"	"A/C"	"51,9/48,1"	"14/13"	27
controllo_3	"POPTR_0007s14540.1"	100	"	"C/A"	"51,0/49,0"	"52/50"	102	stress_42	"POPTR_0007s14540.1"	100	"	"A/C"	"50,0/50,0"	"33/33"	66
controllo_3	"POPTR_0007s14540.1"	100	"	"C/A"	"51,0/49,0"	"52/50"	102	stress_45	"POPTR_0007s14540.1"	100	"	"A/C"	"50,0/48,3"	"29/28"	58
controllo_3	"POPTR_0002s01570.1"	1002	"	"C/T"	"51,0/49,0"	"52/50"	102	stress_12bis	"POPTR_0002s01570.1"	1002	"	"T/C"	"54,8/45,2"	"17/14"	31
controllo_3	"POPTR_0002s01570.1"	1002	"	"C/T"	"51,0/49,0"	"52/50"	102	stress_42	"POPTR_0002s01570.1"	1002	"	"T/C"	"58,9/41,1"	"33/23"	56
controllo_3	"POPTR_0002s01570.1"	1002	"	"C/T"	"51,0/49,0"	"52/50"	102	stress_45	"POPTR_0002s01570.1"	1002	"	"T/C"	"60,0/40,0"	"27/18"	45
controllo_3	"POPTR_0002s09480.1"	219	"	"T/C"	"51,0/49,0"	"26/25"	51	stress_45	"POPTR_0002s09480.1"	219	"	"T/C"	"53,8/46,2"	"63/54"	117
controllo_3	"POPTR_0008s15930.1"	1018	"	"A/G"	"51,0/49,0"	"52/50"	102	stress_12bis	"POPTR_0008s15930.1"	1018	"	"A/G"	"50,0/50,0"	"13/13"	26
controllo_3	"POPTR_0008s15930.1"	1018	"	"A/G"	"51,0/49,0"	"52/50"	102	stress_45	"POPTR_0008s15930.1"	1018	"	"G/A"	"58,7/41,3"	"37/26"	63
controllo_3	"POPTR_0008s05480.1"	24	"	"G/T"	"51,0/49,0"	"156/150"	306	stress_12bis	"POPTR_0008s05480.1"	24	"	"G/T"	"50,9/49,1"	"59/57"	116
controllo_3	"POPTR_0008s05480.1"	24	"	"G/T"	"51,0/49,0"	"156/150"	306	stress_42	"POPTR_0008s05480.1"	24	"	"T/G"	"66,0/34,0"	"35/18"	53
controllo_3	"POPTR_0008s05480.1"	24	"	"G/T"	"51,0/49,0"	"156/150"	306	stress_45	"POPTR_0008s05480.1"	24	"	"T/G"	"68,8/31,2"	"88/40"	128
controllo_3	"POPTR_0008s10050.1"	867	"	"T/C"	"51,0/49,0"	"79/76"	155	stress_12bis	"POPTR_0008s10050.1"	867	"	"C/T"	"61,1/38,9"	"22/14"	36
controllo_3	"POPTR_0008s10050.1"	867	"	"T/C"	"51,0/49,0"	"79/76"	155	stress_42	"POPTR_0008s10050.1"	867	"	"C/T"	"63,2/36,8"	"12/7"	19
controllo_3	"POPTR_0008s10050.1"	867	"	"T/C"	"51,0/49,0"	"79/76"	155	stress_45	"POPTR_0008s10050.1"	867	"	"C/T"	"64,7/35,3"	"11/6"	17
controllo_3	"POPTR_0008s10020.1"	1224	"	"C/T"	"51,0/49,0"	"148/142"	290	stress_12bis	"POPTR_0008s10020.1"	1224	"	"T/C"	"54,0/46,0"	"47/40"	87
controllo_3	"POPTR_0008s10020.1"	1224	"	"C/T"	"51,0/49,0"	"148/142"	290	stress_42	"POPTR_0008s10020.1"	1224	"	"T/C"	"55,9/44,1"	"33/26"	59
controllo_3	"POPTR_0008s10020.1"	1224	"	"C/T"	"51,0/49,0"	"148/142"	290	stress_45	"POPTR_0008s10020.1"	1224	"	"T/C"	"54,3/45,7"	"38/32"	70
controllo_3	"POPTR_0008s11750.1"	138	"	"A/T"	"51,0/49,0"	"76/73"	149	stress_12bis	"POPTR_0008s11750.1"	138	"	"T/A"	"62,7/37,3"	"32/19"	51
controllo_3	"POPTR_0008s11750.1"	138	"	"A/T"	"51,0/49,0"	"76/73"	149	stress_42	"POPTR_0008s11750.1"	138	"	"T/A"	"61,8/38,2"	"21/13"	34
controllo_3	"POPTR_0008s11750.1"	138	"	"A/T"	"51,0/49,0"	"76/73"	149	stress_45	"POPTR_0008s11750.1"	138	"	"T/A"	"51,5/48,5"	"17/16"	33
controllo_3	"POPTR_0016s06540.1"	406	"	"C/T"	"51,0/49,0"	"52/50"	102	stress_12bis	"POPTR_0016s06540.1"	406	"	"C/T"	"70,0/30,0"	"7/3"	10
controllo_3	"POPTR_0002s19710.1"	216	"	"G/T"	"51,1/48,5"	"592/562"	1158	stress_12bis	"POPTR_0002s19710.1"	216	"	"T/G"	"50,5/49,3"	"215/210"	426
controllo_3	"POPTR_0002s19710.1"	216	"	"G/T"	"51,1/48,5"	"592/562"	1158	stress_42	"POPTR_0002s19710.1"	216	"	"T/G"	"56,6/42,8"	"86/65"	152
controllo_3	"POPTR_0002s19710.1"	216	"	"G/T"	"51,1/48,5"	"592/562"	1158	stress_45	"POPTR_0002s19710.1"	216	"	"G/T"	"50,3/49,0"	"78/76"	155
controllo_3	"POPTR_0008s08410.1"	982	"	"A/T"	"51,1/48,7"	"325/310"	636	stress_12bis	"POPTR_0008s08410.1"	982	"	"A/T"	"56,2/43,8"	"95/74"	169
controllo_3	"POPTR_0008s08410.1"	982	"	"A/T"	"51,1/48,7"	"325/310"	636	stress_42	"POPTR_0008s08410.1"	982	"	"A/T"	"69,0/31,0"	"29/13"	42
controllo_3	"POPTR_0008s08410.1"	982	"	"A/T"	"51,1/48,7"	"325/310"	636	stress_45	"POPTR_0008s08410.1"	982	"	"A/T"	"66,7/33,3"	"32/16"	48
controllo_3	"POPTR_0012s09570.1"	510	"	"T/C"	"51,1/48,8"	"314/300"	615	stress_12bis	"POPTR_0012s09570.1"	510	"	"C/T"	"55,0/45,0"	"60/49"	109
controllo_3	"POPTR_0012s09570.1"	510	"	"T/C"	"51,1/48,8"	"314/300"	615	stress_42	"POPTR_0012s09570.1"	510	"	"C/T"	"58,4/41,6"	"87/62"	149
controllo_3	"POPTR_0012s09570.1"	510	"	"T/C"	"51,1/48,8"	"314/300"	615	stress_45	"POPTR_0012s09570.1"	510	"	"C/T"	"58,6/41,4"	"126/89"	215
controllo_3	"POPTR_0006s14400.1"	36	"	"C/T"	"51,1/48,9"	"559/534"	1093	stress_12bis	"POPTR_0006s14400.1"	36	"	"C/T"	"53,2/46,8"	"148/130"	278
controllo_3	"POPTR_0006s14400.1"	36	"	"C/T"	"51,1/48,9"	"559/534"	1093	stress_42	"POPTR_0006s14400.1"	36	"	"T/C"	"73,3/26,7"	"340/124"	464
controllo_3	"POPTR_0006s14400.1"	36	"	"C/T"	"51,1/48,9"	"559/534"	1093	stress_45	"POPTR_0006s14400.1"	36	"	"T/C"	"79,5/20,5"	"583/150"	733
controllo_3	"POPTR_0006s04960.1"	3177	"	"A/G"	"51,1/48,9"	"247/236"	483	stress_12bis	"POPTR_0006s04960.1"	3177	"	"A/G"	"53,1/46,9"	"51/45"	96
controllo_3	"POPTR_0006s04960.1"	3177	"	"A/G"	"51,1/48,9"	"247/236"	483	stress_42	"POPTR_0006s04960.1"	3177	"	"G/A"	"67,9/32,1"	"19/9"	28
controllo_3	"POPTR_0006s04960.1"	3177	"	"A/G"	"51,1/48,9"	"247/236"	483	stress_45	"POPTR_0006s04960.1"	3177	"	"A/G"	"50,0/47,8"	"23/22"	46
controllo_3	"POPTR_0018s02960.1"	1364	"	"G/A"	"51,1/48,9"	"70/67"	137	stress_12bis	"POPTR_0018s02960.1"	1364	"	"G/A"	"58,3/41,7"	"7/5"	12
controllo_3	"POPTR_0018s02960.1"	1364	"	"G/A"	"51,1/48,9"	"70/67"	137	stress_45	"POPTR_0018s02960.1"	1364	"	"G/A"	"55,6/44,4"	"10/8"	18
controllo_3	"POPTR_0003s08070.1"	148	"	"G/T"	"51,1/48,9"	"89/85"	174	stress_12bis	"POPTR_0003s08070.1"	148	"	"G/T"	"58,3/40,0"	"35/24"	60
controllo_3	"POPTR_0003s08070.1"	148	"	"G/T"	"51,1/48,9"	"89/85"	174	stress_42	"POPTR_0003s08070.1"	148	"	"G/T"	"57,1/42,9"	"24/18"	42
controllo_3	"POPTR_0003s08070.1"	148	"	"G/T"	"51,1/48,9"	"89/85"	174	stress_45	"POPTR_0003s08070.1"	148	"	"G/T"	"61,2/38,8"	"30/19"	49
controllo_3	"POPTR_0003s11300.1"	1209	"	"T/C"	"51,1/48,9"	"119/114"	233	stress_12bis	"POPTR_0003s11300.1"	1209	"	"T/C"	"54,4/45,6"	"56/47"	103
controllo_3	"POPTR_0003s11300.1"	1209	"	"T/C"	"51,1/48,9"	"119/114"	233	stress_42	"POPTR_0003s11300.1"	1209	"	"T/C"	"63,6/36,4"	"7/4"	11
controllo_3	"POPTR_0003s11300.1"	1209	"	"T/C"	"51,1/48,9"	"119/114"	233	stress_45	"POPTR_0003s11300.1"	1209	"	"T/C"	"58,3/41,7"	"14/10"	24
controllo_3	"POPTR_0003s11300.1"	2049	"	"T/C"	"51,1/48,9"	"189/181"	370	stress_12bis	"POPTR_0003s11300.1"	2049	"	"T/C"	"51,4/48,6"	"71/67"	138
controllo_3	"POPTR_0003s11300.1"	2049	"	"T/C"	"51,1/48,9"	"189/181"	370	stress_42	"POPTR_0003s11300.1"	2049	"	"C/T"	"55,1/44,9"	"27/22"	49
controllo_3	"POPTR_0003s11300.1"	2049	"	"T/C"	"51,1/48,9"	"189/181"	370	stress_45	"POPTR_0003s11300.1"	2049	"	"T/C"	"55,1/44,9"	"27/22"	49
controllo_3	"POPTR_0019s11720.1"	224	"	"T/C"	"51,1/48,9"	"246/235"	481	stress_12bis	"POPTR_0019s11720.1"	224	"	"T/C"	"55,2/44,8"	"64/52"	116
controllo_3	"POPTR_0019s11720.1"	224	"	"T/C"	"51,1/48,9"	"246/235"	481	stress_42	"POPTR_0019s11720.1"	224	"	"T/C"	"65,9/34,1"	"27/14"	41
controllo_3	"POPTR_0019s11720.1"	224	"	"T/C"	"51,1/48,9"	"246/235"	481	stress_45	"POPTR_0019s11720.1"	224	"	"C/T"	"50,0/50,0"	"27/27"	54
controllo_3	"POPTR_0013s06710.1"	450	"	"G/T"	"51,1/48,9"	"116/111"	227	stress_12bis	"POPTR_0013s06710.1"	450	"	"G/T"	"60,6/39,4"	"40/26"	66
controllo_3	"POPTR_0013s06710.1"	450	"	"G/T"	"51,1/48,9"	"116/111"	227	stress_42	"POPTR_0013s06710.1"	450	"	"T/G"	"54,2/45,8"	"13/11"	24
controllo_3	"POPTR_0013s06710.1"	450	"	"G/T"	"51,1/48,9"	"116/111"	227	stress_45	"POPTR_0013s06710.1"	450	"	"G/T"	"50,0/50,0"	"23/23"	46
controllo_3	"POPTR_0014s02410.1"	813	"	"G/A"	"51,1/48,9"	"522/500"	1022	stress_12bis	"POPTR_0014s02410.1"	813	"	"G/A"	"64,1/35,9"	"84/47"	131
controllo_3	"POPTR_0014s02410.1"	813	"	"G/A"	"51,1/48,9"	"522/500"	1022	stress_42	"POPTR_0014s02410.1"	813	"	"A/G"	"54,3/45,7"	"107/90"	197
controllo_3	"POPTR_0014s02410.1"	813	"	"G/A"	"51,1/48,9"	"522/500"	1022	stress_45	"POPTR_0014s02410.1"	813	"	"A/G"	"52,1/47,9"	"207/190"	397
controllo_3	"POPTR_0004s03160.1"	433	"	"C/G"	"51,1/48,9"	"435/417"	852	stress_12bis	"POPTR_0004s03160.1"	433	"	"G/C"	"60,8/39,2"	"127/82"	209
controllo_3	"POPTR_0004s03160.1"	433	"	"C/G"	"51,1/48,9"	"435/417"	852	stress_42	"POPTR_0004s03160.1"	433	"	"G/C"	"71,1/28,9"	"27/11"	38
controllo_3	"POPTR_0004s03160.1"	433	"	"C/G"	"51,1/48,9"	"435/417"	852	stress_45	"POPTR_0004s03160.1"	433	"	"G/C"	"65,0/35,0"	"13/7"	20
controllo_3	"POPTR_0004s14780.1"	498	"	"G/A"	"51,1/48,9"	"141/135"	276	stress_12bis	"POPTR_0004s14780.1"	498	"	"A/G"	"54,6/45,4"	"59/49"	108
controllo_3	"POPTR_0004s14780.1"	498	"	"G/A"	"51,1/48,9"	"141/135"	276	stress_42	"POPTR_0004s14780.1"	498	"	"G/A"	"51,1/48,9"	"24/23"	47
controllo_3	"POPTR_0004s14780.1"	498	"	"G/A"	"51,1/48,9"	"141/135"	276	stress_45	"POPTR_0004s14780.1"	498	"	"A/G"	"51,7/48,3"	"30/28"	58
controllo_3	"POPTR_0004s18190.1"	1064	"	"G/A"	"51,1/48,9"	"514/492"	1006	stress_12bis	"POPTR_0004s18190.1"	1064	"	"G/A"	"52,8/47,2"	"239/214"	453
controllo_3	"POPTR_0004s18190.1"	1064	"	"G/A"	"51,1/48,9"	"514/492"	1006	stress_42	"POPTR_0004s18190.1"	1064	"	"G/A"	"55,8/44,2"	"72/57"	129
controllo_3	"POPTR_0004s18190.1"	1064	"	"G/A"	"51,1/48,9"	"514/492"	1006	stress_45	"POPTR_0004s18190.1"	1064	"	"G/A"	"55,3/44,7"	"47/38"	85
controllo_3	"POPTR_0012s11410.1"	471	"	"C/T"	"51,1/48,9"	"67/64"	131	stress_12bis	"POPTR_0012s11410.1"	471	"	"T/C"	"58,6/41,4"	"17/12"	29
controllo_3	"POPTR_0012s11410.1"	471	"	"C/T"	"51,1/48,9"	"67/64"	131	stress_42	"POPTR_0012s11410.1"	471	"	"C/T"	"56,0/44,0"	"14/11"	25
controllo_3	"POPTR_0012s11410.1"	471	"	"C/T"	"51,1/48,9"	"67/64"	131	stress_45	"POPTR_0012s11410.1"	471	"	"T/C"	"63,3/36,7"	"19/11"	30
controllo_3	"POPTR_0011s05670.1"	954	"	"A/C"	"51,1/48,9"	"141/135"	276	stress_12bis	"POPTR_0011s05670.1"	954	"	"A/C"	"54,7/45,3"	"41/34"	75
controllo_3	"POPTR_0011s05670.1"	954	"	"A/C"	"51,1/48,9"	"141/135"	276	stress_42	"POPTR_0011s05670.1"	954	"	"A/C"	"56,2/43,8"	"27/21"	48
controllo_3	"POPTR_0011s05670.1"	954	"	"A/C"	"51,1/48,9"	"141/135"	276	stress_45	"POPTR_0011s05670.1"	954	"	"A/C"	"57,1/42,9"	"32/24"	56
controllo_3	"POPTR_0001s07870.1"	648	"	"G/A"	"51,1/48,9"	"69/66"	135	stress_12bis	"POPTR_0001s07870.1"	648	"	"G/A"	"64,7/35,3"	"11/6"	17
controllo_3	"POPTR_0001s07870.1"	648	"	"G/A"	"51,1/48,9"	"69/66"	135	stress_45	"POPTR_0001s07870.1"	648	"	"A/G"	"79,1/18,6"	"34/8"	43
controllo_3	"POPTR_0001s25520.1"	920	"	"A/C"	"51,1/48,9"	"67/64"	131	stress_12bis	"POPTR_0001s25520.1"	920	"	"A/C"	"65,3/34,7"	"32/17"	49
controllo_3	"POPTR_0001s25520.1"	920	"	"A/C"	"51,1/48,9"	"67/64"	131	stress_42	"POPTR_0001s25520.1"	920	"	"A/C"	"56,9/43,1"	"33/25"	58
controllo_3	"POPTR_0001s25520.1"	920	"	"A/C"	"51,1/48,9"	"67/64"	131	stress_45	"POPTR_0001s25520.1"	920	"	"C/A"	"64,3/35,7"	"27/15"	42
controllo_3	"POPTR_0001s40480.1"	20	"	"C/T"	"51,1/48,9"	"139/133"	272	stress_12bis	"POPTR_0001s40480.1"	20	"	"T/C"	"51,2/48,8"	"41/39"	80
controllo_3	"POPTR_0001s40480.1"	20	"	"C/T"	"51,1/48,9"	"139/133"	272	stress_42	"POPTR_0001s40480.1"	20	"	"T/C"	"57,1/42,9"	"8/6"	14
controllo_3	"POPTR_0001s40480.1"	20	"	"C/T"	"51,1/48,9"	"139/133"	272	stress_45	"POPTR_0001s40480.1"	20	"	"T/C"	"57,1/42,9"	"8/6"	14
controllo_3	"POPTR_0010s14080.1"	1992	"	"G/T"	"51,1/48,9"	"134/128"	262	stress_12bis	"POPTR_0010s14080.1"	1992	"	"G/T"	"60,6/39,4"	"63/41"	104
controllo_3	"POPTR_0010s14080.1"	1992	"	"G/T"	"51,1/48,9"	"134/128"	262	stress_42	"POPTR_0010s14080.1"	1992	"	"G/T"	"63,9/36,1"	"23/13"	36
controllo_3	"POPTR_0010s14080.1"	1992	"	"G/T"	"51,1/48,9"	"134/128"	262	stress_45	"POPTR_0010s14080.1"	1992	"	"G/T"	"68,4/31,6"	"39/18"	57
controllo_3	"POPTR_0002s14730.1"	240	"	"G/C"	"51,1/48,9"	"227/217"	444	stress_12bis	"POPTR_0002s14730.1"	240	"	"G/C"	"58,3/41,7"	"67/48"	115
controllo_3	"POPTR_0002s14730.1"	240	"	"G/C"	"51,1/48,9"	"227/217"	444	stress_42	"POPTR_0002s14730.1"	240	"	"G/C"	"58,8/41,2"	"10/7"	17
controllo_3	"POPTR_0002s14730.1"	240	"	"G/C"	"51,1/48,9"	"227/217"	444	stress_45	"POPTR_0002s14730.1"	240	"	"C/G"	"53,3/46,7"	"16/14"	30
controllo_3	"POPTR_0002s25620.1"	975	"	"T/C"	"51,1/48,9"	"112/107"	219	stress_12bis	"POPTR_0002s25620.1"	975	"	"T/C"	"63,9/36,1"	"46/26"	72
controllo_3	"POPTR_0002s25620.1"	975	"	"T/C"	"51,1/48,9"	"112/107"	219	stress_42	"POPTR_0002s25620.1"	975	"	"T/C"	"61,3/38,7"	"19/12"	31
controllo_3	"POPTR_0002s25620.1"	975	"	"T/C"	"51,1/48,9"	"112/107"	219	stress_45	"POPTR_0002s25620.1"	975	"	"T/C"	"56,9/43,1"	"29/22"	51
controllo_3	"POPTR_0002s21340.1"	1083	"	"T/C"	"51,1/48,9"	"72/69"	141	stress_12bis	"POPTR_0002s21340.1"	1083	"	"C/T"	"54,8/45,2"	"34/28"	62
controllo_3	"POPTR_0002s21340.1"	1083	"	"T/C"	"51,1/48,9"	"72/69"	141	stress_42	"POPTR_0002s21340.1"	1083	"	"T/C"	"58,6/41,4"	"41/29"	70
controllo_3	"POPTR_0002s21340.1"	1083	"	"T/C"	"51,1/48,9"	"72/69"	141	stress_45	"POPTR_0002s21340.1"	1083	"	"T/C"	"50,5/49,5"	"54/53"	107
controllo_3	"POPTR_0016s08520.1"	415	"	"G/A"	"51,1/48,9"	"46/44"	90	stress_45	"POPTR_0016s08520.1"	415	"	"G/A"	"50,9/49,1"	"55/53"	108
controllo_3	"POPTR_0014s17070.1"	699	"	"A/T"	"51,2/48,3"	"797/752"	1557	stress_12bis	"POPTR_0014s17070.1"	699	"	"T/A"	"50,9/48,5"	"233/222"	458
controllo_3	"POPTR_0014s17070.1"	699	"	"A/T"	"51,2/48,3"	"797/752"	1557	stress_42	"POPTR_0014s17070.1"	699	"	"T/A"	"51,2/48,8"	"85/81"	166
controllo_3	"POPTR_0014s17070.1"	699	"	"A/T"	"51,2/48,3"	"797/752"	1557	stress_45	"POPTR_0014s17070.1"	699	"	"T/A"	"55,6/44,4"	"94/75"	169
controllo_3	"POPTR_0006s10040.1"	324	"	"A/G"	"51,2/48,5"	"187/177"	365	stress_12bis	"POPTR_0006s10040.1"	324	"	"A/G"	"52,8/47,2"	"131/117"	248
controllo_3	"POPTR_0006s10040.1"	324	"	"A/G"	"51,2/48,5"	"187/177"	365	stress_42	"POPTR_0006s10040.1"	324	"	"G/A"	"60,4/39,6"	"61/40"	101
controllo_3	"POPTR_0006s10040.1"	324	"	"A/G"	"51,2/48,5"	"187/177"	365	stress_45	"POPTR_0006s10040.1"	324	"	"G/A"	"51,5/48,5"	"51/48"	99
controllo_3	"POPTR_0003s12870.1"	816	"	"T/A"	"51,2/48,5"	"173/164"	338	stress_12bis	"POPTR_0003s12870.1"	816	"	"A/T"	"60,6/39,4"	"43/28"	71
controllo_3	"POPTR_0003s12870.1"	816	"	"T/A"	"51,2/48,5"	"173/164"	338	stress_42	"POPTR_0003s12870.1"	816	"	"T/A"	"53,3/46,7"	"40/35"	75
controllo_3	"POPTR_0003s12870.1"	816	"	"T/A"	"51,2/48,5"	"173/164"	338	stress_45	"POPTR_0003s12870.1"	816	"	"T/A"	"58,9/41,1"	"43/30"	73
controllo_3	"POPTR_0006s06740.1"	114	"	"C/T"	"51,2/48,8"	"110/105"	215	stress_12bis	"POPTR_0006s06740.1"	114	"	"C/T"	"72,7/27,3"	"8/3"	11
controllo_3	"POPTR_0006s11620.1"	1212	"	"T/C"	"51,2/48,8"	"66/63"	129	stress_12bis	"POPTR_0006s11620.1"	1212	"	"T/C"	"52,0/44,0"	"13/11"	25
controllo_3	"POPTR_0006s11620.1"	1212	"	"T/C"	"51,2/48,8"	"66/63"	129	stress_42	"POPTR_0006s11620.1"	1212	"	"C/T"	"53,8/46,2"	"7/6"	13
controllo_3	"POPTR_0006s11620.1"	1212	"	"T/C"	"51,2/48,8"	"66/63"	129	stress_45	"POPTR_0006s11620.1"	1212	"	"C/T"	"66,7/30,3"	"22/10"	33
controllo_3	"POPTR_0006s11570.1"	582	"	"C/T"	"51,2/48,8"	"105/100"	205	stress_12bis	"POPTR_0006s11570.1"	582	"	"T/C"	"60,8/39,2"	"45/29"	74
controllo_3	"POPTR_0006s11570.1"	582	"	"C/T"	"51,2/48,8"	"105/100"	205	stress_42	"POPTR_0006s11570.1"	582	"	"T/C"	"53,3/46,7"	"32/28"	60
controllo_3	"POPTR_0006s11570.1"	582	"	"C/T"	"51,2/48,8"	"105/100"	205	stress_45	"POPTR_0006s11570.1"	582	"	"C/T"	"50,6/49,4"	"40/39"	79
controllo_3	"POPTR_0006s03660.1"	3342	"	"A/T"	"51,2/48,8"	"104/99"	203	stress_12bis	"POPTR_0006s03660.1"	3342	"	"T/A"	"59,1/40,9"	"26/18"	44
controllo_3	"POPTR_0006s03660.1"	3342	"	"A/T"	"51,2/48,8"	"104/99"	203	stress_42	"POPTR_0006s03660.1"	3342	"	"T/A"	"60,0/40,0"	"6/4"	10
controllo_3	"POPTR_0006s03660.1"	3342	"	"A/T"	"51,2/48,8"	"104/99"	203	stress_45	"POPTR_0006s03660.1"	3342	"	"T/A"	"54,7/45,3"	"35/29"	64
controllo_3	"POPTR_0006s00620.1"	1633	"	"G/A"	"51,2/48,8"	"83/79"	162	stress_12bis	"POPTR_0006s00620.1"	1633	"	"G/A"	"64,0/36,0"	"16/9"	25
controllo_3	"POPTR_0006s00620.1"	1633	"	"G/A"	"51,2/48,8"	"83/79"	162	stress_45	"POPTR_0006s00620.1"	1633	"	"G/A"	"80,0/20,0"	"8/2"	10
controllo_3	"POPTR_0006s17950.1"	201	"	"T/A"	"51,2/48,8"	"66/63"	129	stress_12bis	"POPTR_0006s17950.1"	201	"	"A/T"	"59,5/40,5"	"25/17"	42
controllo_3	"POPTR_0006s17950.1"	201	"	"T/A"	"51,2/48,8"	"66/63"	129	stress_42	"POPTR_0006s17950.1"	201	"	"A/T"	"60,0/40,0"	"12/8"	20
controllo_3	"POPTR_0006s17950.1"	201	"	"T/A"	"51,2/48,8"	"66/63"	129	stress_45	"POPTR_0006s17950.1"	201	"	"T/A"	"57,7/42,3"	"15/11"	26
controllo_3	"POPTR_0003s20890.1"	122	"	"C/A"	"51,2/48,8"	"65/62"	127	stress_12bis	"POPTR_0003s20890.1"	122	"	"A/C"	"55,6/44,4"	"10/8"	18
controllo_3	"POPTR_0019s09140.1"	749	"	"A/T"	"51,2/48,8"	"710/677"	1387	stress_12bis	"POPTR_0019s09140.1"	749	"	"A/T"	"54,9/45,1"	"245/201"	446
controllo_3	"POPTR_0019s09140.1"	749	"	"A/T"	"51,2/48,8"	"710/677"	1387	stress_42	"POPTR_0019s09140.1"	749	"	"A/T"	"51,4/48,6"	"93/88"	181
controllo_3	"POPTR_0019s09140.1"	749	"	"A/T"	"51,2/48,8"	"710/677"	1387	stress_45	"POPTR_0019s09140.1"	749	"	"A/T"	"59,5/40,5"	"113/77"	190
controllo_3	"POPTR_0013s00610.1"	1110	"	"G/C"	"51,2/48,8"	"62/59"	121	stress_12bis	"POPTR_0013s00610.1"	1110	"	"G/C"	"60,0/40,0"	"21/14"	35
controllo_3	"POPTR_0013s00610.1"	1110	"	"G/C"	"51,2/48,8"	"62/59"	121	stress_42	"POPTR_0013s00610.1"	1110	"	"G/C"	"70,8/29,2"	"17/7"	24
controllo_3	"POPTR_0013s00610.1"	1110	"	"G/C"	"51,2/48,8"	"62/59"	121	stress_45	"POPTR_0013s00610.1"	1110	"	"C/G"	"53,6/46,4"	"15/13"	28
controllo_3	"POPTR_0013s04210.1"	896	"	"C/G"	"51,2/48,8"	"66/63"	129	stress_12bis	"POPTR_0013s04210.1"	896	"	"G/C"	"63,8/36,2"	"30/17"	47
controllo_3	"POPTR_0013s04210.1"	896	"	"C/G"	"51,2/48,8"	"66/63"	129	stress_42	"POPTR_0013s04210.1"	896	"	"C/G"	"58,3/41,7"	"7/5"	12
controllo_3	"POPTR_0013s04210.1"	896	"	"C/G"	"51,2/48,8"	"66/63"	129	stress_45	"POPTR_0013s04210.1"	896	"	"G/C"	"59,1/40,9"	"13/9"	22
controllo_3	"POPTR_0014s10200.1"	63	"	"A/G"	"51,2/48,8"	"461/439"	900	stress_12bis	"POPTR_0014s10200.1"	63	"	"G/A"	"60,8/39,2"	"197/127"	324
controllo_3	"POPTR_0014s10200.1"	63	"	"A/G"	"51,2/48,8"	"461/439"	900	stress_42	"POPTR_0014s10200.1"	63	"	"G/A"	"74,1/25,9"	"40/14"	54
controllo_3	"POPTR_0014s10200.1"	63	"	"A/G"	"51,2/48,8"	"461/439"	900	stress_45	"POPTR_0014s10200.1"	63	"	"G/A"	"51,6/48,4"	"33/31"	64
controllo_3	"POPTR_0014s04380.1"	216	"	"T/C"	"51,2/48,8"	"83/79"	162	stress_12bis	"POPTR_0014s04380.1"	216	"	"C/T"	"61,0/39,0"	"25/16"	41
controllo_3	"POPTR_0014s04380.1"	216	"	"T/C"	"51,2/48,8"	"83/79"	162	stress_42	"POPTR_0014s04380.1"	216	"	"C/T"	"57,6/42,4"	"19/14"	33
controllo_3	"POPTR_0014s04380.1"	216	"	"T/C"	"51,2/48,8"	"83/79"	162	stress_45	"POPTR_0014s04380.1"	216	"	"C/T"	"59,5/40,5"	"25/17"	42
controllo_3	"POPTR_0014s02550.1"	1077	"	"C/T"	"51,2/48,8"	"66/63"	129	stress_12bis	"POPTR_0014s02550.1"	1077	"	"T/C"	"54,5/45,5"	"36/30"	66
controllo_3	"POPTR_0014s02550.1"	1077	"	"C/T"	"51,2/48,8"	"66/63"	129	stress_42	"POPTR_0014s02550.1"	1077	"	"C/T"	"53,1/46,9"	"34/30"	64
controllo_3	"POPTR_0014s02550.1"	1077	"	"C/T"	"51,2/48,8"	"66/63"	129	stress_45	"POPTR_0014s02550.1"	1077	"	"C/T"	"55,3/44,7"	"57/46"	103
controllo_3	"POPTR_0014s00250.1"	737	"	"T/A"	"51,2/48,8"	"85/81"	166	stress_12bis	"POPTR_0014s00250.1"	737	"	"T/A"	"52,8/47,2"	"19/17"	36
controllo_3	"POPTR_0014s00250.1"	737	"	"T/A"	"51,2/48,8"	"85/81"	166	stress_45	"POPTR_0014s00250.1"	737	"	"T/A"	"52,9/47,1"	"9/8"	17
controllo_3	"POPTR_0014s14200.1"	633	"	"G/A"	"51,2/48,8"	"167/159"	326	stress_12bis	"POPTR_0014s14200.1"	633	"	"G/A"	"66,7/33,3"	"16/8"	24
controllo_3	"POPTR_0014s14200.1"	633	"	"G/A"	"51,2/48,8"	"167/159"	326	stress_42	"POPTR_0014s14200.1"	633	"	"G/A"	"71,4/28,6"	"25/10"	35
controllo_3	"POPTR_0014s14200.1"	633	"	"G/A"	"51,2/48,8"	"167/159"	326	stress_45	"POPTR_0014s14200.1"	633	"	"G/A"	"64,3/35,7"	"83/46"	129
controllo_3	"POPTR_0014s02410.1"	1263	"	"G/T"	"51,2/48,8"	"624/594"	1218	stress_12bis	"POPTR_0014s02410.1"	1263	"	"T/G"	"55,9/44,1"	"109/86"	195
controllo_3	"POPTR_0014s02410.1"	1263	"	"G/T"	"51,2/48,8"	"624/594"	1218	stress_42	"POPTR_0014s02410.1"	1263	"	"T/G"	"51,5/48,5"	"191/180"	371
controllo_3	"POPTR_0014s02410.1"	1263	"	"G/T"	"51,2/48,8"	"624/594"	1218	stress_45	"POPTR_0014s02410.1"	1263	"	"T/G"	"51,9/48,1"	"305/283"	588
controllo_3	"POPTR_0014s10260.1"	909	"	"G/A"	"51,2/48,8"	"166/158"	324	stress_12bis	"POPTR_0014s10260.1"	909	"	"G/A"	"59,7/40,3"	"37/25"	62
controllo_3	"POPTR_0014s10260.1"	909	"	"G/A"	"51,2/48,8"	"166/158"	324	stress_42	"POPTR_0014s10260.1"	909	"	"A/G"	"62,2/37,8"	"23/14"	37
controllo_3	"POPTR_0014s10260.1"	909	"	"G/A"	"51,2/48,8"	"166/158"	324	stress_45	"POPTR_0014s10260.1"	909	"	"A/G"	"50,0/50,0"	"33/33"	66
controllo_3	"POPTR_0014s06370.1"	132	"	"G/C"	"51,2/48,8"	"165/157"	322	stress_12bis	"POPTR_0014s06370.1"	132	"	"C/G"	"51,8/48,2"	"57/53"	110
controllo_3	"POPTR_0014s06370.1"	132	"	"G/C"	"51,2/48,8"	"165/157"	322	stress_42	"POPTR_0014s06370.1"	132	"	"G/C"	"69,8/30,2"	"30/13"	43
controllo_3	"POPTR_0014s06370.1"	132	"	"G/C"	"51,2/48,8"	"165/157"	322	stress_45	"POPTR_0014s06370.1"	132	"	"G/C"	"58,3/41,7"	"63/45"	108
controllo_3	"POPTR_0004s08380.1"	708	"	"C/T"	"51,2/48,8"	"1041/992"	2033	stress_12bis	"POPTR_0004s08380.1"	708	"	"C/T"	"53,6/46,4"	"283/245"	528
controllo_3	"POPTR_0004s08380.1"	708	"	"C/T"	"51,2/48,8"	"1041/992"	2033	stress_42	"POPTR_0004s08380.1"	708	"	"C/T"	"53,8/46,2"	"35/30"	65
controllo_3	"POPTR_0004s08380.1"	708	"	"C/T"	"51,2/48,8"	"1041/992"	2033	stress_45	"POPTR_0004s08380.1"	708	"	"C/T"	"50,6/49,4"	"44/43"	87
controllo_3	"POPTR_0004s01470.1"	435	"	"C/T"	"51,2/48,8"	"421/402"	823	stress_12bis	"POPTR_0004s01470.1"	435	"	"C/T"	"55,1/44,9"	"135/110"	245
controllo_3	"POPTR_0004s01470.1"	435	"	"C/T"	"51,2/48,8"	"421/402"	823	stress_42	"POPTR_0004s01470.1"	435	"	"C/T"	"59,3/40,7"	"35/24"	59
controllo_3	"POPTR_0004s01470.1"	435	"	"C/T"	"51,2/48,8"	"421/402"	823	stress_45	"POPTR_0004s01470.1"	435	"	"C/T"	"58,1/41,9"	"43/31"	74
controllo_3	"POPTR_0009s06720.1"	246	"	"C/A"	"51,2/48,8"	"88/84"	172	stress_12bis	"POPTR_0009s06720.1"	246	"	"C/A"	"57,9/39,5"	"22/15"	38
controllo_3	"POPTR_0009s06720.1"	246	"	"C/A"	"51,2/48,8"	"88/84"	172	stress_42	"POPTR_0009s06720.1"	246	"	"C/A"	"64,7/35,3"	"11/6"	17
controllo_3	"POPTR_0009s06720.1"	246	"	"C/A"	"51,2/48,8"	"88/84"	172	stress_45	"POPTR_0009s06720.1"	246	"	"C/A"	"71,4/28,6"	"15/6"	21
controllo_3	"POPTR_0009s09240.1"	282	"	"C/T"	"51,2/48,8"	"62/59"	121	stress_12bis	"POPTR_0009s09240.1"	282	"	"T/C"	"52,8/47,2"	"28/25"	53
controllo_3	"POPTR_0009s09240.1"	282	"	"C/T"	"51,2/48,8"	"62/59"	121	stress_42	"POPTR_0009s09240.1"	282	"	"T/C"	"53,8/46,2"	"7/6"	13
controllo_3	"POPTR_0009s09240.1"	282	"	"C/T"	"51,2/48,8"	"62/59"	121	stress_45	"POPTR_0009s09240.1"	282	"	"C/T"	"61,8/38,2"	"21/13"	34
controllo_3	"POPTR_0012s07060.1"	381	"	"A/G"	"51,2/48,8"	"172/164"	336	stress_12bis	"POPTR_0012s07060.1"	381	"	"A/G"	"50,5/49,5"	"50/49"	99
controllo_3	"POPTR_0012s07060.1"	381	"	"A/G"	"51,2/48,8"	"172/164"	336	stress_42	"POPTR_0012s07060.1"	381	"	"G/A"	"56,8/43,2"	"21/16"	37
controllo_3	"POPTR_0012s07060.1"	381	"	"A/G"	"51,2/48,8"	"172/164"	336	stress_45	"POPTR_0012s07060.1"	381	"	"G/A"	"52,1/47,9"	"37/34"	71
controllo_3	"POPTR_0011s07530.1"	376	"	"C/A"	"51,2/48,8"	"106/101"	207	stress_12bis	"POPTR_0011s07530.1"	376	"	"C/A"	"53,8/46,2"	"28/24"	52
controllo_3	"POPTR_0011s07530.1"	376	"	"C/A"	"51,2/48,8"	"106/101"	207	stress_42	"POPTR_0011s07530.1"	376	"	"A/C"	"75,0/25,0"	"9/3"	12
controllo_3	"POPTR_0011s07530.1"	376	"	"C/A"	"51,2/48,8"	"106/101"	207	stress_45	"POPTR_0011s07530.1"	376	"	"A/C"	"54,5/45,5"	"12/10"	22
controllo_3	"POPTR_0015s04810.1"	232	"	"C/T"	"51,2/48,8"	"66/63"	129	stress_12bis	"POPTR_0015s04810.1"	232	"	"C/T"	"53,5/46,5"	"23/20"	43
controllo_3	"POPTR_0015s04810.1"	232	"	"C/T"	"51,2/48,8"	"66/63"	129	stress_45	"POPTR_0015s04810.1"	232	"	"C/T"	"50,0/50,0"	"5/5"	10
controllo_3	"POPTR_0015s09990.1"	279	"	"C/T"	"51,2/48,8"	"146/139"	285	stress_12bis	"POPTR_0015s09990.1"	279	"	"T/C"	"55,3/44,7"	"47/38"	85
controllo_3	"POPTR_0015s09990.1"	279	"	"C/T"	"51,2/48,8"	"146/139"	285	stress_42	"POPTR_0015s09990.1"	279	"	"C/T"	"50,0/50,0"	"11/11"	22
controllo_3	"POPTR_0015s09990.1"	279	"	"C/T"	"51,2/48,8"	"146/139"	285	stress_45	"POPTR_0015s09990.1"	279	"	"T/C"	"55,6/44,4"	"10/8"	18
controllo_3	"POPTR_0001s44870.1"	29	"	"G/A"	"51,2/48,8"	"129/123"	252	stress_12bis	"POPTR_0001s44870.1"	29	"	"G/A"	"55,3/44,7"	"21/17"	38
controllo_3	"POPTR_0001s44870.1"	29	"	"G/A"	"51,2/48,8"	"129/123"	252	stress_42	"POPTR_0001s44870.1"	29	"	"G/A"	"82,6/17,4"	"19/4"	23
controllo_3	"POPTR_0001s44870.1"	29	"	"G/A"	"51,2/48,8"	"129/123"	252	stress_45	"POPTR_0001s44870.1"	29	"	"G/A"	"68,2/31,8"	"30/14"	44
controllo_3	"POPTR_0001s47020.1"	993	"	"C/T"	"51,2/48,8"	"85/81"	166	stress_12bis	"POPTR_0001s47020.1"	993	"	"T/C"	"53,1/46,9"	"34/30"	64
controllo_3	"POPTR_0001s47020.1"	993	"	"C/T"	"51,2/48,8"	"85/81"	166	stress_42	"POPTR_0001s47020.1"	993	"	"C/T"	"51,4/48,6"	"18/17"	35
controllo_3	"POPTR_0001s47020.1"	993	"	"C/T"	"51,2/48,8"	"85/81"	166	stress_45	"POPTR_0001s47020.1"	993	"	"C/T"	"59,5/40,5"	"44/30"	74
controllo_3	"POPTR_0001s47020.1"	1545	"	"T/C"	"51,2/48,8"	"152/145"	297	stress_12bis	"POPTR_0001s47020.1"	1545	"	"C/T"	"57,4/42,6"	"58/43"	101
controllo_3	"POPTR_0001s47020.1"	1545	"	"T/C"	"51,2/48,8"	"152/145"	297	stress_42	"POPTR_0001s47020.1"	1545	"	"T/C"	"51,6/48,4"	"47/44"	91
controllo_3	"POPTR_0001s47020.1"	1545	"	"T/C"	"51,2/48,8"	"152/145"	297	stress_45	"POPTR_0001s47020.1"	1545	"	"T/C"	"50,6/49,4"	"89/87"	176
controllo_3	"POPTR_0001s33910.1"	160	"	"C/T"	"51,2/48,8"	"106/101"	207	stress_12bis	"POPTR_0001s33910.1"	160	"	"C/T"	"56,5/43,5"	"26/20"	46
controllo_3	"POPTR_0001s33910.1"	160	"	"C/T"	"51,2/48,8"	"106/101"	207	stress_42	"POPTR_0001s33910.1"	160	"	"T/C"	"58,8/41,2"	"10/7"	17
controllo_3	"POPTR_0001s33910.1"	160	"	"C/T"	"51,2/48,8"	"106/101"	207	stress_45	"POPTR_0001s33910.1"	160	"	"C/T"	"58,1/41,9"	"18/13"	31
controllo_3	"POPTR_0001s36700.1"	1074	"	"G/A"	"51,2/48,8"	"109/104"	213	stress_12bis	"POPTR_0001s36700.1"	1074	"	"G/A"	"52,1/47,9"	"37/34"	71
controllo_3	"POPTR_0001s36700.1"	1074	"	"G/A"	"51,2/48,8"	"109/104"	213	stress_42	"POPTR_0001s36700.1"	1074	"	"G/A"	"52,0/48,0"	"39/36"	75
controllo_3	"POPTR_0001s36700.1"	1074	"	"G/A"	"51,2/48,8"	"109/104"	213	stress_45	"POPTR_0001s36700.1"	1074	"	"G/A"	"50,5/49,5"	"49/48"	97
controllo_3	"POPTR_0001s40480.1"	69	"	"C/T"	"51,2/48,8"	"548/522"	1070	stress_12bis	"POPTR_0001s40480.1"	69	"	"T/C"	"52,2/47,8"	"190/174"	364
controllo_3	"POPTR_0001s40480.1"	69	"	"C/T"	"51,2/48,8"	"548/522"	1070	stress_42	"POPTR_0001s40480.1"	69	"	"T/C"	"63,4/36,6"	"26/15"	41
controllo_3	"POPTR_0001s40480.1"	69	"	"C/T"	"51,2/48,8"	"548/522"	1070	stress_45	"POPTR_0001s40480.1"	69	"	"T/C"	"57,4/42,6"	"27/20"	47
controllo_3	"POPTR_0010s21700.1"	382	"	"C/T"	"51,2/48,8"	"127/121"	248	stress_42	"POPTR_0010s21700.1"	382	"	"T/C"	"53,3/46,7"	"24/21"	45
controllo_3	"POPTR_0010s21700.1"	382	"	"C/T"	"51,2/48,8"	"127/121"	248	stress_45	"POPTR_0010s21700.1"	382	"	"T/C"	"70,8/29,2"	"17/7"	24
controllo_3	"POPTR_0010s06750.1"	1284	"	"A/G"	"51,2/48,8"	"64/61"	125	stress_12bis	"POPTR_0010s06750.1"	1284	"	"G/A"	"62,2/37,8"	"28/17"	45
controllo_3	"POPTR_0010s06750.1"	1284	"	"A/G"	"51,2/48,8"	"64/61"	125	stress_42	"POPTR_0010s06750.1"	1284	"	"G/A"	"51,7/48,3"	"46/43"	89
controllo_3	"POPTR_0010s06750.1"	1284	"	"A/G"	"51,2/48,8"	"64/61"	125	stress_45	"POPTR_0010s06750.1"	1284	"	"G/A"	"50,5/49,5"	"47/46"	93
controllo_3	"POPTR_0008s18230.1"	150	"	"G/T"	"51,2/48,8"	"332/316"	648	stress_12bis	"POPTR_0008s18230.1"	150	"	"G/T"	"57,0/43,0"	"106/80"	186
controllo_3	"POPTR_0008s18230.1"	150	"	"G/T"	"51,2/48,8"	"332/316"	648	stress_42	"POPTR_0008s18230.1"	150	"	"G/T"	"53,2/46,8"	"42/37"	79
controllo_3	"POPTR_0008s18230.1"	150	"	"G/T"	"51,2/48,8"	"332/316"	648	stress_45	"POPTR_0008s18230.1"	150	"	"G/T"	"56,5/43,5"	"35/27"	62
controllo_3	"POPTR_0008s15100.1"	566	"	"T/C"	"51,2/48,8"	"560/533"	1093	stress_12bis	"POPTR_0008s15100.1"	566	"	"T/C"	"51,3/48,7"	"182/173"	355
controllo_3	"POPTR_0008s15100.1"	566	"	"T/C"	"51,2/48,8"	"560/533"	1093	stress_42	"POPTR_0008s15100.1"	566	"	"T/C"	"52,4/47,6"	"77/70"	147
controllo_3	"POPTR_0008s15100.1"	566	"	"T/C"	"51,2/48,8"	"560/533"	1093	stress_45	"POPTR_0008s15100.1"	566	"	"T/C"	"52,7/47,3"	"68/61"	129
controllo_3	"POPTR_0016s09190.1"	294	"	"T/G"	"51,2/48,8"	"86/82"	168	stress_12bis	"POPTR_0016s09190.1"	294	"	"G/T"	"55,9/44,1"	"19/15"	34
controllo_3	"POPTR_0016s09190.1"	294	"	"T/G"	"51,2/48,8"	"86/82"	168	stress_42	"POPTR_0016s09190.1"	294	"	"T/G"	"52,9/47,1"	"9/8"	17
controllo_3	"POPTR_0016s09190.1"	294	"	"T/G"	"51,2/48,8"	"86/82"	168	stress_45	"POPTR_0016s09190.1"	294	"	"G/T"	"63,9/36,1"	"23/13"	36
controllo_3	"POPTR_0016s05530.1"	795	"	"T/C"	"51,2/48,8"	"42/40"	82	stress_45	"POPTR_0016s05530.1"	795	"	"C/T"	"63,2/36,8"	"67/39"	106
controllo_3	"POPTR_0002s14730.1"	160	"	"A/T"	"51,3/48,5"	"183/173"	357	stress_12bis	"POPTR_0002s14730.1"	160	"	"A/T"	"54,3/45,7"	"44/37"	81
controllo_3	"POPTR_0002s14730.1"	160	"	"A/T"	"51,3/48,5"	"183/173"	357	stress_45	"POPTR_0002s14730.1"	160	"	"T/A"	"54,5/45,5"	"12/10"	22
controllo_3	"POPTR_0006s24570.1"	2512	"	"C/T"	"51,3/48,6"	"1199/1136"	2337	stress_12bis	"POPTR_0006s24570.1"	2512	"	"C/T"	"54,9/45,1"	"406/333"	739
controllo_3	"POPTR_0006s24570.1"	2512	"	"C/T"	"51,3/48,6"	"1199/1136"	2337	stress_42	"POPTR_0006s24570.1"	2512	"	"C/T"	"51,4/48,6"	"36/34"	70
controllo_3	"POPTR_0006s24570.1"	2512	"	"C/T"	"51,3/48,6"	"1199/1136"	2337	stress_45	"POPTR_0006s24570.1"	2512	"	"C/T"	"52,2/47,8"	"35/32"	67
controllo_3	"POPTR_0004s08380.1"	492	"	"A/C"	"51,3/48,6"	"1144/1084"	2230	stress_12bis	"POPTR_0004s08380.1"	492	"	"A/C"	"53,1/46,4"	"307/268"	578
controllo_3	"POPTR_0004s08380.1"	492	"	"A/C"	"51,3/48,6"	"1144/1084"	2230	stress_42	"POPTR_0004s08380.1"	492	"	"C/A"	"59,4/40,6"	"41/28"	69
controllo_3	"POPTR_0004s08380.1"	492	"	"A/C"	"51,3/48,6"	"1144/1084"	2230	stress_45	"POPTR_0004s08380.1"	492	"	"C/A"	"58,1/41,9"	"36/26"	62
controllo_3	"POPTR_0002s08410.1"	207	"	"T/C"	"51,3/48,6"	"1507/1427"	2935	stress_12bis	"POPTR_0002s08410.1"	207	"	"T/C"	"55,4/44,4"	"448/359"	808
controllo_3	"POPTR_0002s08410.1"	207	"	"T/C"	"51,3/48,6"	"1507/1427"	2935	stress_42	"POPTR_0002s08410.1"	207	"	"C/T"	"51,5/48,5"	"123/116"	239
controllo_3	"POPTR_0002s08410.1"	207	"	"T/C"	"51,3/48,6"	"1507/1427"	2935	stress_45	"POPTR_0002s08410.1"	207	"	"C/T"	"54,1/45,9"	"177/150"	327
controllo_3	"POPTR_0006s08230.1"	294	"	"T/C"	"51,3/48,7"	"59/56"	115	stress_12bis	"POPTR_0006s08230.1"	294	"	"T/C"	"73,3/26,7"	"11/4"	15
controllo_3	"POPTR_0006s08230.1"	294	"	"T/C"	"51,3/48,7"	"59/56"	115	stress_42	"POPTR_0006s08230.1"	294	"	"C/T"	"52,8/47,2"	"19/17"	36
controllo_3	"POPTR_0006s08230.1"	294	"	"T/C"	"51,3/48,7"	"59/56"	115	stress_45	"POPTR_0006s08230.1"	294	"	"C/T"	"52,7/47,3"	"29/26"	55
controllo_3	"POPTR_0006s08750.1"	571	"	"A/G"	"51,3/48,7"	"60/57"	117	stress_12bis	"POPTR_0006s08750.1"	571	"	"G/A"	"55,1/44,9"	"43/35"	78
controllo_3	"POPTR_0006s08750.1"	571	"	"A/G"	"51,3/48,7"	"60/57"	117	stress_42	"POPTR_0006s08750.1"	571	"	"G/A"	"72,1/27,9"	"31/12"	43
controllo_3	"POPTR_0006s08750.1"	571	"	"A/G"	"51,3/48,7"	"60/57"	117	stress_45	"POPTR_0006s08750.1"	571	"	"G/A"	"66,7/33,3"	"26/13"	39
controllo_3	"POPTR_0022s00530.1"	1311	"	"C/T"	"51,3/48,7"	"58/55"	113	stress_12bis	"POPTR_0022s00530.1"	1311	"	"T/C"	"59,0/41,0"	"23/16"	39
controllo_3	"POPTR_0022s00530.1"	1311	"	"C/T"	"51,3/48,7"	"58/55"	113	stress_42	"POPTR_0022s00530.1"	1311	"	"C/T"	"50,0/50,0"	"6/6"	12
controllo_3	"POPTR_0022s00530.1"	1311	"	"C/T"	"51,3/48,7"	"58/55"	113	stress_45	"POPTR_0022s00530.1"	1311	"	"T/C"	"53,1/46,9"	"17/15"	32
controllo_3	"POPTR_0022s00530.1"	2058	"	"A/G"	"51,3/48,7"	"141/134"	275	stress_12bis	"POPTR_0022s00530.1"	2058	"	"A/G"	"50,9/49,1"	"29/28"	57
controllo_3	"POPTR_0022s00530.1"	2058	"	"A/G"	"51,3/48,7"	"141/134"	275	stress_42	"POPTR_0022s00530.1"	2058	"	"A/G"	"55,3/44,7"	"26/21"	47
controllo_3	"POPTR_0022s00530.1"	2058	"	"A/G"	"51,3/48,7"	"141/134"	275	stress_45	"POPTR_0022s00530.1"	2058	"	"A/G"	"57,1/42,9"	"44/33"	77
controllo_3	"POPTR_0013s01930.1"	318	"	"T/A"	"51,3/48,7"	"59/56"	115	stress_12bis	"POPTR_0013s01930.1"	318	"	"T/A"	"69,8/30,2"	"30/13"	43
controllo_3	"POPTR_0013s01930.1"	318	"	"T/A"	"51,3/48,7"	"59/56"	115	stress_42	"POPTR_0013s01930.1"	318	"	"T/A"	"60,0/40,0"	"9/6"	15
controllo_3	"POPTR_0013s01930.1"	318	"	"T/A"	"51,3/48,7"	"59/56"	115	stress_45	"POPTR_0013s01930.1"	318	"	"A/T"	"58,8/41,2"	"10/7"	17
controllo_3	"POPTR_0013s00720.1"	648	"	"T/C"	"51,3/48,7"	"61/58"	119	stress_12bis	"POPTR_0013s00720.1"	648	"	"T/C"	"66,7/33,3"	"38/19"	57
controllo_3	"POPTR_0013s00720.1"	648	"	"T/C"	"51,3/48,7"	"61/58"	119	stress_42	"POPTR_0013s00720.1"	648	"	"T/C"	"61,9/38,1"	"13/8"	21
controllo_3	"POPTR_0013s00720.1"	648	"	"T/C"	"51,3/48,7"	"61/58"	119	stress_45	"POPTR_0013s00720.1"	648	"	"T/C"	"66,7/33,3"	"16/8"	24
controllo_3	"POPTR_0014s02550.1"	1125	"	"A/C"	"51,3/48,7"	"99/94"	193	stress_12bis	"POPTR_0014s02550.1"	1125	"	"C/A"	"52,9/47,1"	"36/32"	68
controllo_3	"POPTR_0014s02550.1"	1125	"	"A/C"	"51,3/48,7"	"99/94"	193	stress_42	"POPTR_0014s02550.1"	1125	"	"C/A"	"54,7/45,3"	"41/34"	75
controllo_3	"POPTR_0014s02550.1"	1125	"	"A/C"	"51,3/48,7"	"99/94"	193	stress_45	"POPTR_0014s02550.1"	1125	"	"C/A"	"50,5/49,5"	"54/53"	107
controllo_3	"POPTR_0014s10260.1"	1587	"	"T/C"	"51,3/48,7"	"139/132"	271	stress_12bis	"POPTR_0014s10260.1"	1587	"	"T/C"	"51,4/48,6"	"36/34"	70
controllo_3	"POPTR_0014s10260.1"	1587	"	"T/C"	"51,3/48,7"	"139/132"	271	stress_42	"POPTR_0014s10260.1"	1587	"	"T/C"	"50,9/49,1"	"27/26"	53
controllo_3	"POPTR_0014s10260.1"	1587	"	"T/C"	"51,3/48,7"	"139/132"	271	stress_45	"POPTR_0014s10260.1"	1587	"	"T/C"	"54,4/45,6"	"37/31"	68
controllo_3	"POPTR_0004s07280.1"	1302	"	"C/T"	"51,3/48,7"	"58/55"	113	stress_12bis	"POPTR_0004s07280.1"	1302	"	"T/C"	"60,0/40,0"	"24/16"	40
controllo_3	"POPTR_0004s07280.1"	1302	"	"C/T"	"51,3/48,7"	"58/55"	113	stress_42	"POPTR_0004s07280.1"	1302	"	"C/T"	"59,5/40,5"	"25/17"	42
controllo_3	"POPTR_0004s07280.1"	1302	"	"C/T"	"51,3/48,7"	"58/55"	113	stress_45	"POPTR_0004s07280.1"	1302	"	"T/C"	"57,9/42,1"	"22/16"	38
controllo_3	"POPTR_0004s07670.1"	128	"	"A/C"	"51,3/48,7"	"79/75"	154	stress_12bis	"POPTR_0004s07670.1"	128	"	"C/A"	"56,5/43,5"	"13/10"	23
controllo_3	"POPTR_0004s07670.1"	128	"	"A/C"	"51,3/48,7"	"79/75"	154	stress_42	"POPTR_0004s07670.1"	128	"	"A/C"	"50,0/50,0"	"18/18"	36
controllo_3	"POPTR_0004s07670.1"	128	"	"A/C"	"51,3/48,7"	"79/75"	154	stress_45	"POPTR_0004s07670.1"	128	"	"A/C"	"52,2/47,8"	"36/33"	69
controllo_3	"POPTR_0004s19380.1"	99	"	"T/C"	"51,3/48,7"	"59/56"	115	stress_12bis	"POPTR_0004s19380.1"	99	"	"C/T"	"66,2/33,8"	"47/24"	71
controllo_3	"POPTR_0004s19380.1"	99	"	"T/C"	"51,3/48,7"	"59/56"	115	stress_42	"POPTR_0004s19380.1"	99	"	"C/T"	"66,7/33,3"	"8/4"	12
controllo_3	"POPTR_0004s19380.1"	99	"	"T/C"	"51,3/48,7"	"59/56"	115	stress_45	"POPTR_0004s19380.1"	99	"	"C/T"	"50,0/50,0"	"5/5"	10
controllo_3	"POPTR_0009s09710.1"	69	"	"A/G"	"51,3/48,7"	"158/150"	308	stress_12bis	"POPTR_0009s09710.1"	69	"	"G/A"	"51,9/48,1"	"84/78"	162
controllo_3	"POPTR_0009s09710.1"	69	"	"A/G"	"51,3/48,7"	"158/150"	308	stress_42	"POPTR_0009s09710.1"	69	"	"A/G"	"57,4/42,6"	"27/20"	47
controllo_3	"POPTR_0009s09710.1"	69	"	"A/G"	"51,3/48,7"	"158/150"	308	stress_45	"POPTR_0009s09710.1"	69	"	"A/G"	"59,6/40,4"	"31/21"	52
controllo_3	"POPTR_0009s05850.1"	246	"	"C/T"	"51,3/48,7"	"78/74"	152	stress_12bis	"POPTR_0009s05850.1"	246	"	"C/T"	"60,0/40,0"	"12/8"	20
controllo_3	"POPTR_0009s05850.1"	246	"	"C/T"	"51,3/48,7"	"78/74"	152	stress_42	"POPTR_0009s05850.1"	246	"	"C/T"	"67,5/32,5"	"27/13"	40
controllo_3	"POPTR_0009s05850.1"	246	"	"C/T"	"51,3/48,7"	"78/74"	152	stress_45	"POPTR_0009s05850.1"	246	"	"C/T"	"61,3/38,7"	"65/41"	106
controllo_3	"POPTR_0009s05850.1"	252	"	"A/C"	"51,3/48,7"	"80/76"	156	stress_12bis	"POPTR_0009s05850.1"	252	"	"C/A"	"64,0/36,0"	"16/9"	25
controllo_3	"POPTR_0009s05850.1"	252	"	"A/C"	"51,3/48,7"	"80/76"	156	stress_42	"POPTR_0009s05850.1"	252	"	"C/A"	"53,3/46,7"	"16/14"	30
controllo_3	"POPTR_0009s05850.1"	252	"	"A/C"	"51,3/48,7"	"80/76"	156	stress_45	"POPTR_0009s05850.1"	252	"	"C/A"	"60,7/39,3"	"54/35"	89
controllo_3	"POPTR_0012s01250.1"	192	"	"T/C"	"51,3/48,7"	"116/110"	226	stress_12bis	"POPTR_0012s01250.1"	192	"	"C/T"	"51,2/48,8"	"21/20"	41
controllo_3	"POPTR_0012s01250.1"	192	"	"T/C"	"51,3/48,7"	"116/110"	226	stress_42	"POPTR_0012s01250.1"	192	"	"T/C"	"50,9/47,2"	"27/25"	53
controllo_3	"POPTR_0012s01250.1"	192	"	"T/C"	"51,3/48,7"	"116/110"	226	stress_45	"POPTR_0012s01250.1"	192	"	"T/C"	"50,8/49,2"	"33/32"	65
controllo_3	"POPTR_0001s36560.1"	631	"	"A/C"	"51,3/48,7"	"225/214"	439	stress_12bis	"POPTR_0001s36560.1"	631	"	"A/C"	"50,0/50,0"	"47/47"	94
controllo_3	"POPTR_0001s36560.1"	631	"	"A/C"	"51,3/48,7"	"225/214"	439	stress_42	"POPTR_0001s36560.1"	631	"	"C/A"	"63,6/36,4"	"14/8"	22
controllo_3	"POPTR_0001s36560.1"	631	"	"A/C"	"51,3/48,7"	"225/214"	439	stress_45	"POPTR_0001s36560.1"	631	"	"A/C"	"62,1/37,9"	"18/11"	29
controllo_3	"POPTR_0001s38810.1"	369	"	"C/T"	"51,3/48,7"	"375/356"	731	stress_12bis	"POPTR_0001s38810.1"	369	"	"C/T"	"53,8/46,2"	"106/91"	197
controllo_3	"POPTR_0001s38810.1"	369	"	"C/T"	"51,3/48,7"	"375/356"	731	stress_42	"POPTR_0001s38810.1"	369	"	"T/C"	"69,5/30,5"	"185/81"	266
controllo_3	"POPTR_0001s38810.1"	369	"	"C/T"	"51,3/48,7"	"375/356"	731	stress_45	"POPTR_0001s38810.1"	369	"	"T/C"	"63,0/36,5"	"243/141"	386
controllo_3	"POPTR_0001s47020.1"	171	"	"C/A"	"51,3/48,7"	"97/92"	189	stress_12bis	"POPTR_0001s47020.1"	171	"	"A/C"	"55,4/44,6"	"31/25"	56
controllo_3	"POPTR_0001s47020.1"	171	"	"C/A"	"51,3/48,7"	"97/92"	189	stress_42	"POPTR_0001s47020.1"	171	"	"C/A"	"59,1/40,9"	"13/9"	22
controllo_3	"POPTR_0001s47020.1"	171	"	"C/A"	"51,3/48,7"	"97/92"	189	stress_45	"POPTR_0001s47020.1"	171	"	"C/A"	"54,1/45,9"	"40/34"	74
controllo_3	"POPTR_0001s47020.1"	249	"	"C/A"	"51,3/48,7"	"80/76"	156	stress_12bis	"POPTR_0001s47020.1"	249	"	"A/C"	"54,5/45,5"	"30/25"	55
controllo_3	"POPTR_0001s47020.1"	249	"	"C/A"	"51,3/48,7"	"80/76"	156	stress_42	"POPTR_0001s47020.1"	249	"	"C/A"	"69,2/30,8"	"18/8"	26
controllo_3	"POPTR_0001s47020.1"	249	"	"C/A"	"51,3/48,7"	"80/76"	156	stress_45	"POPTR_0001s47020.1"	249	"	"C/A"	"50,8/49,2"	"33/32"	65
controllo_3	"POPTR_0001s29350.1"	2017	"	"T/C"	"51,3/48,7"	"80/76"	156	stress_12bis	"POPTR_0001s29350.1"	2017	"	"C/T"	"58,1/41,9"	"36/26"	62
controllo_3	"POPTR_0001s29350.1"	2017	"	"T/C"	"51,3/48,7"	"80/76"	156	stress_42	"POPTR_0001s29350.1"	2017	"	"T/C"	"64,0/36,0"	"16/9"	25
controllo_3	"POPTR_0001s29350.1"	2017	"	"T/C"	"51,3/48,7"	"80/76"	156	stress_45	"POPTR_0001s29350.1"	2017	"	"C/T"	"51,1/48,9"	"24/23"	47
controllo_3	"POPTR_0010s17860.1"	1254	"	"T/A"	"51,3/48,7"	"163/155"	318	stress_12bis	"POPTR_0010s17860.1"	1254	"	"T/A"	"57,8/42,2"	"26/19"	45
controllo_3	"POPTR_0010s17860.1"	1254	"	"T/A"	"51,3/48,7"	"163/155"	318	stress_42	"POPTR_0010s17860.1"	1254	"	"A/T"	"58,3/41,7"	"7/5"	12
controllo_3	"POPTR_0010s17860.1"	1254	"	"T/A"	"51,3/48,7"	"163/155"	318	stress_45	"POPTR_0010s17860.1"	1254	"	"A/T"	"63,2/36,8"	"12/7"	19
controllo_3	"POPTR_0007s10980.1"	1044	"	"A/T"	"51,3/48,7"	"122/116"	238	stress_12bis	"POPTR_0007s10980.1"	1044	"	"T/A"	"67,7/32,3"	"42/20"	62
controllo_3	"POPTR_0007s10980.1"	1044	"	"A/T"	"51,3/48,7"	"122/116"	238	stress_42	"POPTR_0007s10980.1"	1044	"	"A/T"	"70,0/30,0"	"7/3"	10
controllo_3	"POPTR_0007s10980.1"	1044	"	"A/T"	"51,3/48,7"	"122/116"	238	stress_45	"POPTR_0007s10980.1"	1044	"	"T/A"	"53,6/46,4"	"15/13"	28
controllo_3	"POPTR_0002s08010.1"	786	"	"C/T"	"51,3/48,7"	"78/74"	152	stress_12bis	"POPTR_0002s08010.1"	786	"	"T/C"	"51,6/48,4"	"16/15"	31
controllo_3	"POPTR_0002s08010.1"	786	"	"C/T"	"51,3/48,7"	"78/74"	152	stress_45	"POPTR_0002s08010.1"	786	"	"C/T"	"60,0/40,0"	"9/6"	15
controllo_3	"POPTR_0002s08010.1"	1743	"	"T/C"	"51,3/48,7"	"100/95"	195	stress_12bis	"POPTR_0002s08010.1"	1743	"	"T/C"	"59,6/40,4"	"28/19"	47
controllo_3	"POPTR_0002s08010.1"	1743	"	"T/C"	"51,3/48,7"	"100/95"	195	stress_42	"POPTR_0002s08010.1"	1743	"	"C/T"	"68,4/31,6"	"13/6"	19
controllo_3	"POPTR_0002s08010.1"	1743	"	"T/C"	"51,3/48,7"	"100/95"	195	stress_45	"POPTR_0002s08010.1"	1743	"	"C/T"	"58,1/41,9"	"18/13"	31
controllo_3	"POPTR_0001s34690.1"	270	"	"A/T"	"51,4/47,7"	"125/116"	243	stress_12bis	"POPTR_0001s34690.1"	270	"	"T/A"	"52,9/47,1"	"36/32"	68
controllo_3	"POPTR_0001s34690.1"	270	"	"A/T"	"51,4/47,7"	"125/116"	243	stress_45	"POPTR_0001s34690.1"	270	"	"T/A"	"58,3/41,7"	"7/5"	12
controllo_3	"POPTR_0013s09550.1"	135	"	"T/A"	"51,4/47,9"	"72/67"	140	stress_12bis	"POPTR_0013s09550.1"	135	"	"T/A"	"57,9/42,1"	"11/8"	19
controllo_3	"POPTR_0013s09550.1"	135	"	"T/A"	"51,4/47,9"	"72/67"	140	stress_45	"POPTR_0013s09550.1"	135	"	"T/A"	"61,5/38,5"	"8/5"	13
controllo_3	"POPTR_0004s19380.1"	658	"	"A/C"	"51,4/47,9"	"73/68"	142	stress_12bis	"POPTR_0004s19380.1"	658	"	"C/A"	"61,6/38,4"	"45/28"	73
controllo_3	"POPTR_0004s19380.1"	658	"	"A/C"	"51,4/47,9"	"73/68"	142	stress_42	"POPTR_0004s19380.1"	658	"	"C/A"	"55,0/45,0"	"11/9"	20
controllo_3	"POPTR_0004s19380.1"	658	"	"A/C"	"51,4/47,9"	"73/68"	142	stress_45	"POPTR_0004s19380.1"	658	"	"C/A"	"60,0/40,0"	"9/6"	15
controllo_3	"POPTR_0018s09730.1"	936	"	"A/G"	"51,4/48,0"	"76/71"	148	stress_12bis	"POPTR_0018s09730.1"	936	"	"G/A"	"56,2/43,8"	"18/14"	32
controllo_3	"POPTR_0018s09730.1"	936	"	"A/G"	"51,4/48,0"	"76/71"	148	stress_42	"POPTR_0018s09730.1"	936	"	"A/G"	"64,4/35,6"	"141/78"	219
controllo_3	"POPTR_0018s09730.1"	936	"	"A/G"	"51,4/48,0"	"76/71"	148	stress_45	"POPTR_0018s09730.1"	936	"	"A/G"	"63,2/36,8"	"215/125"	340
controllo_3	"POPTR_0009s12790.1"	378	"	"T/C"	"51,4/48,0"	"76/71"	148	stress_12bis	"POPTR_0009s12790.1"	378	"	"C/T"	"50,0/50,0"	"16/16"	32
controllo_3	"POPTR_0009s12790.1"	378	"	"T/C"	"51,4/48,0"	"76/71"	148	stress_42	"POPTR_0009s12790.1"	378	"	"T/C"	"53,8/46,2"	"21/18"	39
controllo_3	"POPTR_0009s12790.1"	378	"	"T/C"	"51,4/48,0"	"76/71"	148	stress_45	"POPTR_0009s12790.1"	378	"	"T/C"	"64,7/35,3"	"22/12"	34
controllo_3	"POPTR_0001s40700.1"	129	"	"C/T"	"51,4/48,0"	"152/142"	296	stress_12bis	"POPTR_0001s40700.1"	129	"	"C/T"	"64,2/35,8"	"61/34"	95
controllo_3	"POPTR_0001s40700.1"	129	"	"C/T"	"51,4/48,0"	"152/142"	296	stress_42	"POPTR_0001s40700.1"	129	"	"C/T"	"56,2/43,8"	"27/21"	48
controllo_3	"POPTR_0001s40700.1"	129	"	"C/T"	"51,4/48,0"	"152/142"	296	stress_45	"POPTR_0001s40700.1"	129	"	"C/T"	"55,7/44,3"	"39/31"	70
controllo_3	"POPTR_0002s08010.1"	693	"	"T/G"	"51,4/48,1"	"93/87"	181	stress_12bis	"POPTR_0002s08010.1"	693	"	"G/T"	"64,5/35,5"	"20/11"	31
controllo_3	"POPTR_0002s08010.1"	693	"	"T/G"	"51,4/48,1"	"93/87"	181	stress_45	"POPTR_0002s08010.1"	693	"	"T/G"	"57,9/42,1"	"11/8"	19
controllo_3	"POPTR_0016s12260.1"	405	"	"C/T"	"51,4/48,2"	"131/123"	255	stress_12bis	"POPTR_0016s12260.1"	405	"	"C/T"	"55,6/44,4"	"60/48"	108
controllo_3	"POPTR_0016s12260.1"	405	"	"C/T"	"51,4/48,2"	"131/123"	255	stress_42	"POPTR_0016s12260.1"	405	"	"C/T"	"79,4/20,6"	"27/7"	34
controllo_3	"POPTR_0016s12260.1"	405	"	"C/T"	"51,4/48,2"	"131/123"	255	stress_45	"POPTR_0016s12260.1"	405	"	"C/T"	"56,1/43,9"	"23/18"	41
controllo_3	"POPTR_0012s07060.1"	1230	"	"A/T"	"51,4/48,3"	"216/203"	420	stress_12bis	"POPTR_0012s07060.1"	1230	"	"A/T"	"53,6/46,4"	"75/65"	140
controllo_3	"POPTR_0012s07060.1"	1230	"	"A/T"	"51,4/48,3"	"216/203"	420	stress_42	"POPTR_0012s07060.1"	1230	"	"A/T"	"55,6/44,4"	"40/32"	72
controllo_3	"POPTR_0012s07060.1"	1230	"	"A/T"	"51,4/48,3"	"216/203"	420	stress_45	"POPTR_0012s07060.1"	1230	"	"T/A"	"59,0/41,0"	"62/43"	105
controllo_3	"POPTR_0005s24030.1"	126	"	"G/A"	"51,4/48,4"	"626/589"	1218	stress_12bis	"POPTR_0005s24030.1"	126	"	"G/A"	"53,1/46,6"	"178/156"	335
controllo_3	"POPTR_0005s24030.1"	126	"	"G/A"	"51,4/48,4"	"626/589"	1218	stress_42	"POPTR_0005s24030.1"	126	"	"G/A"	"59,5/40,5"	"78/53"	131
controllo_3	"POPTR_0005s24030.1"	126	"	"G/A"	"51,4/48,4"	"626/589"	1218	stress_45	"POPTR_0005s24030.1"	126	"	"G/A"	"57,3/42,7"	"63/47"	110
controllo_3	"POPTR_0017s06920.1"	1407	"	"A/T"	"51,4/48,5"	"443/418"	862	stress_12bis	"POPTR_0017s06920.1"	1407	"	"T/A"	"53,8/46,2"	"150/129"	279
controllo_3	"POPTR_0006s24570.1"	2988	"	"G/A"	"51,4/48,5"	"1287/1214"	2502	stress_12bis	"POPTR_0006s24570.1"	2988	"	"G/A"	"53,9/46,1"	"417/357"	774
controllo_3	"POPTR_0006s24570.1"	2988	"	"G/A"	"51,4/48,5"	"1287/1214"	2502	stress_42	"POPTR_0006s24570.1"	2988	"	"A/G"	"53,5/46,5"	"54/47"	101
controllo_3	"POPTR_0006s24570.1"	2988	"	"G/A"	"51,4/48,5"	"1287/1214"	2502	stress_45	"POPTR_0006s24570.1"	2988	"	"A/G"	"50,6/49,4"	"45/44"	89
controllo_3	"POPTR_0002s08410.1"	379	"	"T/C"	"51,4/48,5"	"1159/1093"	2253	stress_12bis	"POPTR_0002s08410.1"	379	"	"T/C"	"51,8/48,1"	"338/314"	653
controllo_3	"POPTR_0002s08410.1"	379	"	"T/C"	"51,4/48,5"	"1159/1093"	2253	stress_42	"POPTR_0002s08410.1"	379	"	"T/C"	"52,4/47,6"	"97/88"	185
controllo_3	"POPTR_0002s08410.1"	379	"	"T/C"	"51,4/48,5"	"1159/1093"	2253	stress_45	"POPTR_0002s08410.1"	379	"	"T/C"	"50,4/49,6"	"123/121"	244
controllo_3	"POPTR_0005s05450.1"	1029	"	"C/T"	"51,4/48,6"	"112/106"	218	stress_12bis	"POPTR_0005s05450.1"	1029	"	"C/T"	"63,5/36,5"	"33/19"	52
controllo_3	"POPTR_0005s05450.1"	1029	"	"C/T"	"51,4/48,6"	"112/106"	218	stress_42	"POPTR_0005s05450.1"	1029	"	"C/T"	"56,2/43,8"	"9/7"	16
controllo_3	"POPTR_0005s05450.1"	1029	"	"C/T"	"51,4/48,6"	"112/106"	218	stress_45	"POPTR_0005s05450.1"	1029	"	"T/C"	"68,4/31,6"	"13/6"	19
controllo_3	"POPTR_0017s06920.1"	1017	"	"A/G"	"51,4/48,6"	"232/219"	451	stress_12bis	"POPTR_0017s06920.1"	1017	"	"G/A"	"51,8/48,2"	"59/55"	114
controllo_3	"POPTR_0006s03660.1"	4215	"	"A/G"	"51,4/48,6"	"113/107"	220	stress_12bis	"POPTR_0006s03660.1"	4215	"	"A/G"	"52,8/47,2"	"19/17"	36
controllo_3	"POPTR_0006s03660.1"	4215	"	"A/G"	"51,4/48,6"	"113/107"	220	stress_42	"POPTR_0006s03660.1"	4215	"	"G/A"	"52,2/47,8"	"12/11"	23
controllo_3	"POPTR_0006s03660.1"	4215	"	"A/G"	"51,4/48,6"	"113/107"	220	stress_45	"POPTR_0006s03660.1"	4215	"	"A/G"	"51,7/48,3"	"30/28"	58
controllo_3	"POPTR_0003s18530.1"	36	"	"A/T"	"51,4/48,6"	"57/54"	111	stress_12bis	"POPTR_0003s18530.1"	36	"	"A/T"	"60,6/39,4"	"20/13"	33
controllo_3	"POPTR_0003s18530.1"	36	"	"A/T"	"51,4/48,6"	"57/54"	111	stress_42	"POPTR_0003s18530.1"	36	"	"T/A"	"76,0/24,0"	"19/6"	25
controllo_3	"POPTR_0003s18530.1"	36	"	"A/T"	"51,4/48,6"	"57/54"	111	stress_45	"POPTR_0003s18530.1"	36	"	"A/T"	"61,7/38,3"	"29/18"	47
controllo_3	"POPTR_0003s13880.1"	365	"	"G/A"	"51,4/48,6"	"57/54"	111	stress_12bis	"POPTR_0003s13880.1"	365	"	"G/A"	"51,9/48,1"	"27/25"	52
controllo_3	"POPTR_0003s13880.1"	365	"	"G/A"	"51,4/48,6"	"57/54"	111	stress_42	"POPTR_0003s13880.1"	365	"	"G/A"	"61,0/39,0"	"86/55"	141
controllo_3	"POPTR_0003s13880.1"	365	"	"G/A"	"51,4/48,6"	"57/54"	111	stress_45	"POPTR_0003s13880.1"	365	"	"G/A"	"52,3/47,7"	"102/93"	195
controllo_3	"POPTR_0003s08070.1"	366	"	"A/G"	"51,4/48,6"	"76/72"	148	stress_12bis	"POPTR_0003s08070.1"	366	"	"A/G"	"64,3/35,7"	"36/20"	56
controllo_3	"POPTR_0003s08070.1"	366	"	"A/G"	"51,4/48,6"	"76/72"	148	stress_42	"POPTR_0003s08070.1"	366	"	"A/G"	"72,4/27,6"	"21/8"	29
controllo_3	"POPTR_0003s08070.1"	366	"	"A/G"	"51,4/48,6"	"76/72"	148	stress_45	"POPTR_0003s08070.1"	366	"	"A/G"	"63,8/36,2"	"30/17"	47
controllo_3	"POPTR_0022s00530.1"	132	"	"C/T"	"51,4/48,6"	"74/70"	144	stress_12bis	"POPTR_0022s00530.1"	132	"	"C/T"	"55,6/44,4"	"15/12"	27
controllo_3	"POPTR_0022s00530.1"	132	"	"C/T"	"51,4/48,6"	"74/70"	144	stress_45	"POPTR_0022s00530.1"	132	"	"T/C"	"52,8/47,2"	"19/17"	36
controllo_3	"POPTR_0019s12320.1"	1592	"	"A/T"	"51,4/48,6"	"71/67"	138	stress_12bis	"POPTR_0019s12320.1"	1592	"	"T/A"	"67,3/32,7"	"37/18"	55
controllo_3	"POPTR_0019s08610.1"	462	"	"T/C"	"51,4/48,6"	"74/70"	144	stress_12bis	"POPTR_0019s08610.1"	462	"	"T/C"	"60,0/40,0"	"9/6"	15
controllo_3	"POPTR_0019s08610.1"	462	"	"T/C"	"51,4/48,6"	"74/70"	144	stress_42	"POPTR_0019s08610.1"	462	"	"T/C"	"64,3/35,7"	"27/15"	42
controllo_3	"POPTR_0019s08610.1"	462	"	"T/C"	"51,4/48,6"	"74/70"	144	stress_45	"POPTR_0019s08610.1"	462	"	"T/C"	"53,5/46,5"	"38/33"	71
controllo_3	"POPTR_0019s05950.1"	211	"	"A/G"	"51,4/48,6"	"283/268"	551	stress_12bis	"POPTR_0019s05950.1"	211	"	"A/G"	"57,4/42,6"	"112/83"	195
controllo_3	"POPTR_0019s05950.1"	211	"	"A/G"	"51,4/48,6"	"283/268"	551	stress_42	"POPTR_0019s05950.1"	211	"	"A/G"	"53,6/46,4"	"15/13"	28
controllo_3	"POPTR_0019s05950.1"	211	"	"A/G"	"51,4/48,6"	"283/268"	551	stress_45	"POPTR_0019s05950.1"	211	"	"G/A"	"51,4/48,6"	"18/17"	35
controllo_3	"POPTR_0019s05950.1"	778	"	"T/G"	"51,4/48,6"	"151/143"	294	stress_12bis	"POPTR_0019s05950.1"	778	"	"G/T"	"53,7/45,4"	"58/49"	108
controllo_3	"POPTR_0019s05950.1"	778	"	"T/G"	"51,4/48,6"	"151/143"	294	stress_42	"POPTR_0019s05950.1"	778	"	"T/G"	"63,0/37,0"	"17/10"	27
controllo_3	"POPTR_0019s05950.1"	778	"	"T/G"	"51,4/48,6"	"151/143"	294	stress_45	"POPTR_0019s05950.1"	778	"	"G/T"	"50,0/41,7"	"6/5"	12
controllo_3	"POPTR_0013s15650.1"	65	"	"A/G"	"51,4/48,6"	"145/137"	282	stress_12bis	"POPTR_0013s15650.1"	65	"	"G/A"	"53,7/46,3"	"29/25"	54
controllo_3	"POPTR_0013s15650.1"	65	"	"A/G"	"51,4/48,6"	"145/137"	282	stress_45	"POPTR_0013s15650.1"	65	"	"G/A"	"72,7/27,3"	"8/3"	11
controllo_3	"POPTR_0014s15960.1"	228	"	"T/C"	"51,4/48,6"	"18/17"	35	stress_45	"POPTR_0014s15960.1"	228	"	"T/C"	"59,0/40,2"	"72/49"	122
controllo_3	"POPTR_0014s17400.1"	264	"	"C/G"	"51,4/48,6"	"1236/1168"	2405	stress_12bis	"POPTR_0014s17400.1"	264	"	"C/G"	"58,6/41,4"	"427/302"	729
controllo_3	"POPTR_0014s17400.1"	264	"	"C/G"	"51,4/48,6"	"1236/1168"	2405	stress_42	"POPTR_0014s17400.1"	264	"	"C/G"	"61,7/37,9"	"163/100"	264
controllo_3	"POPTR_0014s17400.1"	264	"	"C/G"	"51,4/48,6"	"1236/1168"	2405	stress_45	"POPTR_0014s17400.1"	264	"	"C/G"	"57,7/42,3"	"206/151"	357
controllo_3	"POPTR_0004s01660.1"	772	"	"G/T"	"51,4/48,6"	"91/86"	177	stress_12bis	"POPTR_0004s01660.1"	772	"	"T/G"	"51,9/48,1"	"42/39"	81
controllo_3	"POPTR_0004s01660.1"	772	"	"G/T"	"51,4/48,6"	"91/86"	177	stress_42	"POPTR_0004s01660.1"	772	"	"T/G"	"52,0/48,0"	"13/12"	25
controllo_3	"POPTR_0004s01660.1"	772	"	"G/T"	"51,4/48,6"	"91/86"	177	stress_45	"POPTR_0004s01660.1"	772	"	"G/T"	"59,5/40,5"	"22/15"	37
controllo_3	"POPTR_0004s07280.1"	1300	"	"G/A"	"51,4/48,6"	"57/54"	111	stress_12bis	"POPTR_0004s07280.1"	1300	"	"A/G"	"61,5/38,5"	"24/15"	39
controllo_3	"POPTR_0004s07280.1"	1300	"	"G/A"	"51,4/48,6"	"57/54"	111	stress_42	"POPTR_0004s07280.1"	1300	"	"G/A"	"60,5/39,5"	"26/17"	43
controllo_3	"POPTR_0004s07280.1"	1300	"	"G/A"	"51,4/48,6"	"57/54"	111	stress_45	"POPTR_0004s07280.1"	1300	"	"A/G"	"57,9/42,1"	"22/16"	38
controllo_3	"POPTR_0009s16470.1"	268	"	"A/G"	"51,4/48,6"	"56/53"	109	stress_12bis	"POPTR_0009s16470.1"	268	"	"G/A"	"61,1/38,9"	"11/7"	18
controllo_3	"POPTR_0009s16470.1"	268	"	"A/G"	"51,4/48,6"	"56/53"	109	stress_42	"POPTR_0009s16470.1"	268	"	"A/G"	"63,6/36,4"	"7/4"	11
controllo_3	"POPTR_0009s16470.1"	268	"	"A/G"	"51,4/48,6"	"56/53"	109	stress_45	"POPTR_0009s16470.1"	268	"	"A/G"	"50,0/50,0"	"9/9"	18
controllo_3	"POPTR_0009s11480.1"	1158	"	"C/T"	"51,4/48,6"	"160/151"	311	stress_12bis	"POPTR_0009s11480.1"	1158	"	"T/C"	"51,4/48,6"	"93/88"	181
controllo_3	"POPTR_0009s11480.1"	1158	"	"C/T"	"51,4/48,6"	"160/151"	311	stress_42	"POPTR_0009s11480.1"	1158	"	"C/T"	"61,5/38,5"	"24/15"	39
controllo_3	"POPTR_0009s11480.1"	1158	"	"C/T"	"51,4/48,6"	"160/151"	311	stress_45	"POPTR_0009s11480.1"	1158	"	"C/T"	"51,7/48,3"	"30/28"	58
controllo_3	"POPTR_0015s09990.1"	768	"	"C/T"	"51,4/48,6"	"108/102"	210	stress_12bis	"POPTR_0015s09990.1"	768	"	"C/T"	"58,8/41,2"	"40/28"	68
controllo_3	"POPTR_0015s09990.1"	768	"	"C/T"	"51,4/48,6"	"108/102"	210	stress_42	"POPTR_0015s09990.1"	768	"	"C/T"	"50,0/50,0"	"11/11"	22
controllo_3	"POPTR_0015s09990.1"	768	"	"C/T"	"51,4/48,6"	"108/102"	210	stress_45	"POPTR_0015s09990.1"	768	"	"C/T"	"61,5/38,5"	"8/5"	13
controllo_3	"POPTR_0001s32770.1"	1068	"	"C/T"	"51,4/48,6"	"90/85"	175	stress_12bis	"POPTR_0001s32770.1"	1068	"	"C/T"	"51,2/48,8"	"21/20"	41
controllo_3	"POPTR_0001s32770.1"	1068	"	"C/T"	"51,4/48,6"	"90/85"	175	stress_42	"POPTR_0001s32770.1"	1068	"	"T/C"	"67,3/32,7"	"35/17"	52
controllo_3	"POPTR_0001s32770.1"	1068	"	"C/T"	"51,4/48,6"	"90/85"	175	stress_45	"POPTR_0001s32770.1"	1068	"	"T/C"	"51,1/48,9"	"46/44"	90
controllo_3	"POPTR_0001s47020.1"	1500	"	"T/C"	"51,4/48,6"	"144/136"	280	stress_12bis	"POPTR_0001s47020.1"	1500	"	"C/T"	"57,1/42,9"	"56/42"	98
controllo_3	"POPTR_0001s47020.1"	1500	"	"T/C"	"51,4/48,6"	"144/136"	280	stress_42	"POPTR_0001s47020.1"	1500	"	"T/C"	"53,9/46,1"	"41/35"	76
controllo_3	"POPTR_0001s47020.1"	1500	"	"T/C"	"51,4/48,6"	"144/136"	280	stress_45	"POPTR_0001s47020.1"	1500	"	"C/T"	"57,4/42,6"	"74/55"	129
controllo_3	"POPTR_0001s35230.1"	87	"	"A/G"	"51,4/48,6"	"561/530"	1091	stress_12bis	"POPTR_0001s35230.1"	87	"	"A/G"	"52,6/47,4"	"163/147"	310
controllo_3	"POPTR_0001s35230.1"	87	"	"A/G"	"51,4/48,6"	"561/530"	1091	stress_42	"POPTR_0001s35230.1"	87	"	"G/A"	"51,4/48,6"	"75/71"	146
controllo_3	"POPTR_0001s35230.1"	87	"	"A/G"	"51,4/48,6"	"561/530"	1091	stress_45	"POPTR_0001s35230.1"	87	"	"G/A"	"51,3/48,7"	"97/92"	189
controllo_3	"POPTR_0010s14080.1"	1185	"	"C/A"	"51,4/48,6"	"143/135"	278	stress_12bis	"POPTR_0010s14080.1"	1185	"	"C/A"	"58,3/40,9"	"67/47"	115
controllo_3	"POPTR_0010s14080.1"	1185	"	"C/A"	"51,4/48,6"	"143/135"	278	stress_42	"POPTR_0010s14080.1"	1185	"	"C/A"	"81,1/18,9"	"30/7"	37
controllo_3	"POPTR_0010s14080.1"	1185	"	"C/A"	"51,4/48,6"	"143/135"	278	stress_45	"POPTR_0010s14080.1"	1185	"	"C/A"	"56,9/43,1"	"29/22"	51
controllo_3	"POPTR_0010s12360.1"	207	"	"T/A"	"51,4/48,6"	"55/52"	107	stress_12bis	"POPTR_0010s12360.1"	207	"	"A/T"	"64,1/35,9"	"25/14"	39
controllo_3	"POPTR_0010s12360.1"	207	"	"T/A"	"51,4/48,6"	"55/52"	107	stress_42	"POPTR_0010s12360.1"	207	"	"A/T"	"75,0/25,0"	"24/8"	32
controllo_3	"POPTR_0010s12360.1"	207	"	"T/A"	"51,4/48,6"	"55/52"	107	stress_45	"POPTR_0010s12360.1"	207	"	"A/T"	"71,7/28,3"	"33/13"	46
controllo_3	"POPTR_0010s03010.1"	741	"	"T/C"	"51,4/48,6"	"108/102"	210	stress_12bis	"POPTR_0010s03010.1"	741	"	"T/C"	"56,7/43,3"	"38/29"	67
controllo_3	"POPTR_0010s03010.1"	741	"	"T/C"	"51,4/48,6"	"108/102"	210	stress_42	"POPTR_0010s03010.1"	741	"	"T/C"	"63,6/36,4"	"7/4"	11
controllo_3	"POPTR_0010s03010.1"	741	"	"T/C"	"51,4/48,6"	"108/102"	210	stress_45	"POPTR_0010s03010.1"	741	"	"T/C"	"58,3/41,7"	"14/10"	24
controllo_3	"POPTR_0010s19860.1"	60	"	"A/C"	"51,4/48,6"	"75/71"	146	stress_12bis	"POPTR_0010s19860.1"	60	"	"C/A"	"66,0/34,0"	"31/16"	47
controllo_3	"POPTR_0010s19860.1"	60	"	"A/C"	"51,4/48,6"	"75/71"	146	stress_42	"POPTR_0010s19860.1"	60	"	"C/A"	"53,8/46,2"	"35/30"	65
controllo_3	"POPTR_0010s19860.1"	60	"	"A/C"	"51,4/48,6"	"75/71"	146	stress_45	"POPTR_0010s19860.1"	60	"	"C/A"	"51,5/47,8"	"70/65"	136
controllo_3	"POPTR_0010s24290.1"	141	"	"T/C"	"51,4/48,6"	"734/694"	1428	stress_12bis	"POPTR_0010s24290.1"	141	"	"T/C"	"54,4/45,6"	"199/167"	366
controllo_3	"POPTR_0010s24290.1"	141	"	"T/C"	"51,4/48,6"	"734/694"	1428	stress_42	"POPTR_0010s24290.1"	141	"	"C/T"	"56,1/43,9"	"413/323"	736
controllo_3	"POPTR_0010s24290.1"	141	"	"T/C"	"51,4/48,6"	"734/694"	1428	stress_45	"POPTR_0010s24290.1"	141	"	"C/T"	"57,9/42,1"	"293/213"	506
controllo_3	"POPTR_0024s00700.1"	109	"	"T/C"	"51,4/48,6"	"57/54"	111	stress_12bis	"POPTR_0024s00700.1"	109	"	"C/T"	"71,0/29,0"	"22/9"	31
controllo_3	"POPTR_0024s00700.1"	109	"	"T/C"	"51,4/48,6"	"57/54"	111	stress_42	"POPTR_0024s00700.1"	109	"	"C/T"	"75,0/25,0"	"15/5"	20
controllo_3	"POPTR_0024s00700.1"	109	"	"T/C"	"51,4/48,6"	"57/54"	111	stress_45	"POPTR_0024s00700.1"	109	"	"T/C"	"64,3/35,7"	"18/10"	28
controllo_3	"POPTR_0002s03130.1"	768	"	"A/G"	"51,4/48,6"	"109/103"	212	stress_12bis	"POPTR_0002s03130.1"	768	"	"A/G"	"52,3/47,7"	"34/31"	65
controllo_3	"POPTR_0002s03130.1"	768	"	"A/G"	"51,4/48,6"	"109/103"	212	stress_42	"POPTR_0002s03130.1"	768	"	"A/G"	"65,7/34,3"	"23/12"	35
controllo_3	"POPTR_0002s03130.1"	768	"	"A/G"	"51,4/48,6"	"109/103"	212	stress_45	"POPTR_0002s03130.1"	768	"	"A/G"	"55,2/44,8"	"16/13"	29
controllo_3	"POPTR_0002s14730.1"	357	"	"T/C"	"51,4/48,6"	"232/219"	451	stress_12bis	"POPTR_0002s14730.1"	357	"	"C/T"	"54,0/46,0"	"74/63"	137
controllo_3	"POPTR_0002s14730.1"	357	"	"T/C"	"51,4/48,6"	"232/219"	451	stress_42	"POPTR_0002s14730.1"	357	"	"C/T"	"52,9/47,1"	"9/8"	17
controllo_3	"POPTR_0002s14730.1"	357	"	"T/C"	"51,4/48,6"	"232/219"	451	stress_45	"POPTR_0002s14730.1"	357	"	"C/T"	"58,1/41,9"	"18/13"	31
controllo_3	"POPTR_0002s01080.1"	1455	"	"T/G"	"51,4/48,6"	"330/312"	642	stress_12bis	"POPTR_0002s01080.1"	1455	"	"G/T"	"51,2/48,5"	"168/159"	328
controllo_3	"POPTR_0002s01080.1"	1455	"	"T/G"	"51,4/48,6"	"330/312"	642	stress_42	"POPTR_0002s01080.1"	1455	"	"G/T"	"52,7/47,3"	"98/88"	186
controllo_3	"POPTR_0002s01080.1"	1455	"	"T/G"	"51,4/48,6"	"330/312"	642	stress_45	"POPTR_0002s01080.1"	1455	"	"T/G"	"50,4/49,1"	"114/111"	226
controllo_3	"POPTR_0008s04210.1"	1299	"	"A/T"	"51,4/48,6"	"54/51"	105	stress_12bis	"POPTR_0008s04210.1"	1299	"	"T/A"	"52,9/47,1"	"27/24"	51
controllo_3	"POPTR_0008s04210.1"	1299	"	"A/T"	"51,4/48,6"	"54/51"	105	stress_42	"POPTR_0008s04210.1"	1299	"	"T/A"	"50,5/49,5"	"53/52"	105
controllo_3	"POPTR_0008s04210.1"	1299	"	"A/T"	"51,4/48,6"	"54/51"	105	stress_45	"POPTR_0008s04210.1"	1299	"	"A/T"	"59,9/40,1"	"88/59"	147
controllo_3	"POPTR_0016s11670.1"	163	"	"C/T"	"51,4/48,6"	"73/69"	142	stress_12bis	"POPTR_0016s11670.1"	163	"	"C/T"	"56,2/43,8"	"41/32"	73
controllo_3	"POPTR_0016s11670.1"	163	"	"C/T"	"51,4/48,6"	"73/69"	142	stress_42	"POPTR_0016s11670.1"	163	"	"C/T"	"61,0/39,0"	"61/39"	100
controllo_3	"POPTR_0016s11670.1"	163	"	"C/T"	"51,4/48,6"	"73/69"	142	stress_45	"POPTR_0016s11670.1"	163	"	"C/T"	"54,9/45,1"	"62/51"	113
controllo_3	"POPTR_0016s06950.1"	363	"	"G/T"	"51,4/48,6"	"57/54"	111	stress_12bis	"POPTR_0016s06950.1"	363	"	"G/T"	"67,7/32,3"	"21/10"	31
controllo_3	"POPTR_0016s06950.1"	363	"	"G/T"	"51,4/48,6"	"57/54"	111	stress_42	"POPTR_0016s06950.1"	363	"	"G/T"	"59,7/40,3"	"37/25"	62
controllo_3	"POPTR_0016s06950.1"	363	"	"G/T"	"51,4/48,6"	"57/54"	111	stress_45	"POPTR_0016s06950.1"	363	"	"G/T"	"50,6/49,4"	"39/38"	77
controllo_3	"POPTR_0001s01350.1"	288	"	"A/T"	"51,5/47,6"	"53/49"	103	stress_12bis	"POPTR_0001s01350.1"	288	"	"T/A"	"60,0/40,0"	"21/14"	35
controllo_3	"POPTR_0001s01350.1"	288	"	"A/T"	"51,5/47,6"	"53/49"	103	stress_42	"POPTR_0001s01350.1"	288	"	"A/T"	"63,0/37,0"	"29/17"	46
controllo_3	"POPTR_0001s01350.1"	288	"	"A/T"	"51,5/47,6"	"53/49"	103	stress_45	"POPTR_0001s01350.1"	288	"	"A/T"	"52,4/47,6"	"54/49"	103
controllo_3	"POPTR_0019s05950.1"	255	"	"T/G"	"51,5/48,3"	"211/198"	410	stress_12bis	"POPTR_0019s05950.1"	255	"	"G/T"	"55,3/44,0"	"88/70"	159
controllo_3	"POPTR_0019s05950.1"	255	"	"T/G"	"51,5/48,3"	"211/198"	410	stress_42	"POPTR_0019s05950.1"	255	"	"G/T"	"73,7/26,3"	"14/5"	19
controllo_3	"POPTR_0019s05950.1"	255	"	"T/G"	"51,5/48,3"	"211/198"	410	stress_45	"POPTR_0019s05950.1"	255	"	"G/T"	"59,0/41,0"	"23/16"	39
controllo_3	"POPTR_0003s08760.1"	219	"	"G/A"	"51,5/48,4"	"344/323"	668	stress_12bis	"POPTR_0003s08760.1"	219	"	"A/G"	"50,0/50,0"	"67/67"	134
controllo_3	"POPTR_0003s08760.1"	219	"	"G/A"	"51,5/48,4"	"344/323"	668	stress_42	"POPTR_0003s08760.1"	219	"	"G/A"	"64,5/35,5"	"20/11"	31
controllo_3	"POPTR_0003s08760.1"	219	"	"G/A"	"51,5/48,4"	"344/323"	668	stress_45	"POPTR_0003s08760.1"	219	"	"G/A"	"74,1/25,9"	"20/7"	27
controllo_3	"POPTR_0004s09910.1"	46	"	"C/A"	"51,5/48,4"	"4709/4433"	9152	stress_12bis	"POPTR_0004s09910.1"	46	"	"A/C"	"52,5/47,5"	"787/712"	1500
controllo_3	"POPTR_0004s09910.1"	46	"	"C/A"	"51,5/48,4"	"4709/4433"	9152	stress_42	"POPTR_0004s09910.1"	46	"	"C/A"	"55,5/44,5"	"71/57"	128
controllo_3	"POPTR_0004s09910.1"	46	"	"C/A"	"51,5/48,4"	"4709/4433"	9152	stress_45	"POPTR_0004s09910.1"	46	"	"A/C"	"55,2/44,8"	"117/95"	212
controllo_3	"POPTR_0005s10440.1"	30	"	"T/C"	"51,5/48,5"	"52/49"	101	stress_12bis	"POPTR_0005s10440.1"	30	"	"C/T"	"61,5/38,5"	"8/5"	13
controllo_3	"POPTR_0005s10440.1"	30	"	"T/C"	"51,5/48,5"	"52/49"	101	stress_42	"POPTR_0005s10440.1"	30	"	"T/C"	"68,4/31,6"	"13/6"	19
controllo_3	"POPTR_0005s10440.1"	30	"	"T/C"	"51,5/48,5"	"52/49"	101	stress_45	"POPTR_0005s10440.1"	30	"	"T/C"	"53,1/46,9"	"17/15"	32
controllo_3	"POPTR_0006s03660.1"	1630	"	"G/A"	"51,5/48,5"	"69/65"	134	stress_12bis	"POPTR_0006s03660.1"	1630	"	"A/G"	"56,8/43,2"	"21/16"	37
controllo_3	"POPTR_0006s03660.1"	1630	"	"G/A"	"51,5/48,5"	"69/65"	134	stress_45	"POPTR_0006s03660.1"	1630	"	"A/G"	"63,2/36,8"	"12/7"	19
controllo_3	"POPTR_0006s03660.1"	1805	"	"A/C"	"51,5/48,5"	"70/66"	136	stress_12bis	"POPTR_0006s03660.1"	1805	"	"A/C"	"51,9/48,1"	"14/13"	27
controllo_3	"POPTR_0006s03660.1"	1805	"	"A/C"	"51,5/48,5"	"70/66"	136	stress_45	"POPTR_0006s03660.1"	1805	"	"C/A"	"70,0/30,0"	"21/9"	30
controllo_3	"POPTR_0019s14100.1"	388	"	"T/A"	"51,5/48,5"	"768/724"	1492	stress_12bis	"POPTR_0019s14100.1"	388	"	"T/A"	"54,1/45,9"	"229/194"	423
controllo_3	"POPTR_0019s14100.1"	388	"	"T/A"	"51,5/48,5"	"768/724"	1492	stress_42	"POPTR_0019s14100.1"	388	"	"T/A"	"52,6/47,4"	"91/82"	173
controllo_3	"POPTR_0019s14100.1"	388	"	"T/A"	"51,5/48,5"	"768/724"	1492	stress_45	"POPTR_0019s14100.1"	388	"	"T/A"	"50,7/49,3"	"112/109"	221
controllo_3	"POPTR_0013s09550.1"	150	"	"G/A"	"51,5/48,5"	"101/95"	196	stress_12bis	"POPTR_0013s09550.1"	150	"	"G/A"	"57,1/42,9"	"20/15"	35
controllo_3	"POPTR_0013s09550.1"	150	"	"G/A"	"51,5/48,5"	"101/95"	196	stress_42	"POPTR_0013s09550.1"	150	"	"G/A"	"69,2/30,8"	"9/4"	13
controllo_3	"POPTR_0013s09550.1"	150	"	"G/A"	"51,5/48,5"	"101/95"	196	stress_45	"POPTR_0013s09550.1"	150	"	"A/G"	"55,0/45,0"	"11/9"	20
controllo_3	"POPTR_0013s07050.1"	603	"	"G/A"	"51,5/48,5"	"103/97"	200	stress_12bis	"POPTR_0013s07050.1"	603	"	"A/G"	"53,7/46,3"	"36/31"	67
controllo_3	"POPTR_0013s07050.1"	603	"	"G/A"	"51,5/48,5"	"103/97"	200	stress_42	"POPTR_0013s07050.1"	603	"	"A/G"	"71,1/28,9"	"27/11"	38
controllo_3	"POPTR_0013s07050.1"	603	"	"G/A"	"51,5/48,5"	"103/97"	200	stress_45	"POPTR_0013s07050.1"	603	"	"A/G"	"60,5/39,5"	"52/34"	86
controllo_3	"POPTR_0013s07050.1"	1213	"	"A/G"	"51,5/48,5"	"84/79"	163	stress_12bis	"POPTR_0013s07050.1"	1213	"	"A/G"	"64,3/35,7"	"27/15"	42
controllo_3	"POPTR_0013s07050.1"	1213	"	"A/G"	"51,5/48,5"	"84/79"	163	stress_42	"POPTR_0013s07050.1"	1213	"	"A/G"	"61,4/38,6"	"43/27"	70
controllo_3	"POPTR_0013s07050.1"	1213	"	"A/G"	"51,5/48,5"	"84/79"	163	stress_45	"POPTR_0013s07050.1"	1213	"	"A/G"	"64,9/35,1"	"48/26"	74
controllo_3	"POPTR_0004s14960.1"	1713	"	"C/T"	"51,5/48,5"	"53/50"	103	stress_12bis	"POPTR_0004s14960.1"	1713	"	"C/T"	"75,0/25,0"	"27/9"	36
controllo_3	"POPTR_0004s14960.1"	1713	"	"C/T"	"51,5/48,5"	"53/50"	103	stress_45	"POPTR_0004s14960.1"	1713	"	"T/C"	"60,0/40,0"	"9/6"	15
controllo_3	"POPTR_0004s01220.1"	561	"	"T/C"	"51,5/48,5"	"228/215"	443	stress_12bis	"POPTR_0004s01220.1"	561	"	"C/T"	"50,9/49,1"	"27/26"	53
controllo_3	"POPTR_0009s11920.1"	240	"	"T/G"	"51,5/48,5"	"53/50"	103	stress_12bis	"POPTR_0009s11920.1"	240	"	"G/T"	"71,4/28,6"	"20/8"	28
controllo_3	"POPTR_0009s11920.1"	240	"	"T/G"	"51,5/48,5"	"53/50"	103	stress_42	"POPTR_0009s11920.1"	240	"	"G/T"	"55,4/44,6"	"31/25"	56
controllo_3	"POPTR_0009s11920.1"	240	"	"T/G"	"51,5/48,5"	"53/50"	103	stress_45	"POPTR_0009s11920.1"	240	"	"G/T"	"55,9/44,1"	"52/41"	93
controllo_3	"POPTR_0012s04220.1"	188	"	"G/A"	"51,5/48,5"	"85/80"	165	stress_12bis	"POPTR_0012s04220.1"	188	"	"G/A"	"57,9/42,1"	"11/8"	19
controllo_3	"POPTR_0012s04220.1"	188	"	"G/A"	"51,5/48,5"	"85/80"	165	stress_45	"POPTR_0012s04220.1"	188	"	"A/G"	"66,7/33,3"	"10/5"	15
controllo_3	"POPTR_0012s04220.1"	226	"	"G/A"	"51,5/48,5"	"69/65"	134	stress_12bis	"POPTR_0012s04220.1"	226	"	"A/G"	"57,1/42,9"	"12/9"	21
controllo_3	"POPTR_0012s04220.1"	226	"	"G/A"	"51,5/48,5"	"69/65"	134	stress_45	"POPTR_0012s04220.1"	226	"	"G/A"	"53,8/46,2"	"7/6"	13
controllo_3	"POPTR_0011s05250.1"	510	"	"A/G"	"51,5/48,5"	"52/49"	101	stress_12bis	"POPTR_0011s05250.1"	510	"	"A/G"	"54,2/45,8"	"45/38"	83
controllo_3	"POPTR_0011s05250.1"	510	"	"A/G"	"51,5/48,5"	"52/49"	101	stress_42	"POPTR_0011s05250.1"	510	"	"G/A"	"57,8/42,2"	"37/27"	64
controllo_3	"POPTR_0011s05250.1"	510	"	"A/G"	"51,5/48,5"	"52/49"	101	stress_45	"POPTR_0011s05250.1"	510	"	"G/A"	"64,7/35,3"	"110/60"	170
controllo_3	"POPTR_0001s32950.1"	1002	"	"C/T"	"51,5/48,5"	"50/47"	97	stress_45	"POPTR_0001s32950.1"	1002	"	"C/T"	"54,7/45,3"	"82/68"	150
controllo_3	"POPTR_0001s34410.1"	105	"	"C/T"	"51,5/48,5"	"70/66"	136	stress_12bis	"POPTR_0001s34410.1"	105	"	"T/C"	"53,1/46,9"	"17/15"	32
controllo_3	"POPTR_0001s34410.1"	105	"	"C/T"	"51,5/48,5"	"70/66"	136	stress_42	"POPTR_0001s34410.1"	105	"	"T/C"	"52,6/47,4"	"10/9"	19
controllo_3	"POPTR_0001s34410.1"	105	"	"C/T"	"51,5/48,5"	"70/66"	136	stress_45	"POPTR_0001s34410.1"	105	"	"C/T"	"62,5/37,5"	"15/9"	24
controllo_3	"POPTR_0001s38810.1"	550	"	"A/G"	"51,5/48,5"	"464/437"	901	stress_12bis	"POPTR_0001s38810.1"	550	"	"A/G"	"61,2/38,8"	"156/99"	255
controllo_3	"POPTR_0001s38810.1"	550	"	"A/G"	"51,5/48,5"	"464/437"	901	stress_42	"POPTR_0001s38810.1"	550	"	"G/A"	"64,2/35,8"	"217/121"	338
controllo_3	"POPTR_0001s38810.1"	550	"	"A/G"	"51,5/48,5"	"464/437"	901	stress_45	"POPTR_0001s38810.1"	550	"	"G/A"	"64,3/35,7"	"272/151"	423
controllo_3	"POPTR_0001s24450.1"	1270	"	"A/G"	"51,5/48,5"	"70/66"	136	stress_12bis	"POPTR_0001s24450.1"	1270	"	"A/G"	"52,1/47,9"	"25/23"	48
controllo_3	"POPTR_0001s24450.1"	1270	"	"A/G"	"51,5/48,5"	"70/66"	136	stress_42	"POPTR_0001s24450.1"	1270	"	"A/G"	"60,0/40,0"	"12/8"	20
controllo_3	"POPTR_0001s24450.1"	1270	"	"A/G"	"51,5/48,5"	"70/66"	136	stress_45	"POPTR_0001s24450.1"	1270	"	"A/G"	"60,6/39,4"	"20/13"	33
controllo_3	"POPTR_0001s07870.1"	1212	"	"T/C"	"51,5/48,5"	"52/49"	101	stress_12bis	"POPTR_0001s07870.1"	1212	"	"C/T"	"62,5/37,5"	"10/6"	16
controllo_3	"POPTR_0001s07870.1"	1212	"	"T/C"	"51,5/48,5"	"52/49"	101	stress_42	"POPTR_0001s07870.1"	1212	"	"C/T"	"75,0/25,0"	"15/5"	20
controllo_3	"POPTR_0010s07020.1"	346	"	"A/T"	"51,5/48,5"	"50/47"	97	stress_45	"POPTR_0010s07020.1"	346	"	"A/T"	"61,3/38,7"	"73/46"	119
controllo_3	"POPTR_0010s08930.1"	88	"	"G/C"	"51,5/48,5"	"53/50"	103	stress_12bis	"POPTR_0010s08930.1"	88	"	"C/G"	"54,5/45,5"	"12/10"	22
controllo_3	"POPTR_0010s08930.1"	88	"	"G/C"	"51,5/48,5"	"53/50"	103	stress_42	"POPTR_0010s08930.1"	88	"	"C/G"	"75,0/25,0"	"9/3"	12
controllo_3	"POPTR_0010s08930.1"	88	"	"G/C"	"51,5/48,5"	"53/50"	103	stress_45	"POPTR_0010s08930.1"	88	"	"G/C"	"58,8/41,2"	"10/7"	17
controllo_3	"POPTR_0010s21280.1"	1656	"	"T/C"	"51,5/48,5"	"103/97"	200	stress_12bis	"POPTR_0010s21280.1"	1656	"	"C/T"	"60,0/40,0"	"45/30"	75
controllo_3	"POPTR_0010s21280.1"	1656	"	"T/C"	"51,5/48,5"	"103/97"	200	stress_42	"POPTR_0010s21280.1"	1656	"	"C/T"	"66,7/33,3"	"26/13"	39
controllo_3	"POPTR_0010s21280.1"	1656	"	"T/C"	"51,5/48,5"	"103/97"	200	stress_45	"POPTR_0010s21280.1"	1656	"	"C/T"	"59,7/40,3"	"37/25"	62
controllo_3	"POPTR_0007s02000.1"	137	"	"T/G"	"51,5/48,5"	"84/79"	163	stress_12bis	"POPTR_0007s02000.1"	137	"	"T/G"	"57,4/42,6"	"27/20"	47
controllo_3	"POPTR_0007s02000.1"	137	"	"T/G"	"51,5/48,5"	"84/79"	163	stress_42	"POPTR_0007s02000.1"	137	"	"G/T"	"56,7/43,3"	"17/13"	30
controllo_3	"POPTR_0007s02000.1"	137	"	"T/G"	"51,5/48,5"	"84/79"	163	stress_45	"POPTR_0007s02000.1"	137	"	"T/G"	"62,5/37,5"	"20/12"	32
controllo_3	"POPTR_0007s06620.1"	87	"	"G/A"	"51,5/48,5"	"123/116"	239	stress_12bis	"POPTR_0007s06620.1"	87	"	"G/A"	"52,3/47,7"	"23/21"	44
controllo_3	"POPTR_0007s06620.1"	87	"	"G/A"	"51,5/48,5"	"123/116"	239	stress_45	"POPTR_0007s06620.1"	87	"	"G/A"	"68,0/32,0"	"17/8"	25
controllo_3	"POPTR_0007s12010.1"	362	"	"C/T"	"51,5/48,5"	"84/79"	163	stress_12bis	"POPTR_0007s12010.1"	362	"	"C/T"	"50,0/50,0"	"22/22"	44
controllo_3	"POPTR_0007s12010.1"	362	"	"C/T"	"51,5/48,5"	"84/79"	163	stress_42	"POPTR_0007s12010.1"	362	"	"C/T"	"66,7/33,3"	"10/5"	15
controllo_3	"POPTR_0002s03130.1"	149	"	"G/C"	"51,5/48,5"	"102/96"	198	stress_12bis	"POPTR_0002s03130.1"	149	"	"C/G"	"50,0/50,0"	"39/39"	78
controllo_3	"POPTR_0002s03130.1"	149	"	"G/C"	"51,5/48,5"	"102/96"	198	stress_42	"POPTR_0002s03130.1"	149	"	"G/C"	"58,3/41,7"	"14/10"	24
controllo_3	"POPTR_0002s03130.1"	149	"	"G/C"	"51,5/48,5"	"102/96"	198	stress_45	"POPTR_0002s03130.1"	149	"	"G/C"	"59,1/40,9"	"13/9"	22
controllo_3	"POPTR_0002s04790.1"	252	"	"G/A"	"51,5/48,5"	"102/96"	198	stress_12bis	"POPTR_0002s04790.1"	252	"	"A/G"	"65,8/34,2"	"25/13"	38
controllo_3	"POPTR_0002s04790.1"	252	"	"G/A"	"51,5/48,5"	"102/96"	198	stress_42	"POPTR_0002s04790.1"	252	"	"G/A"	"54,5/45,5"	"6/5"	11
controllo_3	"POPTR_0002s04790.1"	252	"	"G/A"	"51,5/48,5"	"102/96"	198	stress_45	"POPTR_0002s04790.1"	252	"	"G/A"	"58,3/41,7"	"14/10"	24
controllo_3	"POPTR_0002s16850.1"	65	"	"A/C"	"51,5/48,5"	"101/95"	196	stress_12bis	"POPTR_0002s16850.1"	65	"	"C/A"	"51,7/48,3"	"31/29"	60
controllo_3	"POPTR_0002s16850.1"	65	"	"A/C"	"51,5/48,5"	"101/95"	196	stress_42	"POPTR_0002s16850.1"	65	"	"C/A"	"70,0/30,0"	"14/6"	20
controllo_3	"POPTR_0002s16850.1"	65	"	"A/C"	"51,5/48,5"	"101/95"	196	stress_45	"POPTR_0002s16850.1"	65	"	"C/A"	"64,7/35,3"	"11/6"	17
controllo_3	"POPTR_0002s26190.1"	697	"	"T/G"	"51,5/48,5"	"53/50"	103	stress_45	"POPTR_0002s26190.1"	697	"	"T/G"	"60,0/36,0"	"15/9"	25
controllo_3	"POPTR_0008s06720.1"	822	"	"C/A"	"51,5/48,5"	"70/66"	136	stress_12bis	"POPTR_0008s06720.1"	822	"	"C/A"	"58,3/41,7"	"21/15"	36
controllo_3	"POPTR_0008s06720.1"	822	"	"C/A"	"51,5/48,5"	"70/66"	136	stress_42	"POPTR_0008s06720.1"	822	"	"C/A"	"66,7/33,3"	"8/4"	12
controllo_3	"POPTR_0016s10780.1"	258	"	"G/C"	"51,5/48,5"	"270/254"	524	stress_12bis	"POPTR_0016s10780.1"	258	"	"G/C"	"71,8/28,2"	"56/22"	78
controllo_3	"POPTR_0016s10780.1"	258	"	"G/C"	"51,5/48,5"	"270/254"	524	stress_42	"POPTR_0016s10780.1"	258	"	"G/C"	"60,0/40,0"	"6/4"	10
controllo_3	"POPTR_0016s12110.1"	252	"	"A/T"	"51,5/48,5"	"85/80"	165	stress_12bis	"POPTR_0016s12110.1"	252	"	"A/T"	"51,0/49,0"	"26/25"	51
controllo_3	"POPTR_0016s12110.1"	252	"	"A/T"	"51,5/48,5"	"85/80"	165	stress_42	"POPTR_0016s12110.1"	252	"	"T/A"	"63,6/36,4"	"14/8"	22
controllo_3	"POPTR_0016s12110.1"	252	"	"A/T"	"51,5/48,5"	"85/80"	165	stress_45	"POPTR_0016s12110.1"	252	"	"A/T"	"52,2/47,8"	"12/11"	23
controllo_3	"POPTR_0016s14310.1"	111	"	"C/T"	"51,5/48,5"	"152/143"	295	stress_12bis	"POPTR_0016s14310.1"	111	"	"C/T"	"51,9/48,1"	"54/50"	104
controllo_3	"POPTR_0016s14310.1"	111	"	"C/T"	"51,5/48,5"	"152/143"	295	stress_45	"POPTR_0016s14310.1"	111	"	"T/C"	"84,6/15,4"	"11/2"	13
controllo_3	"POPTR_0013s15560.1"	294	"	"A/T"	"51,6/47,3"	"48/44"	93	stress_42	"POPTR_0013s15560.1"	294	"	"A/T"	"56,5/43,5"	"70/54"	124
controllo_3	"POPTR_0013s15560.1"	294	"	"A/T"	"51,6/47,3"	"48/44"	93	stress_45	"POPTR_0013s15560.1"	294	"	"A/T"	"62,3/37,7"	"101/61"	162
controllo_3	"POPTR_0006s08710.1"	931	"	"G/A"	"51,6/47,6"	"64/59"	124	stress_12bis	"POPTR_0006s08710.1"	931	"	"G/A"	"51,1/48,9"	"23/22"	45
controllo_3	"POPTR_0006s08710.1"	931	"	"G/A"	"51,6/47,6"	"64/59"	124	stress_42	"POPTR_0006s08710.1"	931	"	"A/G"	"56,5/43,5"	"13/10"	23
controllo_3	"POPTR_0006s08710.1"	931	"	"G/A"	"51,6/47,6"	"64/59"	124	stress_45	"POPTR_0006s08710.1"	931	"	"A/G"	"66,7/33,3"	"18/9"	27
controllo_3	"POPTR_0002s14730.1"	1893	"	"T/A"	"51,6/47,6"	"348/321"	675	stress_12bis	"POPTR_0002s14730.1"	1893	"	"A/T"	"50,5/49,0"	"101/98"	200
controllo_3	"POPTR_0002s14730.1"	1893	"	"T/A"	"51,6/47,6"	"348/321"	675	stress_42	"POPTR_0002s14730.1"	1893	"	"T/A"	"62,1/37,9"	"36/22"	58
controllo_3	"POPTR_0002s14730.1"	1893	"	"T/A"	"51,6/47,6"	"348/321"	675	stress_45	"POPTR_0002s14730.1"	1893	"	"T/A"	"53,8/44,6"	"35/29"	65
controllo_3	"POPTR_0013s08320.1"	245	"	"T/C"	"51,6/47,8"	"83/77"	161	stress_12bis	"POPTR_0013s08320.1"	245	"	"C/T"	"61,6/38,4"	"53/33"	86
controllo_3	"POPTR_0013s08320.1"	245	"	"T/C"	"51,6/47,8"	"83/77"	161	stress_42	"POPTR_0013s08320.1"	245	"	"C/T"	"64,0/36,0"	"16/9"	25
controllo_3	"POPTR_0013s08320.1"	245	"	"T/C"	"51,6/47,8"	"83/77"	161	stress_45	"POPTR_0013s08320.1"	245	"	"C/T"	"56,5/43,5"	"13/10"	23
controllo_3	"POPTR_0015s09990.1"	474	"	"G/C"	"51,6/47,8"	"96/89"	186	stress_12bis	"POPTR_0015s09990.1"	474	"	"G/C"	"62,7/37,3"	"32/19"	51
controllo_3	"POPTR_0015s09990.1"	474	"	"G/C"	"51,6/47,8"	"96/89"	186	stress_42	"POPTR_0015s09990.1"	474	"	"C/G"	"66,7/33,3"	"10/5"	15
controllo_3	"POPTR_0015s09990.1"	474	"	"G/C"	"51,6/47,8"	"96/89"	186	stress_45	"POPTR_0015s09990.1"	474	"	"G/C"	"83,3/16,7"	"10/2"	12
controllo_3	"POPTR_0014s02550.1"	1461	"	"C/G"	"51,6/48,0"	"114/106"	221	stress_12bis	"POPTR_0014s02550.1"	1461	"	"C/G"	"51,7/48,3"	"30/28"	58
controllo_3	"POPTR_0014s02550.1"	1461	"	"C/G"	"51,6/48,0"	"114/106"	221	stress_42	"POPTR_0014s02550.1"	1461	"	"C/G"	"56,4/41,0"	"44/32"	78
controllo_3	"POPTR_0014s02550.1"	1461	"	"C/G"	"51,6/48,0"	"114/106"	221	stress_45	"POPTR_0014s02550.1"	1461	"	"G/C"	"52,7/47,3"	"78/70"	148
controllo_3	"POPTR_0009s12710.1"	511	"	"T/A"	"51,6/48,0"	"1137/1057"	2204	stress_12bis	"POPTR_0009s12710.1"	511	"	"T/A"	"56,5/43,1"	"440/336"	779
controllo_3	"POPTR_0009s12710.1"	511	"	"T/A"	"51,6/48,0"	"1137/1057"	2204	stress_42	"POPTR_0009s12710.1"	511	"	"T/A"	"54,7/45,3"	"47/39"	86
controllo_3	"POPTR_0009s12710.1"	511	"	"T/A"	"51,6/48,0"	"1137/1057"	2204	stress_45	"POPTR_0009s12710.1"	511	"	"T/A"	"62,4/37,6"	"83/50"	133
controllo_3	"POPTR_0004s15440.1"	306	"	"T/A"	"51,6/48,1"	"193/180"	374	stress_12bis	"POPTR_0004s15440.1"	306	"	"A/T"	"50,7/49,3"	"37/36"	73
controllo_3	"POPTR_0004s15440.1"	306	"	"T/A"	"51,6/48,1"	"193/180"	374	stress_42	"POPTR_0004s15440.1"	306	"	"T/A"	"66,7/33,3"	"16/8"	24
controllo_3	"POPTR_0004s15440.1"	306	"	"T/A"	"51,6/48,1"	"193/180"	374	stress_45	"POPTR_0004s15440.1"	306	"	"A/T"	"52,4/47,6"	"11/10"	21
controllo_3	"POPTR_0005s00240.1"	1550	"	"G/A"	"51,6/48,4"	"96/90"	186	stress_12bis	"POPTR_0005s00240.1"	1550	"	"A/G"	"50,0/50,0"	"38/38"	76
controllo_3	"POPTR_0005s00240.1"	1550	"	"G/A"	"51,6/48,4"	"96/90"	186	stress_42	"POPTR_0005s00240.1"	1550	"	"G/A"	"53,6/46,4"	"15/13"	28
controllo_3	"POPTR_0005s00240.1"	1550	"	"G/A"	"51,6/48,4"	"96/90"	186	stress_45	"POPTR_0005s00240.1"	1550	"	"G/A"	"56,1/43,9"	"23/18"	41
controllo_3	"POPTR_0005s15660.1"	469	"	"A/G"	"51,6/48,4"	"9145/8579"	17728	stress_12bis	"POPTR_0005s15660.1"	469	"	"A/G"	"52,9/47,1"	"2141/1905"	4046
controllo_3	"POPTR_0005s15660.1"	469	"	"A/G"	"51,6/48,4"	"9145/8579"	17728	stress_42	"POPTR_0005s15660.1"	469	"	"A/G"	"57,3/42,7"	"728/543"	1271
controllo_3	"POPTR_0005s15660.1"	469	"	"A/G"	"51,6/48,4"	"9145/8579"	17728	stress_45	"POPTR_0005s15660.1"	469	"	"A/G"	"57,6/42,4"	"592/435"	1027
controllo_3	"POPTR_0006s22210.1"	189	"	"G/T"	"51,6/48,4"	"80/75"	155	stress_12bis	"POPTR_0006s22210.1"	189	"	"T/G"	"59,6/36,8"	"34/21"	57
controllo_3	"POPTR_0006s22210.1"	189	"	"G/T"	"51,6/48,4"	"80/75"	155	stress_42	"POPTR_0006s22210.1"	189	"	"G/T"	"50,0/47,3"	"37/35"	74
controllo_3	"POPTR_0006s22210.1"	189	"	"G/T"	"51,6/48,4"	"80/75"	155	stress_45	"POPTR_0006s22210.1"	189	"	"G/T"	"55,8/42,9"	"43/33"	77
controllo_3	"POPTR_0006s14400.1"	756	"	"G/C"	"51,6/48,4"	"758/711"	1469	stress_12bis	"POPTR_0006s14400.1"	756	"	"G/C"	"51,6/48,1"	"195/182"	378
controllo_3	"POPTR_0006s14400.1"	756	"	"G/C"	"51,6/48,4"	"758/711"	1469	stress_42	"POPTR_0006s14400.1"	756	"	"C/G"	"77,9/22,0"	"641/181"	823
controllo_3	"POPTR_0006s14400.1"	756	"	"G/C"	"51,6/48,4"	"758/711"	1469	stress_45	"POPTR_0006s14400.1"	756	"	"C/G"	"78,8/21,1"	"794/212"	1007
controllo_3	"POPTR_0006s03660.1"	4064	"	"T/A"	"51,6/48,4"	"94/88"	182	stress_12bis	"POPTR_0006s03660.1"	4064	"	"T/A"	"65,1/32,6"	"28/14"	43
controllo_3	"POPTR_0006s03660.1"	4064	"	"T/A"	"51,6/48,4"	"94/88"	182	stress_42	"POPTR_0006s03660.1"	4064	"	"T/A"	"66,7/33,3"	"14/7"	21
controllo_3	"POPTR_0006s03660.1"	4064	"	"T/A"	"51,6/48,4"	"94/88"	182	stress_45	"POPTR_0006s03660.1"	4064	"	"T/A"	"59,2/40,8"	"29/20"	49
controllo_3	"POPTR_0021s00380.1"	11	"	"C/G"	"51,6/48,4"	"81/76"	157	stress_12bis	"POPTR_0021s00380.1"	11	"	"C/G"	"58,2/41,8"	"32/23"	55
controllo_3	"POPTR_0003s08070.1"	363	"	"T/C"	"51,6/48,4"	"80/75"	155	stress_12bis	"POPTR_0003s08070.1"	363	"	"T/C"	"63,6/36,4"	"35/20"	55
controllo_3	"POPTR_0003s08070.1"	363	"	"T/C"	"51,6/48,4"	"80/75"	155	stress_42	"POPTR_0003s08070.1"	363	"	"T/C"	"68,8/31,2"	"22/10"	32
controllo_3	"POPTR_0003s08070.1"	363	"	"T/C"	"51,6/48,4"	"80/75"	155	stress_45	"POPTR_0003s08070.1"	363	"	"T/C"	"64,0/36,0"	"32/18"	50
controllo_3	"POPTR_0022s00530.1"	1401	"	"T/A"	"51,6/48,4"	"98/92"	190	stress_12bis	"POPTR_0022s00530.1"	1401	"	"A/T"	"50,9/49,1"	"27/26"	53
controllo_3	"POPTR_0022s00530.1"	1401	"	"T/A"	"51,6/48,4"	"98/92"	190	stress_42	"POPTR_0022s00530.1"	1401	"	"T/A"	"64,3/35,7"	"18/10"	28
controllo_3	"POPTR_0022s00530.1"	1401	"	"T/A"	"51,6/48,4"	"98/92"	190	stress_45	"POPTR_0022s00530.1"	1401	"	"A/T"	"57,1/42,9"	"44/33"	77
controllo_3	"POPTR_0019s09140.1"	9	"	"A/C"	"51,6/48,4"	"128/120"	248	stress_12bis	"POPTR_0019s09140.1"	9	"	"C/A"	"54,7/45,3"	"47/39"	86
controllo_3	"POPTR_0019s09140.1"	9	"	"A/C"	"51,6/48,4"	"128/120"	248	stress_42	"POPTR_0019s09140.1"	9	"	"C/A"	"60,0/40,0"	"12/8"	20
controllo_3	"POPTR_0019s09140.1"	9	"	"A/C"	"51,6/48,4"	"128/120"	248	stress_45	"POPTR_0019s09140.1"	9	"	"C/A"	"53,3/46,7"	"16/14"	30
controllo_3	"POPTR_0014s14200.1"	244	"	"C/T"	"51,6/48,4"	"132/124"	256	stress_12bis	"POPTR_0014s14200.1"	244	"	"C/T"	"66,7/33,3"	"12/6"	18
controllo_3	"POPTR_0014s14200.1"	244	"	"C/T"	"51,6/48,4"	"132/124"	256	stress_42	"POPTR_0014s14200.1"	244	"	"C/T"	"57,9/42,1"	"11/8"	19
controllo_3	"POPTR_0014s14200.1"	244	"	"C/T"	"51,6/48,4"	"132/124"	256	stress_45	"POPTR_0014s14200.1"	244	"	"T/C"	"62,4/37,6"	"63/38"	101
controllo_3	"POPTR_0014s15120.1"	513	"	"G/A"	"51,6/48,4"	"82/77"	159	stress_12bis	"POPTR_0014s15120.1"	513	"	"G/A"	"73,3/26,7"	"33/12"	45
controllo_3	"POPTR_0014s15120.1"	513	"	"G/A"	"51,6/48,4"	"82/77"	159	stress_42	"POPTR_0014s15120.1"	513	"	"A/G"	"54,2/45,8"	"13/11"	24
controllo_3	"POPTR_0014s15120.1"	513	"	"G/A"	"51,6/48,4"	"82/77"	159	stress_45	"POPTR_0014s15120.1"	513	"	"G/A"	"81,2/18,8"	"13/3"	16
controllo_3	"POPTR_0014s09760.1"	437	"	"A/G"	"51,6/48,4"	"65/61"	126	stress_12bis	"POPTR_0014s09760.1"	437	"	"A/G"	"51,4/48,6"	"18/17"	35
controllo_3	"POPTR_0014s09760.1"	437	"	"A/G"	"51,6/48,4"	"65/61"	126	stress_42	"POPTR_0014s09760.1"	437	"	"A/G"	"52,9/47,1"	"9/8"	17
controllo_3	"POPTR_0014s09760.1"	437	"	"A/G"	"51,6/48,4"	"65/61"	126	stress_45	"POPTR_0014s09760.1"	437	"	"A/G"	"50,0/50,0"	"12/12"	24
controllo_3	"POPTR_0004s21940.1"	1092	"	"T/C"	"51,6/48,4"	"66/62"	128	stress_12bis	"POPTR_0004s21940.1"	1092	"	"T/C"	"51,5/48,5"	"17/16"	33
controllo_3	"POPTR_0004s21940.1"	1092	"	"T/C"	"51,6/48,4"	"66/62"	128	stress_42	"POPTR_0004s21940.1"	1092	"	"C/T"	"60,0/40,0"	"6/4"	10
controllo_3	"POPTR_0004s21940.1"	1092	"	"T/C"	"51,6/48,4"	"66/62"	128	stress_45	"POPTR_0004s21940.1"	1092	"	"C/T"	"52,4/47,6"	"11/10"	21
controllo_3	"POPTR_0004s08380.1"	361	"	"G/T"	"51,6/48,4"	"1074/1008"	2083	stress_12bis	"POPTR_0004s08380.1"	361	"	"G/T"	"51,4/48,4"	"271/255"	527
controllo_3	"POPTR_0004s08380.1"	361	"	"G/T"	"51,6/48,4"	"1074/1008"	2083	stress_42	"POPTR_0004s08380.1"	361	"	"G/T"	"61,4/38,6"	"35/22"	57
controllo_3	"POPTR_0004s08380.1"	361	"	"G/T"	"51,6/48,4"	"1074/1008"	2083	stress_45	"POPTR_0004s08380.1"	361	"	"G/T"	"59,7/40,3"	"40/27"	67
controllo_3	"POPTR_0001s32770.1"	217	"	"C/T"	"51,6/48,4"	"63/59"	122	stress_12bis	"POPTR_0001s32770.1"	217	"	"T/C"	"65,6/34,4"	"21/11"	32
controllo_3	"POPTR_0001s32770.1"	217	"	"C/T"	"51,6/48,4"	"63/59"	122	stress_42	"POPTR_0001s32770.1"	217	"	"C/T"	"60,0/40,0"	"15/10"	25
controllo_3	"POPTR_0001s32770.1"	217	"	"C/T"	"51,6/48,4"	"63/59"	122	stress_45	"POPTR_0001s32770.1"	217	"	"T/C"	"59,7/40,3"	"40/27"	67
controllo_3	"POPTR_0001s44690.1"	228	"	"C/G"	"51,6/48,4"	"63/59"	122	stress_12bis	"POPTR_0001s44690.1"	228	"	"C/G"	"51,5/48,5"	"17/16"	33
controllo_3	"POPTR_0001s44690.1"	228	"	"C/G"	"51,6/48,4"	"63/59"	122	stress_42	"POPTR_0001s44690.1"	228	"	"C/G"	"50,0/50,0"	"13/13"	26
controllo_3	"POPTR_0001s44690.1"	228	"	"C/G"	"51,6/48,4"	"63/59"	122	stress_45	"POPTR_0001s44690.1"	228	"	"C/G"	"58,3/41,7"	"14/10"	24
controllo_3	"POPTR_0001s33710.1"	35	"	"G/A"	"51,6/48,4"	"80/75"	155	stress_12bis	"POPTR_0001s33710.1"	35	"	"G/A"	"63,0/37,0"	"17/10"	27
controllo_3	"POPTR_0001s33710.1"	35	"	"G/A"	"51,6/48,4"	"80/75"	155	stress_42	"POPTR_0001s33710.1"	35	"	"A/G"	"50,0/50,0"	"6/6"	12
controllo_3	"POPTR_0001s35220.1"	1152	"	"T/C"	"51,6/48,4"	"64/60"	124	stress_12bis	"POPTR_0001s35220.1"	1152	"	"T/C"	"51,4/48,6"	"18/17"	35
controllo_3	"POPTR_0001s35220.1"	1152	"	"T/C"	"51,6/48,4"	"64/60"	124	stress_45	"POPTR_0001s35220.1"	1152	"	"C/T"	"72,7/27,3"	"8/3"	11
controllo_3	"POPTR_0001s21140.1"	705	"	"T/C"	"51,6/48,4"	"303/284"	587	stress_12bis	"POPTR_0001s21140.1"	705	"	"T/C"	"53,0/47,0"	"123/109"	232
controllo_3	"POPTR_0001s21140.1"	705	"	"T/C"	"51,6/48,4"	"303/284"	587	stress_42	"POPTR_0001s21140.1"	705	"	"C/T"	"50,0/50,0"	"22/22"	44
controllo_3	"POPTR_0001s21140.1"	705	"	"T/C"	"51,6/48,4"	"303/284"	587	stress_45	"POPTR_0001s21140.1"	705	"	"T/C"	"76,1/23,9"	"35/11"	46
controllo_3	"POPTR_0001s40480.1"	106	"	"G/T"	"51,6/48,4"	"520/487"	1007	stress_12bis	"POPTR_0001s40480.1"	106	"	"T/G"	"57,5/42,1"	"172/126"	299
controllo_3	"POPTR_0001s40480.1"	106	"	"G/T"	"51,6/48,4"	"520/487"	1007	stress_42	"POPTR_0001s40480.1"	106	"	"G/T"	"57,7/42,3"	"15/11"	26
controllo_3	"POPTR_0001s40480.1"	106	"	"G/T"	"51,6/48,4"	"520/487"	1007	stress_45	"POPTR_0001s40480.1"	106	"	"G/T"	"59,0/41,0"	"23/16"	39
controllo_3	"POPTR_0010s14080.1"	1967	"	"C/T"	"51,6/48,4"	"127/119"	246	stress_12bis	"POPTR_0010s14080.1"	1967	"	"C/T"	"51,4/47,7"	"57/53"	111
controllo_3	"POPTR_0010s14080.1"	1967	"	"C/T"	"51,6/48,4"	"127/119"	246	stress_42	"POPTR_0010s14080.1"	1967	"	"C/T"	"65,4/34,6"	"17/9"	26
controllo_3	"POPTR_0010s14080.1"	1967	"	"C/T"	"51,6/48,4"	"127/119"	246	stress_45	"POPTR_0010s14080.1"	1967	"	"C/T"	"65,4/34,6"	"34/18"	52
controllo_3	"POPTR_0007s10140.1"	240	"	"G/A"	"51,6/48,4"	"65/61"	126	stress_12bis	"POPTR_0007s10140.1"	240	"	"G/A"	"51,9/48,1"	"14/13"	27
controllo_3	"POPTR_0007s10140.1"	240	"	"G/A"	"51,6/48,4"	"65/61"	126	stress_42	"POPTR_0007s10140.1"	240	"	"G/A"	"60,0/40,0"	"9/6"	15
controllo_3	"POPTR_0007s10140.1"	240	"	"G/A"	"51,6/48,4"	"65/61"	126	stress_45	"POPTR_0007s10140.1"	240	"	"G/A"	"65,0/35,0"	"13/7"	20
controllo_3	"POPTR_0007s12070.1"	615	"	"T/C"	"51,6/48,4"	"476/447"	923	stress_12bis	"POPTR_0007s12070.1"	615	"	"T/C"	"54,3/45,4"	"238/199"	438
controllo_3	"POPTR_0007s12070.1"	615	"	"T/C"	"51,6/48,4"	"476/447"	923	stress_42	"POPTR_0007s12070.1"	615	"	"C/T"	"54,7/45,3"	"47/39"	86
controllo_3	"POPTR_0007s12070.1"	615	"	"T/C"	"51,6/48,4"	"476/447"	923	stress_45	"POPTR_0007s12070.1"	615	"	"C/T"	"54,3/45,7"	"50/42"	92
controllo_3	"POPTR_0002s18020.1"	219	"	"C/T"	"51,6/48,4"	"66/62"	128	stress_12bis	"POPTR_0002s18020.1"	219	"	"C/T"	"55,8/44,2"	"29/23"	52
controllo_3	"POPTR_0002s18020.1"	219	"	"C/T"	"51,6/48,4"	"66/62"	128	stress_42	"POPTR_0002s18020.1"	219	"	"C/T"	"54,5/45,5"	"18/15"	33
controllo_3	"POPTR_0002s18020.1"	219	"	"C/T"	"51,6/48,4"	"66/62"	128	stress_45	"POPTR_0002s18020.1"	219	"	"C/T"	"60,0/40,0"	"42/28"	70
controllo_3	"POPTR_0002s25170.1"	312	"	"C/A"	"51,6/48,4"	"83/78"	161	stress_12bis	"POPTR_0002s25170.1"	312	"	"A/C"	"50,0/50,0"	"25/25"	50
controllo_3	"POPTR_0002s25170.1"	312	"	"C/A"	"51,6/48,4"	"83/78"	161	stress_42	"POPTR_0002s25170.1"	312	"	"A/C"	"56,5/43,5"	"26/20"	46
controllo_3	"POPTR_0002s25170.1"	312	"	"C/A"	"51,6/48,4"	"83/78"	161	stress_45	"POPTR_0002s25170.1"	312	"	"C/A"	"53,5/46,5"	"38/33"	71
controllo_3	"POPTR_0002s10870.1"	393	"	"T/A"	"51,6/48,4"	"63/59"	122	stress_12bis	"POPTR_0002s10870.1"	393	"	"T/A"	"63,0/37,0"	"17/10"	27
controllo_3	"POPTR_0002s10870.1"	393	"	"T/A"	"51,6/48,4"	"63/59"	122	stress_42	"POPTR_0002s10870.1"	393	"	"A/T"	"50,0/50,0"	"5/5"	10
controllo_3	"POPTR_0002s10870.1"	393	"	"T/A"	"51,6/48,4"	"63/59"	122	stress_45	"POPTR_0002s10870.1"	393	"	"A/T"	"53,3/46,7"	"8/7"	15
controllo_3	"POPTR_0002s14730.1"	1246	"	"C/T"	"51,6/48,4"	"298/280"	578	stress_12bis	"POPTR_0002s14730.1"	1246	"	"C/T"	"52,7/46,7"	"87/77"	165
controllo_3	"POPTR_0002s14730.1"	1246	"	"C/T"	"51,6/48,4"	"298/280"	578	stress_42	"POPTR_0002s14730.1"	1246	"	"C/T"	"58,5/41,5"	"24/17"	41
controllo_3	"POPTR_0002s14730.1"	1246	"	"C/T"	"51,6/48,4"	"298/280"	578	stress_45	"POPTR_0002s14730.1"	1246	"	"C/T"	"53,7/46,3"	"22/19"	41
controllo_3	"POPTR_0002s08010.1"	166	"	"G/A"	"51,6/48,4"	"98/92"	190	stress_12bis	"POPTR_0002s08010.1"	166	"	"G/A"	"63,0/37,0"	"29/17"	46
controllo_3	"POPTR_0002s08010.1"	166	"	"G/A"	"51,6/48,4"	"98/92"	190	stress_45	"POPTR_0002s08010.1"	166	"	"G/A"	"68,8/31,2"	"11/5"	16
controllo_3	"POPTR_0016s06620.1"	2067	"	"T/C"	"51,6/48,4"	"95/89"	184	stress_12bis	"POPTR_0016s06620.1"	2067	"	"T/C"	"66,7/33,3"	"10/5"	15
controllo_3	"POPTR_0016s06620.1"	2067	"	"T/C"	"51,6/48,4"	"95/89"	184	stress_42	"POPTR_0016s06620.1"	2067	"	"T/C"	"63,6/36,4"	"7/4"	11
controllo_3	"POPTR_0016s06620.1"	2067	"	"T/C"	"51,6/48,4"	"95/89"	184	stress_45	"POPTR_0016s06620.1"	2067	"	"T/C"	"62,1/37,9"	"18/11"	29
controllo_3	"POPTR_0009s08520.1"	1046	"	"C/T"	"51,7/45,5"	"74/65"	143	stress_12bis	"POPTR_0009s08520.1"	1046	"	"C/T"	"69,8/30,2"	"30/13"	43
controllo_3	"POPTR_0009s08520.1"	1046	"	"C/T"	"51,7/45,5"	"74/65"	143	stress_42	"POPTR_0009s08520.1"	1046	"	"T/C"	"72,7/27,3"	"8/3"	11
controllo_3	"POPTR_0009s08520.1"	1046	"	"C/T"	"51,7/45,5"	"74/65"	143	stress_45	"POPTR_0009s08520.1"	1046	"	"T/C"	"58,3/41,7"	"7/5"	12
controllo_3	"POPTR_0005s25850.1"	1047	"	"C/T"	"51,7/47,6"	"74/68"	143	stress_12bis	"POPTR_0005s25850.1"	1047	"	"C/T"	"56,2/43,8"	"9/7"	16
controllo_3	"POPTR_0005s25850.1"	1047	"	"C/T"	"51,7/47,6"	"74/68"	143	stress_42	"POPTR_0005s25850.1"	1047	"	"C/T"	"61,5/38,5"	"8/5"	13
controllo_3	"POPTR_0005s25850.1"	1047	"	"C/T"	"51,7/47,6"	"74/68"	143	stress_45	"POPTR_0005s25850.1"	1047	"	"T/C"	"62,5/37,5"	"10/6"	16
controllo_3	"POPTR_0008s09150.1"	180	"	"T/C"	"51,7/47,7"	"78/72"	151	stress_12bis	"POPTR_0008s09150.1"	180	"	"C/T"	"69,6/30,4"	"16/7"	23
controllo_3	"POPTR_0008s09150.1"	180	"	"T/C"	"51,7/47,7"	"78/72"	151	stress_42	"POPTR_0008s09150.1"	180	"	"C/T"	"51,4/48,6"	"54/51"	105
controllo_3	"POPTR_0008s09150.1"	180	"	"T/C"	"51,7/47,7"	"78/72"	151	stress_45	"POPTR_0008s09150.1"	180	"	"C/T"	"50,5/49,5"	"105/103"	208
controllo_3	"POPTR_0012s09200.1"	539	"	"C/T"	"51,7/48,0"	"184/171"	356	stress_12bis	"POPTR_0012s09200.1"	539	"	"C/T"	"50,0/50,0"	"53/53"	106
controllo_3	"POPTR_0012s09200.1"	539	"	"C/T"	"51,7/48,0"	"184/171"	356	stress_42	"POPTR_0012s09200.1"	539	"	"C/T"	"60,0/40,0"	"18/12"	30
controllo_3	"POPTR_0012s09200.1"	539	"	"C/T"	"51,7/48,0"	"184/171"	356	stress_45	"POPTR_0012s09200.1"	539	"	"T/C"	"55,4/44,6"	"36/29"	65
controllo_3	"POPTR_0009s05240.1"	395	"	"A/C"	"51,7/48,1"	"200/186"	387	stress_12bis	"POPTR_0009s05240.1"	395	"	"A/C"	"59,7/40,3"	"74/50"	124
controllo_3	"POPTR_0009s05240.1"	395	"	"A/C"	"51,7/48,1"	"200/186"	387	stress_42	"POPTR_0009s05240.1"	395	"	"C/A"	"71,8/28,2"	"28/11"	39
controllo_3	"POPTR_0009s05240.1"	395	"	"A/C"	"51,7/48,1"	"200/186"	387	stress_45	"POPTR_0009s05240.1"	395	"	"C/A"	"76,5/21,6"	"39/11"	51
controllo_3	"POPTR_0004s22810.1"	342	"	"C/T"	"51,7/48,2"	"3074/2864"	5941	stress_12bis	"POPTR_0004s22810.1"	342	"	"C/T"	"50,8/49,2"	"897/869"	1766
controllo_3	"POPTR_0004s22810.1"	342	"	"C/T"	"51,7/48,2"	"3074/2864"	5941	stress_42	"POPTR_0004s22810.1"	342	"	"C/T"	"55,0/45,0"	"376/308"	684
controllo_3	"POPTR_0004s22810.1"	342	"	"C/T"	"51,7/48,2"	"3074/2864"	5941	stress_45	"POPTR_0004s22810.1"	342	"	"C/T"	"58,7/41,3"	"474/334"	808
controllo_3	"POPTR_0005s05450.1"	398	"	"C/G"	"51,7/48,3"	"108/101"	209	stress_12bis	"POPTR_0005s05450.1"	398	"	"G/C"	"63,3/36,7"	"31/18"	49
controllo_3	"POPTR_0005s05450.1"	398	"	"C/G"	"51,7/48,3"	"108/101"	209	stress_42	"POPTR_0005s05450.1"	398	"	"G/C"	"54,5/45,5"	"6/5"	11
controllo_3	"POPTR_0005s05450.1"	398	"	"C/G"	"51,7/48,3"	"108/101"	209	stress_45	"POPTR_0005s05450.1"	398	"	"C/G"	"71,4/28,6"	"10/4"	14
controllo_3	"POPTR_0006s05160.1"	852	"	"C/T"	"51,7/48,3"	"139/130"	269	stress_12bis	"POPTR_0006s05160.1"	852	"	"C/T"	"52,2/47,8"	"59/54"	113
controllo_3	"POPTR_0006s05160.1"	852	"	"C/T"	"51,7/48,3"	"139/130"	269	stress_42	"POPTR_0006s05160.1"	852	"	"C/T"	"50,0/50,0"	"22/22"	44
controllo_3	"POPTR_0006s05160.1"	852	"	"C/T"	"51,7/48,3"	"139/130"	269	stress_45	"POPTR_0006s05160.1"	852	"	"T/C"	"60,0/40,0"	"36/24"	60
controllo_3	"POPTR_0006s10080.1"	601	"	"C/T"	"51,7/48,3"	"93/87"	180	stress_12bis	"POPTR_0006s10080.1"	601	"	"C/T"	"62,5/37,5"	"40/24"	64
controllo_3	"POPTR_0006s10080.1"	601	"	"C/T"	"51,7/48,3"	"93/87"	180	stress_42	"POPTR_0006s10080.1"	601	"	"T/C"	"54,0/46,0"	"27/23"	50
controllo_3	"POPTR_0006s10080.1"	601	"	"C/T"	"51,7/48,3"	"93/87"	180	stress_45	"POPTR_0006s10080.1"	601	"	"T/C"	"60,9/39,1"	"84/54"	138
controllo_3	"POPTR_0006s04960.1"	300	"	"T/C"	"51,7/48,3"	"123/115"	238	stress_12bis	"POPTR_0006s04960.1"	300	"	"T/C"	"56,8/43,2"	"25/19"	44
controllo_3	"POPTR_0006s04960.1"	300	"	"T/C"	"51,7/48,3"	"123/115"	238	stress_45	"POPTR_0006s04960.1"	300	"	"T/C"	"55,0/45,0"	"11/9"	20
controllo_3	"POPTR_0018s11820.1"	181	"	"A/C"	"51,7/48,3"	"226/211"	437	stress_12bis	"POPTR_0018s11820.1"	181	"	"C/A"	"56,2/43,8"	"63/49"	112
controllo_3	"POPTR_0018s11820.1"	181	"	"A/C"	"51,7/48,3"	"226/211"	437	stress_42	"POPTR_0018s11820.1"	181	"	"A/C"	"66,7/33,3"	"14/7"	21
controllo_3	"POPTR_0018s11820.1"	181	"	"A/C"	"51,7/48,3"	"226/211"	437	stress_45	"POPTR_0018s11820.1"	181	"	"A/C"	"64,0/36,0"	"16/9"	25
controllo_3	"POPTR_0003s01450.1"	744	"	"A/G"	"51,7/48,3"	"152/142"	294	stress_12bis	"POPTR_0003s01450.1"	744	"	"A/G"	"56,9/43,1"	"37/28"	65
controllo_3	"POPTR_0003s01450.1"	744	"	"A/G"	"51,7/48,3"	"152/142"	294	stress_42	"POPTR_0003s01450.1"	744	"	"A/G"	"50,0/50,0"	"20/20"	40
controllo_3	"POPTR_0003s01450.1"	744	"	"A/G"	"51,7/48,3"	"152/142"	294	stress_45	"POPTR_0003s01450.1"	744	"	"G/A"	"55,2/44,8"	"37/30"	67
controllo_3	"POPTR_0003s14220.1"	1881	"	"T/C"	"51,7/48,3"	"75/70"	145	stress_12bis	"POPTR_0003s14220.1"	1881	"	"C/T"	"78,6/21,4"	"11/3"	14
controllo_3	"POPTR_0003s20840.1"	1148	"	"A/T"	"51,7/48,3"	"46/43"	89	stress_12bis	"POPTR_0003s20840.1"	1148	"	"A/T"	"54,6/45,4"	"65/54"	119
controllo_3	"POPTR_0019s11720.1"	499	"	"C/A"	"51,7/48,3"	"197/184"	381	stress_12bis	"POPTR_0019s11720.1"	499	"	"A/C"	"51,4/48,6"	"38/36"	74
controllo_3	"POPTR_0019s11720.1"	499	"	"C/A"	"51,7/48,3"	"197/184"	381	stress_42	"POPTR_0019s11720.1"	499	"	"C/A"	"58,8/41,2"	"20/14"	34
controllo_3	"POPTR_0019s11720.1"	499	"	"C/A"	"51,7/48,3"	"197/184"	381	stress_45	"POPTR_0019s11720.1"	499	"	"C/A"	"51,4/48,6"	"19/18"	37
controllo_3	"POPTR_0013s07620.1"	76	"	"T/C"	"51,7/48,3"	"60/56"	116	stress_12bis	"POPTR_0013s07620.1"	76	"	"C/T"	"58,3/41,7"	"14/10"	24
controllo_3	"POPTR_0013s07620.1"	76	"	"T/C"	"51,7/48,3"	"60/56"	116	stress_45	"POPTR_0013s07620.1"	76	"	"T/C"	"52,9/47,1"	"9/8"	17
controllo_3	"POPTR_0013s04210.1"	99	"	"C/T"	"51,7/48,3"	"77/72"	149	stress_12bis	"POPTR_0013s04210.1"	99	"	"T/C"	"54,2/45,8"	"26/22"	48
controllo_3	"POPTR_0013s04210.1"	99	"	"C/T"	"51,7/48,3"	"77/72"	149	stress_42	"POPTR_0013s04210.1"	99	"	"T/C"	"70,0/30,0"	"7/3"	10
controllo_3	"POPTR_0013s04210.1"	99	"	"C/T"	"51,7/48,3"	"77/72"	149	stress_45	"POPTR_0013s04210.1"	99	"	"C/T"	"51,6/48,4"	"16/15"	31
controllo_3	"POPTR_0014s13430.1"	960	"	"T/G"	"51,7/48,3"	"93/87"	180	stress_12bis	"POPTR_0014s13430.1"	960	"	"G/T"	"62,9/37,1"	"44/26"	70
controllo_3	"POPTR_0014s13430.1"	960	"	"T/G"	"51,7/48,3"	"93/87"	180	stress_42	"POPTR_0014s13430.1"	960	"	"T/G"	"54,5/45,5"	"6/5"	11
controllo_3	"POPTR_0014s13430.1"	960	"	"T/G"	"51,7/48,3"	"93/87"	180	stress_45	"POPTR_0014s13430.1"	960	"	"T/G"	"58,8/41,2"	"10/7"	17
controllo_3	"POPTR_0014s06370.1"	453	"	"A/G"	"51,7/48,3"	"119/111"	230	stress_12bis	"POPTR_0014s06370.1"	453	"	"G/A"	"51,1/48,9"	"46/44"	90
controllo_3	"POPTR_0014s06370.1"	453	"	"A/G"	"51,7/48,3"	"119/111"	230	stress_42	"POPTR_0014s06370.1"	453	"	"A/G"	"69,2/30,8"	"27/12"	39
controllo_3	"POPTR_0014s06370.1"	453	"	"A/G"	"51,7/48,3"	"119/111"	230	stress_45	"POPTR_0014s06370.1"	453	"	"A/G"	"59,5/40,5"	"50/34"	84
controllo_3	"POPTR_0004s15960.1"	1520	"	"C/T"	"51,7/48,3"	"109/102"	211	stress_12bis	"POPTR_0004s15960.1"	1520	"	"C/T"	"81,1/18,9"	"30/7"	37
controllo_3	"POPTR_0004s15960.1"	1520	"	"C/T"	"51,7/48,3"	"109/102"	211	stress_42	"POPTR_0004s15960.1"	1520	"	"C/T"	"75,0/25,0"	"21/7"	28
controllo_3	"POPTR_0004s15960.1"	1520	"	"C/T"	"51,7/48,3"	"109/102"	211	stress_45	"POPTR_0004s15960.1"	1520	"	"T/C"	"61,1/38,9"	"22/14"	36
controllo_3	"POPTR_0004s14960.1"	249	"	"T/C"	"51,7/48,3"	"74/69"	143	stress_12bis	"POPTR_0004s14960.1"	249	"	"C/T"	"50,0/50,0"	"21/21"	42
controllo_3	"POPTR_0004s14960.1"	249	"	"T/C"	"51,7/48,3"	"74/69"	143	stress_45	"POPTR_0004s14960.1"	249	"	"T/C"	"57,9/42,1"	"11/8"	19
controllo_3	"POPTR_0004s01990.1"	327	"	"T/C"	"51,7/48,3"	"208/194"	402	stress_12bis	"POPTR_0004s01990.1"	327	"	"T/C"	"66,2/33,8"	"43/22"	65
controllo_3	"POPTR_0009s13650.1"	675	"	"G/A"	"51,7/48,3"	"61/57"	118	stress_12bis	"POPTR_0009s13650.1"	675	"	"G/A"	"58,2/41,8"	"39/28"	67
controllo_3	"POPTR_0009s13650.1"	675	"	"G/A"	"51,7/48,3"	"61/57"	118	stress_42	"POPTR_0009s13650.1"	675	"	"G/A"	"56,9/43,1"	"37/28"	65
controllo_3	"POPTR_0009s13650.1"	675	"	"G/A"	"51,7/48,3"	"61/57"	118	stress_45	"POPTR_0009s13650.1"	675	"	"G/A"	"57,1/42,9"	"24/18"	42
controllo_3	"POPTR_0001s10700.1"	996	"	"C/A"	"51,7/48,3"	"15/14"	29	stress_42	"POPTR_0001s10700.1"	996	"	"C/A"	"53,4/46,6"	"78/68"	146
controllo_3	"POPTR_0001s10700.1"	996	"	"C/A"	"51,7/48,3"	"15/14"	29	stress_45	"POPTR_0001s10700.1"	996	"	"A/C"	"50,9/49,1"	"54/52"	106
controllo_3	"POPTR_0001s10930.1"	357	"	"C/G"	"51,7/48,3"	"107/100"	207	stress_12bis	"POPTR_0001s10930.1"	357	"	"C/G"	"51,1/48,9"	"23/22"	45
controllo_3	"POPTR_0001s10930.1"	357	"	"C/G"	"51,7/48,3"	"107/100"	207	stress_42	"POPTR_0001s10930.1"	357	"	"G/C"	"55,0/45,0"	"22/18"	40
controllo_3	"POPTR_0001s10930.1"	357	"	"C/G"	"51,7/48,3"	"107/100"	207	stress_45	"POPTR_0001s10930.1"	357	"	"G/C"	"52,9/47,1"	"27/24"	51
controllo_3	"POPTR_0001s32780.1"	1164	"	"T/C"	"51,7/48,3"	"77/72"	149	stress_12bis	"POPTR_0001s32780.1"	1164	"	"T/C"	"63,3/36,7"	"19/11"	30
controllo_3	"POPTR_0001s32780.1"	1164	"	"T/C"	"51,7/48,3"	"77/72"	149	stress_42	"POPTR_0001s32780.1"	1164	"	"T/C"	"58,6/41,4"	"41/29"	70
controllo_3	"POPTR_0001s32780.1"	1164	"	"T/C"	"51,7/48,3"	"77/72"	149	stress_45	"POPTR_0001s32780.1"	1164	"	"T/C"	"64,2/35,8"	"79/44"	123
controllo_3	"POPTR_0001s35030.1"	804	"	"A/G"	"51,7/48,3"	"60/56"	116	stress_45	"POPTR_0001s35030.1"	804	"	"G/A"	"81,2/18,8"	"13/3"	16
controllo_3	"POPTR_0001s24450.1"	1283	"	"G/T"	"51,7/48,3"	"78/73"	151	stress_12bis	"POPTR_0001s24450.1"	1283	"	"T/G"	"51,0/49,0"	"26/25"	51
controllo_3	"POPTR_0001s24450.1"	1283	"	"G/T"	"51,7/48,3"	"78/73"	151	stress_42	"POPTR_0001s24450.1"	1283	"	"T/G"	"65,0/35,0"	"13/7"	20
controllo_3	"POPTR_0001s24450.1"	1283	"	"G/T"	"51,7/48,3"	"78/73"	151	stress_45	"POPTR_0001s24450.1"	1283	"	"T/G"	"52,5/47,5"	"21/19"	40
controllo_3	"POPTR_0010s17400.1"	435	"	"C/T"	"51,7/48,3"	"60/56"	116	stress_12bis	"POPTR_0010s17400.1"	435	"	"T/C"	"73,3/26,7"	"22/8"	30
controllo_3	"POPTR_0010s17400.1"	435	"	"C/T"	"51,7/48,3"	"60/56"	116	stress_42	"POPTR_0010s17400.1"	435	"	"T/C"	"60,0/40,0"	"9/6"	15
controllo_3	"POPTR_0010s17400.1"	435	"	"C/T"	"51,7/48,3"	"60/56"	116	stress_45	"POPTR_0010s17400.1"	435	"	"T/C"	"53,8/46,2"	"7/6"	13
controllo_3	"POPTR_0007s06620.1"	269	"	"G/A"	"51,7/48,3"	"108/101"	209	stress_12bis	"POPTR_0007s06620.1"	269	"	"A/G"	"57,9/42,1"	"22/16"	38
controllo_3	"POPTR_0007s06620.1"	269	"	"G/A"	"51,7/48,3"	"108/101"	209	stress_45	"POPTR_0007s06620.1"	269	"	"A/G"	"62,5/37,5"	"10/6"	16
controllo_3	"POPTR_0002s03130.1"	711	"	"T/C"	"51,7/48,3"	"108/101"	209	stress_12bis	"POPTR_0002s03130.1"	711	"	"T/C"	"57,0/43,0"	"45/34"	79
controllo_3	"POPTR_0002s03130.1"	711	"	"T/C"	"51,7/48,3"	"108/101"	209	stress_42	"POPTR_0002s03130.1"	711	"	"C/T"	"54,8/45,2"	"17/14"	31
controllo_3	"POPTR_0002s03130.1"	711	"	"T/C"	"51,7/48,3"	"108/101"	209	stress_45	"POPTR_0002s03130.1"	711	"	"C/T"	"53,8/46,2"	"14/12"	26
controllo_3	"POPTR_0002s21340.1"	980	"	"T/C"	"51,7/48,3"	"77/72"	149	stress_12bis	"POPTR_0002s21340.1"	980	"	"C/T"	"61,1/38,9"	"33/21"	54
controllo_3	"POPTR_0002s21340.1"	980	"	"T/C"	"51,7/48,3"	"77/72"	149	stress_42	"POPTR_0002s21340.1"	980	"	"T/C"	"56,1/43,9"	"32/25"	57
controllo_3	"POPTR_0002s21340.1"	980	"	"T/C"	"51,7/48,3"	"77/72"	149	stress_45	"POPTR_0002s21340.1"	980	"	"C/T"	"54,2/45,8"	"64/54"	118
controllo_3	"POPTR_0008s05480.1"	1833	"	"T/C"	"51,7/48,3"	"337/315"	652	stress_12bis	"POPTR_0008s05480.1"	1833	"	"T/C"	"56,3/43,7"	"125/97"	222
controllo_3	"POPTR_0008s05480.1"	1833	"	"T/C"	"51,7/48,3"	"337/315"	652	stress_42	"POPTR_0008s05480.1"	1833	"	"C/T"	"54,3/45,7"	"94/79"	173
controllo_3	"POPTR_0008s05480.1"	1833	"	"T/C"	"51,7/48,3"	"337/315"	652	stress_45	"POPTR_0008s05480.1"	1833	"	"C/T"	"52,4/47,6"	"188/171"	359
controllo_3	"POPTR_0008s18230.1"	120	"	"G/A"	"51,7/48,3"	"408/381"	789	stress_12bis	"POPTR_0008s18230.1"	120	"	"A/G"	"51,2/48,8"	"124/118"	242
controllo_3	"POPTR_0008s18230.1"	120	"	"G/A"	"51,7/48,3"	"408/381"	789	stress_42	"POPTR_0008s18230.1"	120	"	"G/A"	"52,8/47,2"	"66/59"	125
controllo_3	"POPTR_0008s18230.1"	120	"	"G/A"	"51,7/48,3"	"408/381"	789	stress_45	"POPTR_0008s18230.1"	120	"	"A/G"	"53,2/46,8"	"41/36"	77
controllo_3	"POPTR_0008s05870.1"	1353	"	"C/T"	"51,7/48,3"	"1286/1201"	2487	stress_12bis	"POPTR_0008s05870.1"	1353	"	"T/C"	"55,0/45,0"	"493/404"	897
controllo_3	"POPTR_0008s05870.1"	1353	"	"C/T"	"51,7/48,3"	"1286/1201"	2487	stress_42	"POPTR_0008s05870.1"	1353	"	"C/T"	"52,8/47,2"	"151/135"	286
controllo_3	"POPTR_0008s05870.1"	1353	"	"C/T"	"51,7/48,3"	"1286/1201"	2487	stress_45	"POPTR_0008s05870.1"	1353	"	"C/T"	"57,6/42,4"	"174/128"	302
controllo_3	"POPTR_0008s08410.1"	192	"	"T/C"	"51,7/48,3"	"448/418"	866	stress_12bis	"POPTR_0008s08410.1"	192	"	"T/C"	"55,7/44,3"	"112/89"	201
controllo_3	"POPTR_0008s08410.1"	192	"	"T/C"	"51,7/48,3"	"448/418"	866	stress_42	"POPTR_0008s08410.1"	192	"	"T/C"	"66,7/33,3"	"18/9"	27
controllo_3	"POPTR_0008s08410.1"	192	"	"T/C"	"51,7/48,3"	"448/418"	866	stress_45	"POPTR_0008s08410.1"	192	"	"T/C"	"61,1/38,9"	"44/28"	72
controllo_3	"POPTR_0008s08400.1"	183	"	"T/C"	"51,7/48,3"	"61/57"	118	stress_12bis	"POPTR_0008s08400.1"	183	"	"C/T"	"50,0/50,0"	"10/10"	20
controllo_3	"POPTR_0008s08400.1"	183	"	"T/C"	"51,7/48,3"	"61/57"	118	stress_42	"POPTR_0008s08400.1"	183	"	"T/C"	"55,6/44,4"	"10/8"	18
controllo_3	"POPTR_0008s08400.1"	183	"	"T/C"	"51,7/48,3"	"61/57"	118	stress_45	"POPTR_0008s08400.1"	183	"	"T/C"	"56,8/43,2"	"25/19"	44
controllo_3	"POPTR_0009s13650.1"	259	"	"T/C"	"51,8/47,3"	"57/52"	110	stress_12bis	"POPTR_0009s13650.1"	259	"	"T/C"	"53,4/46,6"	"39/34"	73
controllo_3	"POPTR_0009s13650.1"	259	"	"T/C"	"51,8/47,3"	"57/52"	110	stress_42	"POPTR_0009s13650.1"	259	"	"C/T"	"52,0/48,0"	"13/12"	25
controllo_3	"POPTR_0009s13650.1"	259	"	"T/C"	"51,8/47,3"	"57/52"	110	stress_45	"POPTR_0009s13650.1"	259	"	"T/C"	"63,0/37,0"	"17/10"	27
controllo_3	"POPTR_0003s19210.1"	333	"	"C/A"	"51,8/47,8"	"264/244"	510	stress_12bis	"POPTR_0003s19210.1"	333	"	"C/A"	"54,8/45,2"	"74/61"	135
controllo_3	"POPTR_0003s19210.1"	333	"	"C/A"	"51,8/47,8"	"264/244"	510	stress_42	"POPTR_0003s19210.1"	333	"	"A/C"	"61,5/38,5"	"16/10"	26
controllo_3	"POPTR_0003s19210.1"	333	"	"C/A"	"51,8/47,8"	"264/244"	510	stress_45	"POPTR_0003s19210.1"	333	"	"A/C"	"67,6/32,4"	"25/12"	37
controllo_3	"POPTR_0009s09710.1"	597	"	"A/G"	"51,8/47,9"	"184/170"	355	stress_12bis	"POPTR_0009s09710.1"	597	"	"G/A"	"51,8/48,2"	"116/108"	224
controllo_3	"POPTR_0009s09710.1"	597	"	"A/G"	"51,8/47,9"	"184/170"	355	stress_42	"POPTR_0009s09710.1"	597	"	"A/G"	"60,4/39,6"	"32/21"	53
controllo_3	"POPTR_0009s09710.1"	597	"	"A/G"	"51,8/47,9"	"184/170"	355	stress_45	"POPTR_0009s09710.1"	597	"	"G/A"	"52,6/47,4"	"40/36"	76
controllo_3	"POPTR_0014s02410.1"	1128	"	"T/C"	"51,8/48,0"	"501/465"	968	stress_12bis	"POPTR_0014s02410.1"	1128	"	"T/C"	"54,4/44,9"	"86/71"	158
controllo_3	"POPTR_0014s02410.1"	1128	"	"T/C"	"51,8/48,0"	"501/465"	968	stress_42	"POPTR_0014s02410.1"	1128	"	"T/C"	"51,2/48,8"	"153/146"	299
controllo_3	"POPTR_0014s02410.1"	1128	"	"T/C"	"51,8/48,0"	"501/465"	968	stress_45	"POPTR_0014s02410.1"	1128	"	"C/T"	"54,1/45,9"	"239/203"	442
controllo_3	"POPTR_0006s04230.1"	597	"	"C/T"	"51,8/48,2"	"73/68"	141	stress_12bis	"POPTR_0006s04230.1"	597	"	"T/C"	"55,1/44,9"	"70/57"	127
controllo_3	"POPTR_0006s04230.1"	597	"	"C/T"	"51,8/48,2"	"73/68"	141	stress_42	"POPTR_0006s04230.1"	597	"	"T/C"	"55,9/44,1"	"19/15"	34
controllo_3	"POPTR_0006s04230.1"	597	"	"C/T"	"51,8/48,2"	"73/68"	141	stress_45	"POPTR_0006s04230.1"	597	"	"T/C"	"56,4/43,6"	"31/24"	55
controllo_3	"POPTR_0003s20890.1"	223	"	"A/G"	"51,8/48,2"	"73/68"	141	stress_12bis	"POPTR_0003s20890.1"	223	"	"A/G"	"65,2/34,8"	"15/8"	23
controllo_3	"POPTR_0003s20450.1"	335	"	"T/C"	"51,8/48,2"	"58/54"	112	stress_12bis	"POPTR_0003s20450.1"	335	"	"C/T"	"55,0/45,0"	"33/27"	60
controllo_3	"POPTR_0003s20450.1"	335	"	"T/C"	"51,8/48,2"	"58/54"	112	stress_42	"POPTR_0003s20450.1"	335	"	"T/C"	"53,6/46,4"	"30/26"	56
controllo_3	"POPTR_0003s20450.1"	335	"	"T/C"	"51,8/48,2"	"58/54"	112	stress_45	"POPTR_0003s20450.1"	335	"	"T/C"	"55,2/44,8"	"16/13"	29
controllo_3	"POPTR_0003s04000.1"	312	"	"T/G"	"51,8/48,2"	"72/67"	139	stress_12bis	"POPTR_0003s04000.1"	312	"	"T/G"	"70,0/30,0"	"21/9"	30
controllo_3	"POPTR_0003s04000.1"	312	"	"T/G"	"51,8/48,2"	"72/67"	139	stress_42	"POPTR_0003s04000.1"	312	"	"T/G"	"75,8/24,2"	"25/8"	33
controllo_3	"POPTR_0003s04000.1"	312	"	"T/G"	"51,8/48,2"	"72/67"	139	stress_45	"POPTR_0003s04000.1"	312	"	"T/G"	"53,3/46,7"	"24/21"	45
controllo_3	"POPTR_0003s14170.1"	678	"	"G/A"	"51,8/48,2"	"142/132"	274	stress_12bis	"POPTR_0003s14170.1"	678	"	"A/G"	"55,2/44,8"	"16/13"	29
controllo_3	"POPTR_0003s14170.1"	678	"	"G/A"	"51,8/48,2"	"142/132"	274	stress_45	"POPTR_0003s14170.1"	678	"	"A/G"	"64,7/35,3"	"11/6"	17
controllo_3	"POPTR_0019s09140.1"	512	"	"A/G"	"51,8/48,2"	"887/825"	1713	stress_12bis	"POPTR_0019s09140.1"	512	"	"G/A"	"53,7/46,3"	"341/294"	635
controllo_3	"POPTR_0019s09140.1"	512	"	"A/G"	"51,8/48,2"	"887/825"	1713	stress_42	"POPTR_0019s09140.1"	512	"	"A/G"	"52,8/47,2"	"114/102"	216
controllo_3	"POPTR_0019s09140.1"	512	"	"A/G"	"51,8/48,2"	"887/825"	1713	stress_45	"POPTR_0019s09140.1"	512	"	"A/G"	"51,4/48,6"	"112/106"	218
controllo_3	"POPTR_0014s06370.1"	141	"	"T/C"	"51,8/48,2"	"132/123"	255	stress_12bis	"POPTR_0014s06370.1"	141	"	"T/C"	"54,9/45,1"	"45/37"	82
controllo_3	"POPTR_0014s06370.1"	141	"	"T/C"	"51,8/48,2"	"132/123"	255	stress_42	"POPTR_0014s06370.1"	141	"	"T/C"	"75,7/24,3"	"28/9"	37
controllo_3	"POPTR_0014s06370.1"	141	"	"T/C"	"51,8/48,2"	"132/123"	255	stress_45	"POPTR_0014s06370.1"	141	"	"T/C"	"59,8/40,2"	"52/35"	87
controllo_3	"POPTR_0004s01220.1"	99	"	"G/C"	"51,8/48,2"	"262/244"	506	stress_12bis	"POPTR_0004s01220.1"	99	"	"G/C"	"54,4/45,6"	"37/31"	68
controllo_3	"POPTR_0004s09150.1"	628	"	"C/A"	"51,8/48,2"	"58/54"	112	stress_12bis	"POPTR_0004s09150.1"	628	"	"C/A"	"60,0/40,0"	"6/4"	10
controllo_3	"POPTR_0004s15440.1"	261	"	"T/C"	"51,8/48,2"	"191/178"	369	stress_12bis	"POPTR_0004s15440.1"	261	"	"C/T"	"61,7/38,3"	"37/23"	60
controllo_3	"POPTR_0004s15440.1"	261	"	"T/C"	"51,8/48,2"	"191/178"	369	stress_42	"POPTR_0004s15440.1"	261	"	"C/T"	"59,5/40,5"	"25/17"	42
controllo_3	"POPTR_0004s15440.1"	261	"	"T/C"	"51,8/48,2"	"191/178"	369	stress_45	"POPTR_0004s15440.1"	261	"	"C/T"	"55,0/45,0"	"11/9"	20
controllo_3	"POPTR_0009s05850.1"	216	"	"T/C"	"51,8/48,2"	"71/66"	137	stress_12bis	"POPTR_0009s05850.1"	216	"	"T/C"	"53,3/46,7"	"8/7"	15
controllo_3	"POPTR_0009s05850.1"	216	"	"T/C"	"51,8/48,2"	"71/66"	137	stress_42	"POPTR_0009s05850.1"	216	"	"C/T"	"70,8/29,2"	"17/7"	24
controllo_3	"POPTR_0009s05850.1"	216	"	"T/C"	"51,8/48,2"	"71/66"	137	stress_45	"POPTR_0009s05850.1"	216	"	"C/T"	"55,8/44,2"	"48/38"	86
controllo_3	"POPTR_0009s05850.1"	804	"	"T/C"	"51,8/48,2"	"102/95"	197	stress_12bis	"POPTR_0009s05850.1"	804	"	"C/T"	"56,2/43,8"	"18/14"	32
controllo_3	"POPTR_0009s05850.1"	804	"	"T/C"	"51,8/48,2"	"102/95"	197	stress_42	"POPTR_0009s05850.1"	804	"	"T/C"	"51,0/49,0"	"26/25"	51
controllo_3	"POPTR_0009s05850.1"	804	"	"T/C"	"51,8/48,2"	"102/95"	197	stress_45	"POPTR_0009s05850.1"	804	"	"T/C"	"54,8/45,2"	"92/76"	168
controllo_3	"POPTR_0012s03610.1"	102	"	"G/T"	"51,8/48,2"	"58/54"	112	stress_12bis	"POPTR_0012s03610.1"	102	"	"G/T"	"53,7/46,3"	"22/19"	41
controllo_3	"POPTR_0012s03610.1"	102	"	"G/T"	"51,8/48,2"	"58/54"	112	stress_45	"POPTR_0012s03610.1"	102	"	"T/G"	"58,3/33,3"	"7/4"	12
controllo_3	"POPTR_0011s08940.1"	1008	"	"T/C"	"51,8/48,2"	"637/593"	1230	stress_12bis	"POPTR_0011s08940.1"	1008	"	"T/C"	"54,5/45,2"	"180/149"	330
controllo_3	"POPTR_0011s08940.1"	1008	"	"T/C"	"51,8/48,2"	"637/593"	1230	stress_42	"POPTR_0011s08940.1"	1008	"	"C/T"	"66,3/33,7"	"69/35"	104
controllo_3	"POPTR_0011s08940.1"	1008	"	"T/C"	"51,8/48,2"	"637/593"	1230	stress_45	"POPTR_0011s08940.1"	1008	"	"C/T"	"61,9/38,1"	"99/61"	160
controllo_3	"POPTR_0001s14280.1"	483	"	"C/T"	"51,8/48,2"	"44/41"	85	stress_42	"POPTR_0001s14280.1"	483	"	"T/C"	"53,7/46,3"	"58/50"	108
controllo_3	"POPTR_0001s14280.1"	483	"	"C/T"	"51,8/48,2"	"44/41"	85	stress_45	"POPTR_0001s14280.1"	483	"	"C/T"	"51,2/48,8"	"66/63"	129
controllo_3	"POPTR_0007s02000.1"	250	"	"A/G"	"51,8/48,2"	"117/109"	226	stress_12bis	"POPTR_0007s02000.1"	250	"	"A/G"	"51,2/48,8"	"22/21"	43
controllo_3	"POPTR_0007s02000.1"	250	"	"A/G"	"51,8/48,2"	"117/109"	226	stress_42	"POPTR_0007s02000.1"	250	"	"G/A"	"54,2/45,8"	"13/11"	24
controllo_3	"POPTR_0007s02000.1"	250	"	"A/G"	"51,8/48,2"	"117/109"	226	stress_45	"POPTR_0007s02000.1"	250	"	"A/G"	"52,5/47,5"	"21/19"	40
controllo_3	"POPTR_0007s06740.1"	60	"	"A/G"	"51,8/48,2"	"57/53"	110	stress_12bis	"POPTR_0007s06740.1"	60	"	"G/A"	"52,6/47,4"	"20/18"	38
controllo_3	"POPTR_0007s06740.1"	60	"	"A/G"	"51,8/48,2"	"57/53"	110	stress_42	"POPTR_0007s06740.1"	60	"	"A/G"	"57,1/42,9"	"20/15"	35
controllo_3	"POPTR_0007s06740.1"	60	"	"A/G"	"51,8/48,2"	"57/53"	110	stress_45	"POPTR_0007s06740.1"	60	"	"G/A"	"51,1/48,9"	"23/22"	45
controllo_3	"POPTR_0007s06620.1"	633	"	"A/T"	"51,8/48,2"	"99/92"	191	stress_12bis	"POPTR_0007s06620.1"	633	"	"A/T"	"54,3/45,7"	"25/21"	46
controllo_3	"POPTR_0007s06620.1"	633	"	"A/T"	"51,8/48,2"	"99/92"	191	stress_45	"POPTR_0007s06620.1"	633	"	"T/A"	"52,9/47,1"	"9/8"	17
controllo_3	"POPTR_0002s25170.1"	391	"	"G/A"	"51,8/48,2"	"58/54"	112	stress_12bis	"POPTR_0002s25170.1"	391	"	"A/G"	"52,3/47,7"	"23/21"	44
controllo_3	"POPTR_0002s25170.1"	391	"	"G/A"	"51,8/48,2"	"58/54"	112	stress_42	"POPTR_0002s25170.1"	391	"	"G/A"	"53,6/46,4"	"15/13"	28
controllo_3	"POPTR_0002s25170.1"	391	"	"G/A"	"51,8/48,2"	"58/54"	112	stress_45	"POPTR_0002s25170.1"	391	"	"G/A"	"55,0/45,0"	"33/27"	60
controllo_3	"POPTR_0002s04790.1"	876	"	"A/G"	"51,8/48,2"	"117/109"	226	stress_12bis	"POPTR_0002s04790.1"	876	"	"G/A"	"55,6/44,4"	"25/20"	45
controllo_3	"POPTR_0002s04790.1"	876	"	"A/G"	"51,8/48,2"	"117/109"	226	stress_42	"POPTR_0002s04790.1"	876	"	"A/G"	"55,0/45,0"	"11/9"	20
controllo_3	"POPTR_0002s04790.1"	876	"	"A/G"	"51,8/48,2"	"117/109"	226	stress_45	"POPTR_0002s04790.1"	876	"	"A/G"	"76,7/23,3"	"23/7"	30
controllo_3	"POPTR_0002s06560.1"	367	"	"G/C"	"51,8/48,2"	"101/94"	195	stress_12bis	"POPTR_0002s06560.1"	367	"	"G/C"	"53,0/47,0"	"44/39"	83
controllo_3	"POPTR_0002s06560.1"	367	"	"G/C"	"51,8/48,2"	"101/94"	195	stress_42	"POPTR_0002s06560.1"	367	"	"G/C"	"52,6/47,4"	"20/18"	38
controllo_3	"POPTR_0002s06560.1"	367	"	"G/C"	"51,8/48,2"	"101/94"	195	stress_45	"POPTR_0002s06560.1"	367	"	"C/G"	"52,3/47,7"	"23/21"	44
controllo_3	"POPTR_0002s01080.1"	588	"	"G/A"	"51,8/48,2"	"584/543"	1127	stress_12bis	"POPTR_0002s01080.1"	588	"	"G/A"	"50,2/49,6"	"308/304"	613
controllo_3	"POPTR_0002s01080.1"	588	"	"G/A"	"51,8/48,2"	"584/543"	1127	stress_42	"POPTR_0002s01080.1"	588	"	"G/A"	"56,8/43,2"	"134/102"	236
controllo_3	"POPTR_0002s01080.1"	588	"	"G/A"	"51,8/48,2"	"584/543"	1127	stress_45	"POPTR_0002s01080.1"	588	"	"G/A"	"54,9/45,1"	"173/142"	315
controllo_3	"POPTR_0008s05410.1"	1386	"	"A/T"	"51,8/48,2"	"172/160"	332	stress_12bis	"POPTR_0008s05410.1"	1386	"	"T/A"	"50,8/49,2"	"65/63"	128
controllo_3	"POPTR_0008s05410.1"	1386	"	"A/T"	"51,8/48,2"	"172/160"	332	stress_42	"POPTR_0008s05410.1"	1386	"	"T/A"	"64,0/36,0"	"64/36"	100
controllo_3	"POPTR_0008s05410.1"	1386	"	"A/T"	"51,8/48,2"	"172/160"	332	stress_45	"POPTR_0008s05410.1"	1386	"	"A/T"	"54,7/45,3"	"94/78"	172
controllo_3	"POPTR_0008s10020.1"	603	"	"C/T"	"51,8/48,2"	"103/96"	199	stress_12bis	"POPTR_0008s10020.1"	603	"	"C/T"	"53,5/46,5"	"23/20"	43
controllo_3	"POPTR_0008s10020.1"	603	"	"C/T"	"51,8/48,2"	"103/96"	199	stress_42	"POPTR_0008s10020.1"	603	"	"C/T"	"50,0/50,0"	"16/16"	32
controllo_3	"POPTR_0008s10020.1"	603	"	"C/T"	"51,8/48,2"	"103/96"	199	stress_45	"POPTR_0008s10020.1"	603	"	"T/C"	"53,2/46,8"	"25/22"	47
controllo_3	"POPTR_0008s15100.1"	291	"	"A/T"	"51,8/48,2"	"532/496"	1028	stress_12bis	"POPTR_0008s15100.1"	291	"	"T/A"	"50,5/49,5"	"158/155"	313
controllo_3	"POPTR_0008s15100.1"	291	"	"A/T"	"51,8/48,2"	"532/496"	1028	stress_42	"POPTR_0008s15100.1"	291	"	"A/T"	"53,1/46,9"	"68/60"	128
controllo_3	"POPTR_0008s15100.1"	291	"	"A/T"	"51,8/48,2"	"532/496"	1028	stress_45	"POPTR_0008s15100.1"	291	"	"A/T"	"58,7/41,3"	"71/50"	121
controllo_3	"POPTR_0008s04560.1"	577	"	"G/A"	"51,8/48,2"	"73/68"	141	stress_12bis	"POPTR_0008s04560.1"	577	"	"A/G"	"56,5/43,5"	"13/10"	23
controllo_3	"POPTR_0008s04560.1"	577	"	"G/A"	"51,8/48,2"	"73/68"	141	stress_45	"POPTR_0008s04560.1"	577	"	"A/G"	"71,4/28,6"	"10/4"	14
controllo_3	"POPTR_0008s15290.1"	141	"	"G/A"	"51,8/48,2"	"86/80"	166	stress_12bis	"POPTR_0008s15290.1"	141	"	"A/G"	"56,8/43,2"	"46/35"	81
controllo_3	"POPTR_0008s15290.1"	141	"	"G/A"	"51,8/48,2"	"86/80"	166	stress_42	"POPTR_0008s15290.1"	141	"	"G/A"	"59,3/40,7"	"16/11"	27
controllo_3	"POPTR_0008s15290.1"	141	"	"G/A"	"51,8/48,2"	"86/80"	166	stress_45	"POPTR_0008s15290.1"	141	"	"A/G"	"52,9/47,1"	"36/32"	68
controllo_3	"POPTR_0016s02570.1"	192	"	"G/A"	"51,8/48,2"	"129/120"	249	stress_12bis	"POPTR_0016s02570.1"	192	"	"A/G"	"54,3/45,7"	"19/16"	35
controllo_3	"POPTR_0016s02570.1"	192	"	"G/A"	"51,8/48,2"	"129/120"	249	stress_42	"POPTR_0016s02570.1"	192	"	"A/G"	"61,1/38,9"	"11/7"	18
controllo_3	"POPTR_0016s02570.1"	192	"	"G/A"	"51,8/48,2"	"129/120"	249	stress_45	"POPTR_0016s02570.1"	192	"	"G/A"	"56,2/43,8"	"9/7"	16
controllo_3	"POPTR_0016s12110.1"	99	"	"C/T"	"51,8/48,2"	"88/82"	170	stress_12bis	"POPTR_0016s12110.1"	99	"	"C/T"	"51,9/48,1"	"27/25"	52
controllo_3	"POPTR_0016s12110.1"	99	"	"C/T"	"51,8/48,2"	"88/82"	170	stress_42	"POPTR_0016s12110.1"	99	"	"C/T"	"56,0/44,0"	"14/11"	25
controllo_3	"POPTR_0016s12110.1"	99	"	"C/T"	"51,8/48,2"	"88/82"	170	stress_45	"POPTR_0016s12110.1"	99	"	"C/T"	"52,9/47,1"	"18/16"	34
controllo_3	"POPTR_0001s32770.1"	1202	"	"A/T"	"51,9/47,1"	"54/49"	104	stress_12bis	"POPTR_0001s32770.1"	1202	"	"A/T"	"57,5/42,5"	"23/17"	40
controllo_3	"POPTR_0001s32770.1"	1202	"	"A/T"	"51,9/47,1"	"54/49"	104	stress_42	"POPTR_0001s32770.1"	1202	"	"A/T"	"60,0/40,0"	"15/10"	25
controllo_3	"POPTR_0001s32770.1"	1202	"	"A/T"	"51,9/47,1"	"54/49"	104	stress_45	"POPTR_0001s32770.1"	1202	"	"A/T"	"51,9/48,1"	"27/25"	52
controllo_3	"POPTR_0001s27480.1"	450	"	"C/A"	"51,9/47,2"	"55/50"	106	stress_12bis	"POPTR_0001s27480.1"	450	"	"A/C"	"50,0/50,0"	"15/15"	30
controllo_3	"POPTR_0001s27480.1"	450	"	"C/A"	"51,9/47,2"	"55/50"	106	stress_42	"POPTR_0001s27480.1"	450	"	"A/C"	"51,4/48,6"	"18/17"	35
controllo_3	"POPTR_0001s27480.1"	450	"	"C/A"	"51,9/47,2"	"55/50"	106	stress_45	"POPTR_0001s27480.1"	450	"	"A/C"	"50,9/49,1"	"27/26"	53
controllo_3	"POPTR_0001s26960.1"	200	"	"T/G"	"51,9/47,4"	"69/63"	133	stress_12bis	"POPTR_0001s26960.1"	200	"	"G/T"	"51,7/48,3"	"15/14"	29
controllo_3	"POPTR_0014s17070.1"	255	"	"T/C"	"51,9/47,8"	"899/827"	1731	stress_12bis	"POPTR_0014s17070.1"	255	"	"C/T"	"53,3/46,4"	"293/255"	550
controllo_3	"POPTR_0014s17070.1"	255	"	"T/C"	"51,9/47,8"	"899/827"	1731	stress_42	"POPTR_0014s17070.1"	255	"	"C/T"	"55,7/44,3"	"93/74"	167
controllo_3	"POPTR_0014s17070.1"	255	"	"T/C"	"51,9/47,8"	"899/827"	1731	stress_45	"POPTR_0014s17070.1"	255	"	"C/T"	"56,7/43,3"	"114/87"	201
controllo_3	"POPTR_0010s05170.1"	159	"	"A/G"	"51,9/47,8"	"176/162"	339	stress_12bis	"POPTR_0010s05170.1"	159	"	"A/G"	"50,0/50,0"	"14/14"	28
controllo_3	"POPTR_0006s14400.1"	504	"	"T/C"	"51,9/48,0"	"783/724"	1508	stress_12bis	"POPTR_0006s14400.1"	504	"	"T/C"	"51,1/48,9"	"188/180"	368
controllo_3	"POPTR_0006s14400.1"	504	"	"T/C"	"51,9/48,0"	"783/724"	1508	stress_42	"POPTR_0006s14400.1"	504	"	"C/T"	"77,2/22,8"	"522/154"	676
controllo_3	"POPTR_0006s14400.1"	504	"	"T/C"	"51,9/48,0"	"783/724"	1508	stress_45	"POPTR_0006s14400.1"	504	"	"C/T"	"78,3/21,7"	"734/204"	938
controllo_3	"POPTR_0004s16920.1"	94	"	"A/G"	"51,9/48,0"	"2749/2542"	5292	stress_12bis	"POPTR_0004s16920.1"	94	"	"A/G"	"53,3/46,7"	"897/785"	1682
controllo_3	"POPTR_0004s16920.1"	94	"	"A/G"	"51,9/48,0"	"2749/2542"	5292	stress_42	"POPTR_0004s16920.1"	94	"	"G/A"	"58,6/41,4"	"68/48"	116
controllo_3	"POPTR_0004s16920.1"	94	"	"A/G"	"51,9/48,0"	"2749/2542"	5292	stress_45	"POPTR_0004s16920.1"	94	"	"G/A"	"64,8/35,2"	"129/70"	199
controllo_3	"POPTR_0005s27690.1"	2259	"	"A/G"	"51,9/48,1"	"54/50"	104	stress_12bis	"POPTR_0005s27690.1"	2259	"	"G/A"	"56,2/43,8"	"9/7"	16
controllo_3	"POPTR_0005s26610.1"	102	"	"C/T"	"51,9/48,1"	"54/50"	104	stress_12bis	"POPTR_0005s26610.1"	102	"	"T/C"	"59,3/40,7"	"32/22"	54
controllo_3	"POPTR_0005s26610.1"	102	"	"C/T"	"51,9/48,1"	"54/50"	104	stress_42	"POPTR_0005s26610.1"	102	"	"C/T"	"50,5/49,5"	"46/45"	91
controllo_3	"POPTR_0005s26610.1"	102	"	"C/T"	"51,9/48,1"	"54/50"	104	stress_45	"POPTR_0005s26610.1"	102	"	"T/C"	"57,1/42,9"	"40/30"	70
controllo_3	"POPTR_0006s14180.1"	463	"	"A/G"	"51,9/48,1"	"55/51"	106	stress_12bis	"POPTR_0006s14180.1"	463	"	"A/G"	"52,4/47,6"	"22/20"	42
controllo_3	"POPTR_0006s14180.1"	463	"	"A/G"	"51,9/48,1"	"55/51"	106	stress_45	"POPTR_0006s14180.1"	463	"	"A/G"	"76,9/23,1"	"10/3"	13
controllo_3	"POPTR_0006s13310.1"	312	"	"C/T"	"51,9/48,1"	"203/188"	391	stress_12bis	"POPTR_0006s13310.1"	312	"	"C/T"	"61,2/38,8"	"208/132"	340
controllo_3	"POPTR_0006s13310.1"	312	"	"C/T"	"51,9/48,1"	"203/188"	391	stress_42	"POPTR_0006s13310.1"	312	"	"C/T"	"60,9/39,1"	"120/77"	197
controllo_3	"POPTR_0006s13310.1"	312	"	"C/T"	"51,9/48,1"	"203/188"	391	stress_45	"POPTR_0006s13310.1"	312	"	"C/T"	"57,0/43,0"	"200/151"	351
controllo_3	"POPTR_0006s05160.1"	1194	"	"A/T"	"51,9/48,1"	"151/140"	291	stress_12bis	"POPTR_0006s05160.1"	1194	"	"T/A"	"62,9/37,1"	"56/33"	89
controllo_3	"POPTR_0006s05160.1"	1194	"	"A/T"	"51,9/48,1"	"151/140"	291	stress_42	"POPTR_0006s05160.1"	1194	"	"T/A"	"53,8/46,2"	"21/18"	39
controllo_3	"POPTR_0006s05160.1"	1194	"	"A/T"	"51,9/48,1"	"151/140"	291	stress_45	"POPTR_0006s05160.1"	1194	"	"A/T"	"55,8/44,2"	"29/23"	52
controllo_3	"POPTR_0006s03660.1"	3795	"	"C/T"	"51,9/48,1"	"80/74"	154	stress_12bis	"POPTR_0006s03660.1"	3795	"	"C/T"	"56,7/43,3"	"17/13"	30
controllo_3	"POPTR_0006s03660.1"	3795	"	"C/T"	"51,9/48,1"	"80/74"	154	stress_42	"POPTR_0006s03660.1"	3795	"	"C/T"	"50,0/50,0"	"5/5"	10
controllo_3	"POPTR_0006s03660.1"	3795	"	"C/T"	"51,9/48,1"	"80/74"	154	stress_45	"POPTR_0006s03660.1"	3795	"	"C/T"	"57,1/42,9"	"16/12"	28
controllo_3	"POPTR_0006s03660.1"	4506	"	"T/C"	"51,9/48,1"	"134/124"	258	stress_12bis	"POPTR_0006s03660.1"	4506	"	"C/T"	"50,0/50,0"	"27/27"	54
controllo_3	"POPTR_0006s03660.1"	4506	"	"T/C"	"51,9/48,1"	"134/124"	258	stress_42	"POPTR_0006s03660.1"	4506	"	"C/T"	"52,9/47,1"	"27/24"	51
controllo_3	"POPTR_0006s03660.1"	4506	"	"T/C"	"51,9/48,1"	"134/124"	258	stress_45	"POPTR_0006s03660.1"	4506	"	"C/T"	"65,8/34,2"	"50/26"	76
controllo_3	"POPTR_0018s02960.1"	1017	"	"C/T"	"51,9/48,1"	"96/89"	185	stress_12bis	"POPTR_0018s02960.1"	1017	"	"C/T"	"52,2/47,8"	"12/11"	23
controllo_3	"POPTR_0018s02960.1"	1017	"	"C/T"	"51,9/48,1"	"96/89"	185	stress_45	"POPTR_0018s02960.1"	1017	"	"T/C"	"68,4/31,6"	"13/6"	19
controllo_3	"POPTR_0018s09810.1"	996	"	"T/C"	"51,9/48,1"	"55/51"	106	stress_12bis	"POPTR_0018s09810.1"	996	"	"T/C"	"56,5/43,5"	"13/10"	23
controllo_3	"POPTR_0018s09810.1"	996	"	"T/C"	"51,9/48,1"	"55/51"	106	stress_45	"POPTR_0018s09810.1"	996	"	"T/C"	"52,6/47,4"	"10/9"	19
controllo_3	"POPTR_0003s08760.1"	250	"	"C/T"	"51,9/48,1"	"434/403"	837	stress_12bis	"POPTR_0003s08760.1"	250	"	"T/C"	"50,5/49,5"	"105/103"	208
controllo_3	"POPTR_0003s08760.1"	250	"	"C/T"	"51,9/48,1"	"434/403"	837	stress_42	"POPTR_0003s08760.1"	250	"	"T/C"	"51,2/48,8"	"22/21"	43
controllo_3	"POPTR_0003s08760.1"	250	"	"C/T"	"51,9/48,1"	"434/403"	837	stress_45	"POPTR_0003s08760.1"	250	"	"C/T"	"67,6/32,4"	"25/12"	37
controllo_3	"POPTR_0003s11300.1"	1827	"	"C/T"	"51,9/48,1"	"215/199"	414	stress_12bis	"POPTR_0003s11300.1"	1827	"	"T/C"	"50,6/49,4"	"79/77"	156
controllo_3	"POPTR_0003s11300.1"	1827	"	"C/T"	"51,9/48,1"	"215/199"	414	stress_42	"POPTR_0003s11300.1"	1827	"	"T/C"	"64,0/36,0"	"16/9"	25
controllo_3	"POPTR_0003s11300.1"	1827	"	"C/T"	"51,9/48,1"	"215/199"	414	stress_45	"POPTR_0003s11300.1"	1827	"	"C/T"	"53,8/46,2"	"21/18"	39
controllo_3	"POPTR_0022s00530.1"	249	"	"G/A"	"51,9/48,1"	"55/51"	106	stress_12bis	"POPTR_0022s00530.1"	249	"	"A/G"	"53,1/46,9"	"17/15"	32
controllo_3	"POPTR_0022s00530.1"	249	"	"G/A"	"51,9/48,1"	"55/51"	106	stress_45	"POPTR_0022s00530.1"	249	"	"A/G"	"52,0/48,0"	"13/12"	25
controllo_3	"POPTR_0022s00530.1"	2007	"	"G/A"	"51,9/48,1"	"83/77"	160	stress_12bis	"POPTR_0022s00530.1"	2007	"	"A/G"	"80,6/19,4"	"29/7"	36
controllo_3	"POPTR_0022s00530.1"	2007	"	"G/A"	"51,9/48,1"	"83/77"	160	stress_42	"POPTR_0022s00530.1"	2007	"	"G/A"	"55,6/44,4"	"20/16"	36
controllo_3	"POPTR_0022s00530.1"	2007	"	"G/A"	"51,9/48,1"	"83/77"	160	stress_45	"POPTR_0022s00530.1"	2007	"	"A/G"	"55,3/44,7"	"26/21"	47
controllo_3	"POPTR_0013s13910.1"	750	"	"G/A"	"51,9/48,1"	"56/52"	108	stress_12bis	"POPTR_0013s13910.1"	750	"	"A/G"	"54,1/45,9"	"20/17"	37
controllo_3	"POPTR_0013s13910.1"	750	"	"G/A"	"51,9/48,1"	"56/52"	108	stress_42	"POPTR_0013s13910.1"	750	"	"A/G"	"50,0/50,0"	"8/8"	16
controllo_3	"POPTR_0013s13910.1"	750	"	"G/A"	"51,9/48,1"	"56/52"	108	stress_45	"POPTR_0013s13910.1"	750	"	"A/G"	"56,2/43,8"	"9/7"	16
controllo_3	"POPTR_0013s13190.1"	471	"	"A/G"	"51,9/48,1"	"54/50"	104	stress_12bis	"POPTR_0013s13190.1"	471	"	"G/A"	"57,6/42,4"	"19/14"	33
controllo_3	"POPTR_0013s13190.1"	471	"	"A/G"	"51,9/48,1"	"54/50"	104	stress_42	"POPTR_0013s13190.1"	471	"	"A/G"	"57,1/42,9"	"8/6"	14
controllo_3	"POPTR_0013s07620.1"	157	"	"T/C"	"51,9/48,1"	"70/65"	135	stress_12bis	"POPTR_0013s07620.1"	157	"	"T/C"	"83,3/16,7"	"15/3"	18
controllo_3	"POPTR_0013s07620.1"	157	"	"T/C"	"51,9/48,1"	"70/65"	135	stress_45	"POPTR_0013s07620.1"	157	"	"C/T"	"50,0/50,0"	"9/9"	18
controllo_3	"POPTR_0013s10250.1"	294	"	"C/T"	"51,9/48,1"	"193/179"	372	stress_12bis	"POPTR_0013s10250.1"	294	"	"T/C"	"50,6/49,4"	"80/78"	158
controllo_3	"POPTR_0013s10250.1"	294	"	"C/T"	"51,9/48,1"	"193/179"	372	stress_42	"POPTR_0013s10250.1"	294	"	"C/T"	"55,9/44,1"	"33/26"	59
controllo_3	"POPTR_0013s10250.1"	294	"	"C/T"	"51,9/48,1"	"193/179"	372	stress_45	"POPTR_0013s10250.1"	294	"	"T/C"	"53,6/46,4"	"52/45"	97
controllo_3	"POPTR_0014s00810.1"	183	"	"C/T"	"51,9/48,1"	"205/190"	395	stress_12bis	"POPTR_0014s00810.1"	183	"	"T/C"	"52,2/47,8"	"121/111"	232
controllo_3	"POPTR_0014s00810.1"	183	"	"C/T"	"51,9/48,1"	"205/190"	395	stress_42	"POPTR_0014s00810.1"	183	"	"T/C"	"75,9/24,1"	"242/77"	319
controllo_3	"POPTR_0014s00810.1"	183	"	"C/T"	"51,9/48,1"	"205/190"	395	stress_45	"POPTR_0014s00810.1"	183	"	"T/C"	"81,5/18,5"	"150/34"	184
controllo_3	"POPTR_0014s05640.1"	477	"	"G/A"	"51,9/48,1"	"68/63"	131	stress_12bis	"POPTR_0014s05640.1"	477	"	"A/G"	"64,8/35,2"	"35/19"	54
controllo_3	"POPTR_0014s05640.1"	477	"	"G/A"	"51,9/48,1"	"68/63"	131	stress_42	"POPTR_0014s05640.1"	477	"	"A/G"	"50,7/49,3"	"38/37"	75
controllo_3	"POPTR_0014s05640.1"	477	"	"G/A"	"51,9/48,1"	"68/63"	131	stress_45	"POPTR_0014s05640.1"	477	"	"G/A"	"55,3/44,7"	"78/63"	141
controllo_3	"POPTR_0014s17610.1"	865	"	"G/A"	"51,9/48,1"	"69/64"	133	stress_12bis	"POPTR_0014s17610.1"	865	"	"G/A"	"69,1/30,9"	"38/17"	55
controllo_3	"POPTR_0014s17610.1"	865	"	"G/A"	"51,9/48,1"	"69/64"	133	stress_42	"POPTR_0014s17610.1"	865	"	"A/G"	"53,3/46,7"	"8/7"	15
controllo_3	"POPTR_0014s17610.1"	865	"	"G/A"	"51,9/48,1"	"69/64"	133	stress_45	"POPTR_0014s17610.1"	865	"	"A/G"	"50,0/50,0"	"13/13"	26
controllo_3	"POPTR_0014s15230.1"	714	"	"T/C"	"51,9/48,1"	"54/50"	104	stress_12bis	"POPTR_0014s15230.1"	714	"	"T/C"	"71,4/28,6"	"20/8"	28
controllo_3	"POPTR_0014s15230.1"	714	"	"T/C"	"51,9/48,1"	"54/50"	104	stress_45	"POPTR_0014s15230.1"	714	"	"C/T"	"69,2/30,8"	"9/4"	13
controllo_3	"POPTR_0004s21940.1"	1303	"	"C/A"	"51,9/48,1"	"56/52"	108	stress_12bis	"POPTR_0004s21940.1"	1303	"	"A/C"	"54,3/45,7"	"19/16"	35
controllo_3	"POPTR_0004s21940.1"	1303	"	"C/A"	"51,9/48,1"	"56/52"	108	stress_45	"POPTR_0004s21940.1"	1303	"	"A/C"	"70,6/29,4"	"12/5"	17
controllo_3	"POPTR_0004s04860.1"	753	"	"T/C"	"51,9/48,1"	"123/114"	237	stress_12bis	"POPTR_0004s04860.1"	753	"	"T/C"	"53,1/46,9"	"43/38"	81
controllo_3	"POPTR_0004s04860.1"	753	"	"T/C"	"51,9/48,1"	"123/114"	237	stress_42	"POPTR_0004s04860.1"	753	"	"C/T"	"56,2/43,8"	"9/7"	16
controllo_3	"POPTR_0004s04860.1"	753	"	"T/C"	"51,9/48,1"	"123/114"	237	stress_45	"POPTR_0004s04860.1"	753	"	"C/T"	"59,3/40,7"	"16/11"	27
controllo_3	"POPTR_0004s09910.1"	15	"	"G/T"	"51,9/48,1"	"1582/1468"	3050	stress_12bis	"POPTR_0004s09910.1"	15	"	"G/T"	"52,5/47,5"	"255/231"	486
controllo_3	"POPTR_0004s09910.1"	15	"	"G/T"	"51,9/48,1"	"1582/1468"	3050	stress_42	"POPTR_0004s09910.1"	15	"	"G/T"	"52,4/47,6"	"22/20"	42
controllo_3	"POPTR_0004s09910.1"	15	"	"G/T"	"51,9/48,1"	"1582/1468"	3050	stress_45	"POPTR_0004s09910.1"	15	"	"T/G"	"64,4/35,6"	"47/26"	73
controllo_3	"POPTR_0004s17020.1"	1431	"	"A/G"	"51,9/48,1"	"68/63"	131	stress_12bis	"POPTR_0004s17020.1"	1431	"	"G/A"	"54,3/45,7"	"38/32"	70
controllo_3	"POPTR_0004s17020.1"	1431	"	"A/G"	"51,9/48,1"	"68/63"	131	stress_42	"POPTR_0004s17020.1"	1431	"	"G/A"	"66,7/33,3"	"72/36"	108
controllo_3	"POPTR_0004s17020.1"	1431	"	"A/G"	"51,9/48,1"	"68/63"	131	stress_45	"POPTR_0004s17020.1"	1431	"	"G/A"	"60,0/40,0"	"90/60"	150
controllo_3	"POPTR_0004s18190.1"	46	"	"C/T"	"51,9/48,1"	"344/319"	663	stress_12bis	"POPTR_0004s18190.1"	46	"	"C/T"	"50,4/49,6"	"131/129"	260
controllo_3	"POPTR_0004s18190.1"	46	"	"C/T"	"51,9/48,1"	"344/319"	663	stress_42	"POPTR_0004s18190.1"	46	"	"C/T"	"59,3/40,7"	"32/22"	54
controllo_3	"POPTR_0004s18190.1"	46	"	"C/T"	"51,9/48,1"	"344/319"	663	stress_45	"POPTR_0004s18190.1"	46	"	"T/C"	"55,6/44,4"	"30/24"	54
controllo_3	"POPTR_0004s18190.1"	47	"	"A/T"	"51,9/48,1"	"344/319"	663	stress_12bis	"POPTR_0004s18190.1"	47	"	"A/T"	"50,4/49,6"	"131/129"	260
controllo_3	"POPTR_0004s18190.1"	47	"	"A/T"	"51,9/48,1"	"344/319"	663	stress_42	"POPTR_0004s18190.1"	47	"	"A/T"	"58,5/41,5"	"31/22"	53
controllo_3	"POPTR_0004s18190.1"	47	"	"A/T"	"51,9/48,1"	"344/319"	663	stress_45	"POPTR_0004s18190.1"	47	"	"T/A"	"54,5/45,5"	"30/25"	55
controllo_3	"POPTR_0009s09710.1"	613	"	"G/A"	"51,9/48,1"	"200/185"	385	stress_12bis	"POPTR_0009s09710.1"	613	"	"G/A"	"52,6/47,0"	"123/110"	234
controllo_3	"POPTR_0009s09710.1"	613	"	"G/A"	"51,9/48,1"	"200/185"	385	stress_42	"POPTR_0009s09710.1"	613	"	"A/G"	"53,1/46,9"	"34/30"	64
controllo_3	"POPTR_0009s09710.1"	613	"	"G/A"	"51,9/48,1"	"200/185"	385	stress_45	"POPTR_0009s09710.1"	613	"	"G/A"	"56,2/43,8"	"45/35"	80
controllo_3	"POPTR_0009s16470.1"	487	"	"C/T"	"51,9/48,1"	"55/51"	106	stress_12bis	"POPTR_0009s16470.1"	487	"	"T/C"	"56,0/44,0"	"14/11"	25
controllo_3	"POPTR_0009s16470.1"	487	"	"C/T"	"51,9/48,1"	"55/51"	106	stress_42	"POPTR_0009s16470.1"	487	"	"T/C"	"61,5/38,5"	"8/5"	13
controllo_3	"POPTR_0009s16470.1"	487	"	"C/T"	"51,9/48,1"	"55/51"	106	stress_45	"POPTR_0009s16470.1"	487	"	"C/T"	"50,0/50,0"	"7/7"	14
controllo_3	"POPTR_0009s08520.1"	261	"	"T/C"	"51,9/48,1"	"375/348"	723	stress_12bis	"POPTR_0009s08520.1"	261	"	"T/C"	"54,8/45,2"	"142/117"	259
controllo_3	"POPTR_0009s08520.1"	261	"	"T/C"	"51,9/48,1"	"375/348"	723	stress_42	"POPTR_0009s08520.1"	261	"	"C/T"	"59,3/40,7"	"16/11"	27
controllo_3	"POPTR_0009s08520.1"	261	"	"T/C"	"51,9/48,1"	"375/348"	723	stress_45	"POPTR_0009s08520.1"	261	"	"C/T"	"57,7/42,3"	"15/11"	26
controllo_3	"POPTR_0009s09240.1"	1011	"	"A/G"	"51,9/48,1"	"125/116"	241	stress_12bis	"POPTR_0009s09240.1"	1011	"	"A/G"	"52,8/47,2"	"75/67"	142
controllo_3	"POPTR_0009s09240.1"	1011	"	"A/G"	"51,9/48,1"	"125/116"	241	stress_42	"POPTR_0009s09240.1"	1011	"	"A/G"	"60,0/40,0"	"33/22"	55
controllo_3	"POPTR_0009s09240.1"	1011	"	"A/G"	"51,9/48,1"	"125/116"	241	stress_45	"POPTR_0009s09240.1"	1011	"	"A/G"	"57,8/42,2"	"26/19"	45
controllo_3	"POPTR_0012s09570.1"	840	"	"T/C"	"51,9/48,1"	"248/230"	478	stress_12bis	"POPTR_0012s09570.1"	840	"	"C/T"	"50,7/49,3"	"34/33"	67
controllo_3	"POPTR_0012s09570.1"	840	"	"T/C"	"51,9/48,1"	"248/230"	478	stress_42	"POPTR_0012s09570.1"	840	"	"T/C"	"52,6/47,4"	"80/72"	152
controllo_3	"POPTR_0012s09570.1"	840	"	"T/C"	"51,9/48,1"	"248/230"	478	stress_45	"POPTR_0012s09570.1"	840	"	"C/T"	"55,9/44,1"	"104/82"	186
controllo_3	"POPTR_0011s08940.1"	888	"	"C/T"	"51,9/48,1"	"690/639"	1329	stress_12bis	"POPTR_0011s08940.1"	888	"	"C/T"	"55,5/44,5"	"233/187"	420
controllo_3	"POPTR_0011s08940.1"	888	"	"C/T"	"51,9/48,1"	"690/639"	1329	stress_42	"POPTR_0011s08940.1"	888	"	"T/C"	"59,0/41,0"	"62/43"	105
controllo_3	"POPTR_0011s08940.1"	888	"	"C/T"	"51,9/48,1"	"690/639"	1329	stress_45	"POPTR_0011s08940.1"	888	"	"T/C"	"57,8/42,2"	"115/84"	199
controllo_3	"POPTR_0001s34410.1"	653	"	"C/T"	"51,9/48,1"	"54/50"	104	stress_12bis	"POPTR_0001s34410.1"	653	"	"T/C"	"68,4/31,6"	"13/6"	19
controllo_3	"POPTR_0001s34410.1"	653	"	"C/T"	"51,9/48,1"	"54/50"	104	stress_42	"POPTR_0001s34410.1"	653	"	"T/C"	"64,3/35,7"	"9/5"	14
controllo_3	"POPTR_0001s34410.1"	653	"	"C/T"	"51,9/48,1"	"54/50"	104	stress_45	"POPTR_0001s34410.1"	653	"	"T/C"	"63,6/36,4"	"14/8"	22
controllo_3	"POPTR_0001s14280.1"	243	"	"A/G"	"51,9/48,1"	"41/38"	79	stress_45	"POPTR_0001s14280.1"	243	"	"A/G"	"50,6/49,4"	"87/85"	172
controllo_3	"POPTR_0001s47020.1"	207	"	"T/C"	"51,9/48,1"	"98/91"	189	stress_12bis	"POPTR_0001s47020.1"	207	"	"T/C"	"53,3/46,7"	"32/28"	60
controllo_3	"POPTR_0001s47020.1"	207	"	"T/C"	"51,9/48,1"	"98/91"	189	stress_42	"POPTR_0001s47020.1"	207	"	"T/C"	"59,0/41,0"	"23/16"	39
controllo_3	"POPTR_0001s47020.1"	207	"	"T/C"	"51,9/48,1"	"98/91"	189	stress_45	"POPTR_0001s47020.1"	207	"	"T/C"	"59,1/40,9"	"52/36"	88
controllo_3	"POPTR_0001s47020.1"	1257	"	"C/T"	"51,9/48,1"	"110/102"	212	stress_12bis	"POPTR_0001s47020.1"	1257	"	"C/T"	"67,5/32,5"	"54/26"	80
controllo_3	"POPTR_0001s47020.1"	1257	"	"C/T"	"51,9/48,1"	"110/102"	212	stress_42	"POPTR_0001s47020.1"	1257	"	"C/T"	"63,2/36,8"	"36/21"	57
controllo_3	"POPTR_0001s47020.1"	1257	"	"C/T"	"51,9/48,1"	"110/102"	212	stress_45	"POPTR_0001s47020.1"	1257	"	"C/T"	"50,4/49,6"	"62/61"	123
controllo_3	"POPTR_0001s02770.1"	238	"	"C/T"	"51,9/48,1"	"96/89"	185	stress_12bis	"POPTR_0001s02770.1"	238	"	"T/C"	"53,1/46,9"	"17/15"	32
controllo_3	"POPTR_0001s33710.1"	129	"	"G/T"	"51,9/48,1"	"163/151"	314	stress_12bis	"POPTR_0001s33710.1"	129	"	"T/G"	"63,6/36,4"	"56/32"	88
controllo_3	"POPTR_0001s33710.1"	129	"	"G/T"	"51,9/48,1"	"163/151"	314	stress_45	"POPTR_0001s33710.1"	129	"	"T/G"	"58,3/41,7"	"21/15"	36
controllo_3	"POPTR_0001s18460.1"	193	"	"C/T"	"51,9/48,1"	"98/91"	189	stress_12bis	"POPTR_0001s18460.1"	193	"	"C/T"	"63,8/36,2"	"30/17"	47
controllo_3	"POPTR_0001s18460.1"	193	"	"C/T"	"51,9/48,1"	"98/91"	189	stress_42	"POPTR_0001s18460.1"	193	"	"C/T"	"75,0/25,0"	"12/4"	16
controllo_3	"POPTR_0001s18460.1"	193	"	"C/T"	"51,9/48,1"	"98/91"	189	stress_45	"POPTR_0001s18460.1"	193	"	"C/T"	"64,7/35,3"	"11/6"	17
controllo_3	"POPTR_0001s15140.1"	61	"	"T/C"	"51,9/48,1"	"68/63"	131	stress_12bis	"POPTR_0001s15140.1"	61	"	"C/T"	"50,0/50,0"	"15/15"	30
controllo_3	"POPTR_0001s15140.1"	61	"	"T/C"	"51,9/48,1"	"68/63"	131	stress_45	"POPTR_0001s15140.1"	61	"	"T/C"	"81,8/18,2"	"9/2"	11
controllo_3	"POPTR_0010s15190.1"	193	"	"C/A"	"51,9/48,1"	"68/63"	131	stress_12bis	"POPTR_0010s15190.1"	193	"	"A/C"	"63,4/36,6"	"26/15"	41
controllo_3	"POPTR_0010s15190.1"	193	"	"C/A"	"51,9/48,1"	"68/63"	131	stress_42	"POPTR_0010s15190.1"	193	"	"C/A"	"70,8/29,2"	"34/14"	48
controllo_3	"POPTR_0010s15190.1"	193	"	"C/A"	"51,9/48,1"	"68/63"	131	stress_45	"POPTR_0010s15190.1"	193	"	"C/A"	"51,1/48,9"	"46/44"	90
controllo_3	"POPTR_0010s19860.1"	116	"	"A/C"	"51,9/48,1"	"67/62"	129	stress_12bis	"POPTR_0010s19860.1"	116	"	"A/C"	"51,4/48,6"	"19/18"	37
controllo_3	"POPTR_0010s19860.1"	116	"	"A/C"	"51,9/48,1"	"67/62"	129	stress_42	"POPTR_0010s19860.1"	116	"	"A/C"	"59,6/40,4"	"31/21"	52
controllo_3	"POPTR_0010s19860.1"	116	"	"A/C"	"51,9/48,1"	"67/62"	129	stress_45	"POPTR_0010s19860.1"	116	"	"C/A"	"56,8/43,2"	"71/54"	125
controllo_3	"POPTR_0010s06750.1"	1026	"	"G/T"	"51,9/48,1"	"56/52"	108	stress_12bis	"POPTR_0010s06750.1"	1026	"	"T/G"	"51,2/48,8"	"21/20"	41
controllo_3	"POPTR_0010s06750.1"	1026	"	"G/T"	"51,9/48,1"	"56/52"	108	stress_42	"POPTR_0010s06750.1"	1026	"	"G/T"	"64,6/35,4"	"51/28"	79
controllo_3	"POPTR_0010s06750.1"	1026	"	"G/T"	"51,9/48,1"	"56/52"	108	stress_45	"POPTR_0010s06750.1"	1026	"	"G/T"	"53,2/46,8"	"41/36"	77
controllo_3	"POPTR_0007s10980.1"	1885	"	"A/G"	"51,9/48,1"	"151/140"	291	stress_12bis	"POPTR_0007s10980.1"	1885	"	"A/G"	"61,7/38,3"	"37/23"	60
controllo_3	"POPTR_0007s10980.1"	1885	"	"A/G"	"51,9/48,1"	"151/140"	291	stress_42	"POPTR_0007s10980.1"	1885	"	"A/G"	"77,8/22,2"	"14/4"	18
controllo_3	"POPTR_0007s10980.1"	1885	"	"A/G"	"51,9/48,1"	"151/140"	291	stress_45	"POPTR_0007s10980.1"	1885	"	"A/G"	"51,4/48,6"	"18/17"	35
controllo_3	"POPTR_0007s06220.1"	108	"	"C/G"	"51,9/48,1"	"54/50"	104	stress_12bis	"POPTR_0007s06220.1"	108	"	"G/C"	"56,2/43,8"	"18/14"	32
controllo_3	"POPTR_0007s06220.1"	108	"	"C/G"	"51,9/48,1"	"54/50"	104	stress_42	"POPTR_0007s06220.1"	108	"	"C/G"	"52,2/47,8"	"35/32"	67
controllo_3	"POPTR_0007s06220.1"	108	"	"C/G"	"51,9/48,1"	"54/50"	104	stress_45	"POPTR_0007s06220.1"	108	"	"C/G"	"63,6/36,4"	"89/51"	140
controllo_3	"POPTR_0007s06620.1"	500	"	"A/C"	"51,9/48,1"	"94/87"	181	stress_12bis	"POPTR_0007s06620.1"	500	"	"A/C"	"58,8/41,2"	"20/14"	34
controllo_3	"POPTR_0007s06620.1"	500	"	"A/C"	"51,9/48,1"	"94/87"	181	stress_42	"POPTR_0007s06620.1"	500	"	"A/C"	"75,0/25,0"	"9/3"	12
controllo_3	"POPTR_0007s06620.1"	500	"	"A/C"	"51,9/48,1"	"94/87"	181	stress_45	"POPTR_0007s06620.1"	500	"	"C/A"	"62,5/37,5"	"10/6"	16
controllo_3	"POPTR_0007s04180.1"	724	"	"A/G"	"51,9/48,1"	"70/65"	135	stress_12bis	"POPTR_0007s04180.1"	724	"	"A/G"	"70,2/29,8"	"33/14"	47
controllo_3	"POPTR_0007s04180.1"	724	"	"A/G"	"51,9/48,1"	"70/65"	135	stress_42	"POPTR_0007s04180.1"	724	"	"A/G"	"73,9/26,1"	"17/6"	23
controllo_3	"POPTR_0007s04180.1"	724	"	"A/G"	"51,9/48,1"	"70/65"	135	stress_45	"POPTR_0007s04180.1"	724	"	"A/G"	"57,1/42,9"	"16/12"	28
controllo_3	"POPTR_0002s25170.1"	406	"	"C/T"	"51,9/48,1"	"54/50"	104	stress_12bis	"POPTR_0002s25170.1"	406	"	"T/C"	"61,7/38,3"	"29/18"	47
controllo_3	"POPTR_0002s25170.1"	406	"	"C/T"	"51,9/48,1"	"54/50"	104	stress_42	"POPTR_0002s25170.1"	406	"	"T/C"	"55,2/44,8"	"16/13"	29
controllo_3	"POPTR_0002s25170.1"	406	"	"C/T"	"51,9/48,1"	"54/50"	104	stress_45	"POPTR_0002s25170.1"	406	"	"C/T"	"54,2/45,8"	"39/33"	72
controllo_3	"POPTR_0008s17190.1"	187	"	"G/T"	"51,9/48,1"	"54/50"	104	stress_12bis	"POPTR_0008s17190.1"	187	"	"G/T"	"54,5/45,5"	"12/10"	22
controllo_3	"POPTR_0008s17190.1"	187	"	"G/T"	"51,9/48,1"	"54/50"	104	stress_42	"POPTR_0008s17190.1"	187	"	"T/G"	"53,8/46,2"	"7/6"	13
controllo_3	"POPTR_0008s17190.1"	187	"	"G/T"	"51,9/48,1"	"54/50"	104	stress_45	"POPTR_0008s17190.1"	187	"	"G/T"	"64,7/35,3"	"11/6"	17
controllo_3	"POPTR_0008s05480.1"	1353	"	"C/T"	"51,9/48,1"	"313/290"	603	stress_12bis	"POPTR_0008s05480.1"	1353	"	"T/C"	"56,3/43,7"	"121/94"	215
controllo_3	"POPTR_0008s05480.1"	1353	"	"C/T"	"51,9/48,1"	"313/290"	603	stress_42	"POPTR_0008s05480.1"	1353	"	"T/C"	"54,7/45,3"	"81/67"	148
controllo_3	"POPTR_0008s05480.1"	1353	"	"C/T"	"51,9/48,1"	"313/290"	603	stress_45	"POPTR_0008s05480.1"	1353	"	"T/C"	"54,0/46,0"	"208/177"	385
controllo_3	"POPTR_0008s01960.1"	1047	"	"T/C"	"51,9/48,1"	"56/52"	108	stress_12bis	"POPTR_0008s01960.1"	1047	"	"C/T"	"52,3/47,7"	"23/21"	44
controllo_3	"POPTR_0008s01960.1"	1047	"	"T/C"	"51,9/48,1"	"56/52"	108	stress_42	"POPTR_0008s01960.1"	1047	"	"C/T"	"56,7/43,3"	"17/13"	30
controllo_3	"POPTR_0008s01960.1"	1047	"	"T/C"	"51,9/48,1"	"56/52"	108	stress_45	"POPTR_0008s01960.1"	1047	"	"T/C"	"55,2/44,8"	"16/13"	29
controllo_3	"POPTR_0005s00240.1"	1620	"	"T/A"	"52,0/46,8"	"89/80"	171	stress_12bis	"POPTR_0005s00240.1"	1620	"	"T/A"	"59,4/40,6"	"38/26"	64
controllo_3	"POPTR_0005s00240.1"	1620	"	"T/A"	"52,0/46,8"	"89/80"	171	stress_42	"POPTR_0005s00240.1"	1620	"	"A/T"	"50,0/50,0"	"13/13"	26
controllo_3	"POPTR_0005s00240.1"	1620	"	"T/A"	"52,0/46,8"	"89/80"	171	stress_45	"POPTR_0005s00240.1"	1620	"	"T/A"	"54,5/45,5"	"24/20"	44
controllo_3	"POPTR_0001s29350.1"	846	"	"T/G"	"52,0/47,4"	"79/72"	152	stress_12bis	"POPTR_0001s29350.1"	846	"	"T/G"	"57,8/42,2"	"26/19"	45
controllo_3	"POPTR_0001s29350.1"	846	"	"T/G"	"52,0/47,4"	"79/72"	152	stress_42	"POPTR_0001s29350.1"	846	"	"G/T"	"60,0/40,0"	"9/6"	15
controllo_3	"POPTR_0001s29350.1"	846	"	"T/G"	"52,0/47,4"	"79/72"	152	stress_45	"POPTR_0001s29350.1"	846	"	"G/T"	"57,9/42,1"	"11/8"	19
controllo_3	"POPTR_0002s01320.1"	255	"	"T/A"	"52,0/47,6"	"351/321"	675	stress_12bis	"POPTR_0002s01320.1"	255	"	"T/A"	"61,4/38,1"	"124/77"	202
controllo_3	"POPTR_0002s01320.1"	255	"	"T/A"	"52,0/47,6"	"351/321"	675	stress_42	"POPTR_0002s01320.1"	255	"	"A/T"	"51,1/46,7"	"23/21"	45
controllo_3	"POPTR_0002s01320.1"	255	"	"T/A"	"52,0/47,6"	"351/321"	675	stress_45	"POPTR_0002s01320.1"	255	"	"T/A"	"50,5/48,5"	"51/49"	101
controllo_3	"POPTR_0002s08410.1"	519	"	"A/T"	"52,0/47,9"	"1367/1261"	2630	stress_12bis	"POPTR_0002s08410.1"	519	"	"A/T"	"51,9/48,0"	"425/393"	819
controllo_3	"POPTR_0002s08410.1"	519	"	"A/T"	"52,0/47,9"	"1367/1261"	2630	stress_42	"POPTR_0002s08410.1"	519	"	"A/T"	"56,5/43,2"	"157/120"	278
controllo_3	"POPTR_0002s08410.1"	519	"	"A/T"	"52,0/47,9"	"1367/1261"	2630	stress_45	"POPTR_0002s08410.1"	519	"	"T/A"	"50,0/49,7"	"156/155"	312
controllo_3	"POPTR_0005s26740.1"	441	"	"C/T"	"52,0/48,0"	"462/427"	889	stress_12bis	"POPTR_0005s26740.1"	441	"	"T/C"	"60,7/39,3"	"150/97"	247
controllo_3	"POPTR_0005s26740.1"	441	"	"C/T"	"52,0/48,0"	"462/427"	889	stress_42	"POPTR_0005s26740.1"	441	"	"T/C"	"68,2/31,8"	"133/62"	195
controllo_3	"POPTR_0005s26740.1"	441	"	"C/T"	"52,0/48,0"	"462/427"	889	stress_45	"POPTR_0005s26740.1"	441	"	"T/C"	"72,4/27,0"	"142/53"	196
controllo_3	"POPTR_0006s23770.1"	841	"	"A/G"	"52,0/48,0"	"66/61"	127	stress_12bis	"POPTR_0006s23770.1"	841	"	"A/G"	"50,0/50,0"	"22/22"	44
controllo_3	"POPTR_0006s23770.1"	841	"	"A/G"	"52,0/48,0"	"66/61"	127	stress_45	"POPTR_0006s23770.1"	841	"	"G/A"	"72,2/27,8"	"13/5"	18
controllo_3	"POPTR_0018s08790.1"	996	"	"A/G"	"52,0/48,0"	"64/59"	123	stress_12bis	"POPTR_0018s08790.1"	996	"	"G/A"	"53,6/46,4"	"15/13"	28
controllo_3	"POPTR_0018s08790.1"	996	"	"A/G"	"52,0/48,0"	"64/59"	123	stress_42	"POPTR_0018s08790.1"	996	"	"G/A"	"58,8/41,2"	"20/14"	34
controllo_3	"POPTR_0018s08790.1"	996	"	"A/G"	"52,0/48,0"	"64/59"	123	stress_45	"POPTR_0018s08790.1"	996	"	"G/A"	"67,9/32,1"	"19/9"	28
controllo_3	"POPTR_0003s19210.1"	144	"	"C/T"	"52,0/48,0"	"181/167"	348	stress_12bis	"POPTR_0003s19210.1"	144	"	"C/T"	"54,2/44,6"	"45/37"	83
controllo_3	"POPTR_0003s19210.1"	144	"	"C/T"	"52,0/48,0"	"181/167"	348	stress_42	"POPTR_0003s19210.1"	144	"	"C/T"	"71,4/28,6"	"10/4"	14
controllo_3	"POPTR_0003s19210.1"	144	"	"C/T"	"52,0/48,0"	"181/167"	348	stress_45	"POPTR_0003s19210.1"	144	"	"C/T"	"62,5/37,5"	"25/15"	40
controllo_3	"POPTR_0003s11300.1"	1131	"	"T/A"	"52,0/48,0"	"141/130"	271	stress_12bis	"POPTR_0003s11300.1"	1131	"	"T/A"	"55,9/44,1"	"52/41"	93
controllo_3	"POPTR_0003s11300.1"	1131	"	"T/A"	"52,0/48,0"	"141/130"	271	stress_42	"POPTR_0003s11300.1"	1131	"	"A/T"	"76,5/23,5"	"13/4"	17
controllo_3	"POPTR_0003s11300.1"	1131	"	"T/A"	"52,0/48,0"	"141/130"	271	stress_45	"POPTR_0003s11300.1"	1131	"	"A/T"	"53,8/46,2"	"14/12"	26
controllo_3	"POPTR_0019s08090.1"	345	"	"C/T"	"52,0/48,0"	"79/73"	152	stress_12bis	"POPTR_0019s08090.1"	345	"	"C/T"	"58,7/41,3"	"27/19"	46
controllo_3	"POPTR_0019s08090.1"	345	"	"C/T"	"52,0/48,0"	"79/73"	152	stress_42	"POPTR_0019s08090.1"	345	"	"T/C"	"59,0/41,0"	"23/16"	39
controllo_3	"POPTR_0019s08090.1"	345	"	"C/T"	"52,0/48,0"	"79/73"	152	stress_45	"POPTR_0019s08090.1"	345	"	"T/C"	"54,5/45,5"	"24/20"	44
controllo_3	"POPTR_0013s12130.1"	167	"	"G/A"	"52,0/48,0"	"106/98"	204	stress_12bis	"POPTR_0013s12130.1"	167	"	"A/G"	"63,6/36,4"	"28/16"	44
controllo_3	"POPTR_0013s12130.1"	167	"	"G/A"	"52,0/48,0"	"106/98"	204	stress_42	"POPTR_0013s12130.1"	167	"	"A/G"	"53,8/46,2"	"7/6"	13
controllo_3	"POPTR_0013s12130.1"	167	"	"G/A"	"52,0/48,0"	"106/98"	204	stress_45	"POPTR_0013s12130.1"	167	"	"G/A"	"60,0/40,0"	"9/6"	15
controllo_3	"POPTR_0013s07150.1"	76	"	"T/G"	"52,0/48,0"	"65/60"	125	stress_12bis	"POPTR_0013s07150.1"	76	"	"G/T"	"66,7/33,3"	"14/7"	21
controllo_3	"POPTR_0014s17070.1"	723	"	"C/T"	"52,0/48,0"	"913/842"	1755	stress_12bis	"POPTR_0014s17070.1"	723	"	"T/C"	"51,8/48,2"	"291/271"	562
controllo_3	"POPTR_0014s17070.1"	723	"	"C/T"	"52,0/48,0"	"913/842"	1755	stress_42	"POPTR_0014s17070.1"	723	"	"T/C"	"53,4/46,6"	"109/95"	204
controllo_3	"POPTR_0014s17070.1"	723	"	"C/T"	"52,0/48,0"	"913/842"	1755	stress_45	"POPTR_0014s17070.1"	723	"	"C/T"	"50,2/49,8"	"108/107"	215
controllo_3	"POPTR_0014s02550.1"	1012	"	"G/A"	"52,0/48,0"	"64/59"	123	stress_12bis	"POPTR_0014s02550.1"	1012	"	"G/A"	"67,4/32,6"	"31/15"	46
controllo_3	"POPTR_0014s02550.1"	1012	"	"G/A"	"52,0/48,0"	"64/59"	123	stress_42	"POPTR_0014s02550.1"	1012	"	"G/A"	"58,0/42,0"	"29/21"	50
controllo_3	"POPTR_0014s02550.1"	1012	"	"G/A"	"52,0/48,0"	"64/59"	123	stress_45	"POPTR_0014s02550.1"	1012	"	"G/A"	"55,0/45,0"	"55/45"	100
controllo_3	"POPTR_0014s06370.1"	668	"	"T/C"	"52,0/48,0"	"181/167"	348	stress_12bis	"POPTR_0014s06370.1"	668	"	"C/T"	"52,3/47,7"	"57/52"	109
controllo_3	"POPTR_0014s06370.1"	668	"	"T/C"	"52,0/48,0"	"181/167"	348	stress_42	"POPTR_0014s06370.1"	668	"	"T/C"	"52,1/47,9"	"37/34"	71
controllo_3	"POPTR_0014s06370.1"	668	"	"T/C"	"52,0/48,0"	"181/167"	348	stress_45	"POPTR_0014s06370.1"	668	"	"T/C"	"58,5/41,5"	"83/59"	142
controllo_3	"POPTR_0004s14960.1"	3223	"	"G/C"	"52,0/48,0"	"77/71"	148	stress_12bis	"POPTR_0004s14960.1"	3223	"	"G/C"	"63,2/36,8"	"24/14"	38
controllo_3	"POPTR_0004s14960.1"	3223	"	"G/C"	"52,0/48,0"	"77/71"	148	stress_42	"POPTR_0004s14960.1"	3223	"	"C/G"	"70,8/29,2"	"17/7"	24
controllo_3	"POPTR_0004s14960.1"	3223	"	"G/C"	"52,0/48,0"	"77/71"	148	stress_45	"POPTR_0004s14960.1"	3223	"	"C/G"	"58,3/41,7"	"14/10"	24
controllo_3	"POPTR_0009s01320.1"	210	"	"C/T"	"52,0/48,0"	"105/97"	202	stress_12bis	"POPTR_0009s01320.1"	210	"	"C/T"	"62,2/37,8"	"125/76"	201
controllo_3	"POPTR_0009s01320.1"	210	"	"C/T"	"52,0/48,0"	"105/97"	202	stress_42	"POPTR_0009s01320.1"	210	"	"C/T"	"66,5/33,5"	"115/58"	173
controllo_3	"POPTR_0009s01320.1"	210	"	"C/T"	"52,0/48,0"	"105/97"	202	stress_45	"POPTR_0009s01320.1"	210	"	"C/T"	"61,8/38,2"	"155/96"	251
controllo_3	"POPTR_0012s07060.1"	1272	"	"A/G"	"52,0/48,0"	"270/249"	519	stress_12bis	"POPTR_0012s07060.1"	1272	"	"A/G"	"54,2/45,8"	"103/87"	190
controllo_3	"POPTR_0012s07060.1"	1272	"	"A/G"	"52,0/48,0"	"270/249"	519	stress_42	"POPTR_0012s07060.1"	1272	"	"A/G"	"56,7/43,3"	"55/42"	97
controllo_3	"POPTR_0012s07060.1"	1272	"	"A/G"	"52,0/48,0"	"270/249"	519	stress_45	"POPTR_0012s07060.1"	1272	"	"A/G"	"59,5/40,5"	"72/49"	121
controllo_3	"POPTR_0011s11390.1"	549	"	"T/C"	"52,0/48,0"	"724/668"	1392	stress_12bis	"POPTR_0011s11390.1"	549	"	"T/C"	"53,1/46,9"	"243/215"	458
controllo_3	"POPTR_0011s11390.1"	549	"	"T/C"	"52,0/48,0"	"724/668"	1392	stress_42	"POPTR_0011s11390.1"	549	"	"C/T"	"69,2/30,8"	"63/28"	91
controllo_3	"POPTR_0011s11390.1"	549	"	"T/C"	"52,0/48,0"	"724/668"	1392	stress_45	"POPTR_0011s11390.1"	549	"	"C/T"	"57,8/42,2"	"59/43"	102
controllo_3	"POPTR_0011s08940.1"	141	"	"A/G"	"52,0/48,0"	"407/375"	782	stress_12bis	"POPTR_0011s08940.1"	141	"	"G/A"	"53,0/47,0"	"89/79"	168
controllo_3	"POPTR_0011s08940.1"	141	"	"A/G"	"52,0/48,0"	"407/375"	782	stress_42	"POPTR_0011s08940.1"	141	"	"A/G"	"50,0/50,0"	"19/19"	38
controllo_3	"POPTR_0011s08940.1"	141	"	"A/G"	"52,0/48,0"	"407/375"	782	stress_45	"POPTR_0011s08940.1"	141	"	"G/A"	"62,9/37,1"	"44/26"	70
controllo_3	"POPTR_0011s08940.1"	1316	"	"T/C"	"52,0/48,0"	"372/344"	716	stress_12bis	"POPTR_0011s08940.1"	1316	"	"C/T"	"50,2/49,8"	"108/107"	215
controllo_3	"POPTR_0011s08940.1"	1316	"	"T/C"	"52,0/48,0"	"372/344"	716	stress_42	"POPTR_0011s08940.1"	1316	"	"C/T"	"65,9/34,1"	"54/28"	82
controllo_3	"POPTR_0011s08940.1"	1316	"	"T/C"	"52,0/48,0"	"372/344"	716	stress_45	"POPTR_0011s08940.1"	1316	"	"C/T"	"57,6/42,4"	"57/42"	99
controllo_3	"POPTR_0001s40250.1"	2232	"	"A/T"	"52,0/48,0"	"39/36"	75	stress_45	"POPTR_0001s40250.1"	2232	"	"A/T"	"72,0/28,0"	"121/47"	168
controllo_3	"POPTR_0007s14280.1"	1050	"	"C/T"	"52,0/48,0"	"64/59"	123	stress_12bis	"POPTR_0007s14280.1"	1050	"	"T/C"	"66,7/33,3"	"16/8"	24
controllo_3	"POPTR_0007s14280.1"	1050	"	"C/T"	"52,0/48,0"	"64/59"	123	stress_42	"POPTR_0007s14280.1"	1050	"	"C/T"	"54,5/45,5"	"18/15"	33
controllo_3	"POPTR_0007s14280.1"	1050	"	"C/T"	"52,0/48,0"	"64/59"	123	stress_45	"POPTR_0007s14280.1"	1050	"	"T/C"	"60,5/39,5"	"23/15"	38
controllo_3	"POPTR_0002s05650.1"	79	"	"T/C"	"52,0/48,0"	"53/49"	102	stress_12bis	"POPTR_0002s05650.1"	79	"	"T/C"	"66,7/33,3"	"12/6"	18
controllo_3	"POPTR_0002s05650.1"	79	"	"T/C"	"52,0/48,0"	"53/49"	102	stress_42	"POPTR_0002s05650.1"	79	"	"T/C"	"60,0/40,0"	"9/6"	15
controllo_3	"POPTR_0002s05650.1"	79	"	"T/C"	"52,0/48,0"	"53/49"	102	stress_45	"POPTR_0002s05650.1"	79	"	"C/T"	"58,3/41,7"	"14/10"	24
controllo_3	"POPTR_0002s03130.1"	756	"	"T/C"	"52,0/48,0"	"105/97"	202	stress_12bis	"POPTR_0002s03130.1"	756	"	"T/C"	"50,0/48,6"	"35/34"	70
controllo_3	"POPTR_0002s03130.1"	756	"	"T/C"	"52,0/48,0"	"105/97"	202	stress_42	"POPTR_0002s03130.1"	756	"	"C/T"	"58,1/41,9"	"18/13"	31
controllo_3	"POPTR_0002s03130.1"	756	"	"T/C"	"52,0/48,0"	"105/97"	202	stress_45	"POPTR_0002s03130.1"	756	"	"C/T"	"56,0/44,0"	"14/11"	25
controllo_3	"POPTR_0008s05480.1"	1852	"	"A/C"	"52,0/48,0"	"363/335"	698	stress_12bis	"POPTR_0008s05480.1"	1852	"	"A/C"	"53,9/46,1"	"125/107"	232
controllo_3	"POPTR_0008s05480.1"	1852	"	"A/C"	"52,0/48,0"	"363/335"	698	stress_42	"POPTR_0008s05480.1"	1852	"	"C/A"	"52,6/47,4"	"92/83"	175
controllo_3	"POPTR_0008s05480.1"	1852	"	"A/C"	"52,0/48,0"	"363/335"	698	stress_45	"POPTR_0008s05480.1"	1852	"	"C/A"	"51,8/48,2"	"189/176"	365
controllo_3	"POPTR_0016s03630.1"	4228	"	"C/T"	"52,0/48,0"	"79/73"	152	stress_12bis	"POPTR_0016s03630.1"	4228	"	"C/T"	"70,3/29,7"	"26/11"	37
controllo_3	"POPTR_0016s08520.1"	856	"	"C/T"	"52,0/48,0"	"52/48"	100	stress_45	"POPTR_0016s08520.1"	856	"	"T/C"	"50,9/49,1"	"55/53"	108
controllo_3	"POPTR_0013s06710.1"	903	"	"C/T"	"52,1/46,1"	"86/76"	165	stress_12bis	"POPTR_0013s06710.1"	903	"	"C/T"	"50,0/50,0"	"29/29"	58
controllo_3	"POPTR_0013s06710.1"	903	"	"C/T"	"52,1/46,1"	"86/76"	165	stress_42	"POPTR_0013s06710.1"	903	"	"T/C"	"60,9/39,1"	"14/9"	23
controllo_3	"POPTR_0013s06710.1"	903	"	"C/T"	"52,1/46,1"	"86/76"	165	stress_45	"POPTR_0013s06710.1"	903	"	"C/T"	"56,8/40,9"	"25/18"	44
controllo_3	"POPTR_0002s18020.1"	891	"	"T/A"	"52,1/47,1"	"62/56"	119	stress_12bis	"POPTR_0002s18020.1"	891	"	"T/A"	"51,7/48,3"	"31/29"	60
controllo_3	"POPTR_0002s18020.1"	891	"	"T/A"	"52,1/47,1"	"62/56"	119	stress_42	"POPTR_0002s18020.1"	891	"	"A/T"	"57,1/42,9"	"24/18"	42
controllo_3	"POPTR_0002s18020.1"	891	"	"T/A"	"52,1/47,1"	"62/56"	119	stress_45	"POPTR_0002s18020.1"	891	"	"A/T"	"50,0/50,0"	"48/48"	96
controllo_3	"POPTR_0001s45410.1"	861	"	"G/T"	"52,1/47,2"	"75/68"	144	stress_12bis	"POPTR_0001s45410.1"	861	"	"T/G"	"55,1/44,9"	"27/22"	49
controllo_3	"POPTR_0001s45410.1"	861	"	"G/T"	"52,1/47,2"	"75/68"	144	stress_42	"POPTR_0001s45410.1"	861	"	"G/T"	"50,0/50,0"	"10/10"	20
controllo_3	"POPTR_0001s45410.1"	861	"	"G/T"	"52,1/47,2"	"75/68"	144	stress_45	"POPTR_0001s45410.1"	861	"	"T/G"	"55,0/45,0"	"11/9"	20
controllo_3	"POPTR_0006s04960.1"	2748	"	"T/A"	"52,1/47,3"	"163/148"	313	stress_12bis	"POPTR_0006s04960.1"	2748	"	"A/T"	"50,0/50,0"	"34/34"	68
controllo_3	"POPTR_0006s04960.1"	2748	"	"T/A"	"52,1/47,3"	"163/148"	313	stress_42	"POPTR_0006s04960.1"	2748	"	"A/T"	"53,3/46,7"	"8/7"	15
controllo_3	"POPTR_0006s04960.1"	2748	"	"T/A"	"52,1/47,3"	"163/148"	313	stress_45	"POPTR_0006s04960.1"	2748	"	"A/T"	"57,7/42,3"	"15/11"	26
controllo_3	"POPTR_0013s07150.1"	2880	"	"C/T"	"52,1/47,5"	"124/113"	238	stress_12bis	"POPTR_0013s07150.1"	2880	"	"T/C"	"51,9/48,1"	"28/26"	54
controllo_3	"POPTR_0013s07150.1"	2880	"	"C/T"	"52,1/47,5"	"124/113"	238	stress_42	"POPTR_0013s07150.1"	2880	"	"C/T"	"55,6/44,4"	"20/16"	36
controllo_3	"POPTR_0013s07150.1"	2880	"	"C/T"	"52,1/47,5"	"124/113"	238	stress_45	"POPTR_0013s07150.1"	2880	"	"C/T"	"56,1/43,9"	"23/18"	41
controllo_3	"POPTR_0011s11390.1"	714	"	"A/G"	"52,1/47,8"	"899/824"	1724	stress_12bis	"POPTR_0011s11390.1"	714	"	"A/G"	"52,5/47,5"	"341/309"	650
controllo_3	"POPTR_0011s11390.1"	714	"	"A/G"	"52,1/47,8"	"899/824"	1724	stress_42	"POPTR_0011s11390.1"	714	"	"G/A"	"70,1/29,9"	"94/40"	134
controllo_3	"POPTR_0011s11390.1"	714	"	"A/G"	"52,1/47,8"	"899/824"	1724	stress_45	"POPTR_0011s11390.1"	714	"	"G/A"	"62,2/37,8"	"97/59"	156
controllo_3	"POPTR_0006s28990.1"	1671	"	"T/C"	"52,1/47,9"	"138/127"	265	stress_12bis	"POPTR_0006s28990.1"	1671	"	"T/C"	"59,6/40,4"	"28/19"	47
controllo_3	"POPTR_0006s28990.1"	1671	"	"T/C"	"52,1/47,9"	"138/127"	265	stress_42	"POPTR_0006s28990.1"	1671	"	"T/C"	"62,5/37,5"	"60/36"	96
controllo_3	"POPTR_0006s28990.1"	1671	"	"T/C"	"52,1/47,9"	"138/127"	265	stress_45	"POPTR_0006s28990.1"	1671	"	"T/C"	"50,8/49,2"	"63/61"	124
controllo_3	"POPTR_0006s00620.1"	752	"	"C/G"	"52,1/47,9"	"61/56"	117	stress_12bis	"POPTR_0006s00620.1"	752	"	"C/G"	"71,4/28,6"	"15/6"	21
controllo_3	"POPTR_0018s11820.1"	204	"	"G/A"	"52,1/47,9"	"239/220"	459	stress_12bis	"POPTR_0018s11820.1"	204	"	"A/G"	"50,7/49,3"	"75/73"	148
controllo_3	"POPTR_0018s11820.1"	204	"	"G/A"	"52,1/47,9"	"239/220"	459	stress_42	"POPTR_0018s11820.1"	204	"	"G/A"	"73,9/26,1"	"17/6"	23
controllo_3	"POPTR_0018s11820.1"	204	"	"G/A"	"52,1/47,9"	"239/220"	459	stress_45	"POPTR_0018s11820.1"	204	"	"G/A"	"60,5/39,5"	"23/15"	38
controllo_3	"POPTR_0003s11300.1"	72	"	"C/T"	"52,1/47,9"	"98/90"	188	stress_12bis	"POPTR_0003s11300.1"	72	"	"C/T"	"57,0/43,0"	"45/34"	79
controllo_3	"POPTR_0003s11300.1"	72	"	"C/T"	"52,1/47,9"	"98/90"	188	stress_45	"POPTR_0003s11300.1"	72	"	"C/T"	"50,0/50,0"	"8/8"	16
controllo_3	"POPTR_0014s02550.1"	550	"	"A/G"	"52,1/47,9"	"61/56"	117	stress_12bis	"POPTR_0014s02550.1"	550	"	"G/A"	"58,1/41,9"	"25/18"	43
controllo_3	"POPTR_0014s02550.1"	550	"	"A/G"	"52,1/47,9"	"61/56"	117	stress_42	"POPTR_0014s02550.1"	550	"	"A/G"	"57,1/42,9"	"20/15"	35
controllo_3	"POPTR_0014s02550.1"	550	"	"A/G"	"52,1/47,9"	"61/56"	117	stress_45	"POPTR_0014s02550.1"	550	"	"A/G"	"63,0/37,0"	"51/30"	81
controllo_3	"POPTR_0014s02410.1"	945	"	"T/G"	"52,1/47,9"	"439/403"	842	stress_12bis	"POPTR_0014s02410.1"	945	"	"T/G"	"61,3/38,7"	"73/46"	119
controllo_3	"POPTR_0014s02410.1"	945	"	"T/G"	"52,1/47,9"	"439/403"	842	stress_42	"POPTR_0014s02410.1"	945	"	"T/G"	"54,5/45,5"	"79/66"	145
controllo_3	"POPTR_0014s02410.1"	945	"	"T/G"	"52,1/47,9"	"439/403"	842	stress_45	"POPTR_0014s02410.1"	945	"	"G/T"	"54,1/45,9"	"180/153"	333
controllo_3	"POPTR_0014s10260.1"	1467	"	"C/A"	"52,1/47,9"	"165/152"	317	stress_12bis	"POPTR_0014s10260.1"	1467	"	"A/C"	"50,8/49,2"	"32/31"	63
controllo_3	"POPTR_0014s10260.1"	1467	"	"C/A"	"52,1/47,9"	"165/152"	317	stress_42	"POPTR_0014s10260.1"	1467	"	"C/A"	"57,9/42,1"	"33/24"	57
controllo_3	"POPTR_0014s10260.1"	1467	"	"C/A"	"52,1/47,9"	"165/152"	317	stress_45	"POPTR_0014s10260.1"	1467	"	"C/A"	"55,7/44,3"	"39/31"	70
controllo_3	"POPTR_0012s07060.1"	1053	"	"T/C"	"52,1/47,9"	"312/287"	599	stress_12bis	"POPTR_0012s07060.1"	1053	"	"T/C"	"53,1/46,9"	"104/92"	196
controllo_3	"POPTR_0012s07060.1"	1053	"	"T/C"	"52,1/47,9"	"312/287"	599	stress_42	"POPTR_0012s07060.1"	1053	"	"C/T"	"54,8/44,1"	"51/41"	93
controllo_3	"POPTR_0012s07060.1"	1053	"	"T/C"	"52,1/47,9"	"312/287"	599	stress_45	"POPTR_0012s07060.1"	1053	"	"C/T"	"56,0/44,0"	"79/62"	141
controllo_3	"POPTR_0011s02610.1"	546	"	"C/T"	"52,1/47,9"	"112/103"	215	stress_12bis	"POPTR_0011s02610.1"	546	"	"C/T"	"55,1/44,9"	"27/22"	49
controllo_3	"POPTR_0011s02610.1"	546	"	"C/T"	"52,1/47,9"	"112/103"	215	stress_42	"POPTR_0011s02610.1"	546	"	"C/T"	"54,5/45,5"	"6/5"	11
controllo_3	"POPTR_0011s02610.1"	546	"	"C/T"	"52,1/47,9"	"112/103"	215	stress_45	"POPTR_0011s02610.1"	546	"	"C/T"	"62,5/37,5"	"10/6"	16
controllo_3	"POPTR_0015s10920.1"	1251	"	"C/T"	"52,1/47,9"	"113/104"	217	stress_12bis	"POPTR_0015s10920.1"	1251	"	"T/C"	"55,3/44,7"	"47/38"	85
controllo_3	"POPTR_0015s10920.1"	1251	"	"C/T"	"52,1/47,9"	"113/104"	217	stress_42	"POPTR_0015s10920.1"	1251	"	"C/T"	"51,9/48,1"	"14/13"	27
controllo_3	"POPTR_0015s10920.1"	1251	"	"C/T"	"52,1/47,9"	"113/104"	217	stress_45	"POPTR_0015s10920.1"	1251	"	"T/C"	"60,3/38,1"	"38/24"	63
controllo_3	"POPTR_0015s06410.1"	102	"	"A/T"	"52,1/47,9"	"281/258"	539	stress_12bis	"POPTR_0015s06410.1"	102	"	"A/T"	"52,2/47,8"	"105/96"	201
controllo_3	"POPTR_0015s06410.1"	102	"	"A/T"	"52,1/47,9"	"281/258"	539	stress_42	"POPTR_0015s06410.1"	102	"	"A/T"	"53,3/46,7"	"32/28"	60
controllo_3	"POPTR_0015s06410.1"	102	"	"A/T"	"52,1/47,9"	"281/258"	539	stress_45	"POPTR_0015s06410.1"	102	"	"A/T"	"55,4/44,6"	"31/25"	56
controllo_3	"POPTR_0015s11640.1"	93	"	"T/G"	"52,1/47,9"	"355/326"	681	stress_12bis	"POPTR_0015s11640.1"	93	"	"G/T"	"50,5/49,5"	"108/106"	214
controllo_3	"POPTR_0015s11640.1"	93	"	"T/G"	"52,1/47,9"	"355/326"	681	stress_42	"POPTR_0015s11640.1"	93	"	"G/T"	"51,9/46,2"	"27/24"	52
controllo_3	"POPTR_0015s11640.1"	93	"	"T/G"	"52,1/47,9"	"355/326"	681	stress_45	"POPTR_0015s11640.1"	93	"	"T/G"	"55,6/44,4"	"100/80"	180
controllo_3	"POPTR_0001s25760.1"	612	"	"T/A"	"52,1/47,9"	"87/80"	167	stress_12bis	"POPTR_0001s25760.1"	612	"	"T/A"	"64,7/32,4"	"22/11"	34
controllo_3	"POPTR_0001s25760.1"	612	"	"T/A"	"52,1/47,9"	"87/80"	167	stress_42	"POPTR_0001s25760.1"	612	"	"A/T"	"53,8/46,2"	"7/6"	13
controllo_3	"POPTR_0001s25760.1"	612	"	"T/A"	"52,1/47,9"	"87/80"	167	stress_45	"POPTR_0001s25760.1"	612	"	"T/A"	"54,1/45,9"	"20/17"	37
controllo_3	"POPTR_0001s37480.1"	207	"	"C/T"	"52,1/47,9"	"135/124"	259	stress_12bis	"POPTR_0001s37480.1"	207	"	"C/T"	"54,0/46,0"	"27/23"	50
controllo_3	"POPTR_0001s37480.1"	207	"	"C/T"	"52,1/47,9"	"135/124"	259	stress_42	"POPTR_0001s37480.1"	207	"	"C/T"	"55,6/44,4"	"25/20"	45
controllo_3	"POPTR_0001s37480.1"	207	"	"C/T"	"52,1/47,9"	"135/124"	259	stress_45	"POPTR_0001s37480.1"	207	"	"C/T"	"50,5/49,5"	"51/50"	101
controllo_3	"POPTR_0001s37480.1"	786	"	"C/T"	"52,1/47,9"	"101/93"	194	stress_12bis	"POPTR_0001s37480.1"	786	"	"C/T"	"51,9/48,1"	"27/25"	52
controllo_3	"POPTR_0001s37480.1"	786	"	"C/T"	"52,1/47,9"	"101/93"	194	stress_42	"POPTR_0001s37480.1"	786	"	"C/T"	"50,9/49,1"	"27/26"	53
controllo_3	"POPTR_0001s37480.1"	786	"	"C/T"	"52,1/47,9"	"101/93"	194	stress_45	"POPTR_0001s37480.1"	786	"	"T/C"	"56,2/43,8"	"68/53"	121
controllo_3	"POPTR_0001s47020.1"	1569	"	"A/T"	"52,1/47,9"	"158/145"	303	stress_12bis	"POPTR_0001s47020.1"	1569	"	"A/T"	"63,7/36,3"	"65/37"	102
controllo_3	"POPTR_0001s47020.1"	1569	"	"A/T"	"52,1/47,9"	"158/145"	303	stress_42	"POPTR_0001s47020.1"	1569	"	"T/A"	"53,1/46,9"	"43/38"	81
controllo_3	"POPTR_0001s47020.1"	1569	"	"A/T"	"52,1/47,9"	"158/145"	303	stress_45	"POPTR_0001s47020.1"	1569	"	"T/A"	"55,8/44,2"	"101/80"	181
controllo_3	"POPTR_0007s02000.1"	196	"	"T/G"	"52,1/47,9"	"98/90"	188	stress_12bis	"POPTR_0007s02000.1"	196	"	"T/G"	"54,0/46,0"	"34/29"	63
controllo_3	"POPTR_0007s02000.1"	196	"	"T/G"	"52,1/47,9"	"98/90"	188	stress_42	"POPTR_0007s02000.1"	196	"	"G/T"	"57,1/42,9"	"8/6"	14
controllo_3	"POPTR_0007s02000.1"	196	"	"T/G"	"52,1/47,9"	"98/90"	188	stress_45	"POPTR_0007s02000.1"	196	"	"G/T"	"56,7/43,3"	"17/13"	30
controllo_3	"POPTR_0007s06620.1"	270	"	"C/A"	"52,1/47,9"	"110/101"	211	stress_12bis	"POPTR_0007s06620.1"	270	"	"A/C"	"57,9/42,1"	"22/16"	38
controllo_3	"POPTR_0007s06620.1"	270	"	"C/A"	"52,1/47,9"	"110/101"	211	stress_45	"POPTR_0007s06620.1"	270	"	"A/C"	"62,5/37,5"	"10/6"	16
controllo_3	"POPTR_0002s14730.1"	504	"	"G/A"	"52,1/47,9"	"86/79"	165	stress_12bis	"POPTR_0002s14730.1"	504	"	"A/G"	"54,9/45,1"	"28/23"	51
controllo_3	"POPTR_0002s14730.1"	504	"	"G/A"	"52,1/47,9"	"86/79"	165	stress_42	"POPTR_0002s14730.1"	504	"	"A/G"	"50,0/50,0"	"6/6"	12
controllo_3	"POPTR_0002s14730.1"	504	"	"G/A"	"52,1/47,9"	"86/79"	165	stress_45	"POPTR_0002s14730.1"	504	"	"G/A"	"52,6/47,4"	"10/9"	19
controllo_3	"POPTR_0002s06560.1"	323	"	"C/T"	"52,1/47,9"	"126/116"	242	stress_12bis	"POPTR_0002s06560.1"	323	"	"C/T"	"51,6/48,4"	"33/31"	64
controllo_3	"POPTR_0002s06560.1"	323	"	"C/T"	"52,1/47,9"	"126/116"	242	stress_42	"POPTR_0002s06560.1"	323	"	"C/T"	"53,3/46,7"	"32/28"	60
controllo_3	"POPTR_0002s06560.1"	323	"	"C/T"	"52,1/47,9"	"126/116"	242	stress_45	"POPTR_0002s06560.1"	323	"	"C/T"	"54,8/45,2"	"34/28"	62
controllo_3	"POPTR_0008s19160.1"	1401	"	"C/G"	"52,1/47,9"	"159/146"	305	stress_12bis	"POPTR_0008s19160.1"	1401	"	"C/G"	"57,9/42,1"	"55/40"	95
controllo_3	"POPTR_0008s19160.1"	1401	"	"C/G"	"52,1/47,9"	"159/146"	305	stress_45	"POPTR_0008s19160.1"	1401	"	"C/G"	"57,1/42,9"	"8/6"	14
controllo_3	"POPTR_0008s09150.1"	144	"	"C/T"	"52,1/47,9"	"100/92"	192	stress_12bis	"POPTR_0008s09150.1"	144	"	"C/T"	"51,9/48,1"	"28/26"	54
controllo_3	"POPTR_0008s09150.1"	144	"	"C/T"	"52,1/47,9"	"100/92"	192	stress_42	"POPTR_0008s09150.1"	144	"	"T/C"	"52,1/47,9"	"85/78"	163
controllo_3	"POPTR_0008s09150.1"	144	"	"C/T"	"52,1/47,9"	"100/92"	192	stress_45	"POPTR_0008s09150.1"	144	"	"T/C"	"53,2/46,8"	"123/108"	231
controllo_3	"POPTR_0012s08330.1"	411	"	"T/C"	"52,2/44,9"	"164/141"	314	stress_12bis	"POPTR_0012s08330.1"	411	"	"C/T"	"57,4/41,7"	"62/45"	108
controllo_3	"POPTR_0012s08330.1"	411	"	"T/C"	"52,2/44,9"	"164/141"	314	stress_42	"POPTR_0012s08330.1"	411	"	"T/C"	"58,3/40,8"	"60/42"	103
controllo_3	"POPTR_0012s08330.1"	411	"	"T/C"	"52,2/44,9"	"164/141"	314	stress_45	"POPTR_0012s08330.1"	411	"	"T/C"	"69,2/29,0"	"74/31"	107
controllo_3	"POPTR_0001s21740.1"	324	"	"C/T"	"52,2/46,8"	"164/147"	314	stress_12bis	"POPTR_0001s21740.1"	324	"	"C/T"	"55,0/45,0"	"60/49"	109
controllo_3	"POPTR_0001s21740.1"	324	"	"C/T"	"52,2/46,8"	"164/147"	314	stress_42	"POPTR_0001s21740.1"	324	"	"C/T"	"64,0/34,0"	"32/17"	50
controllo_3	"POPTR_0001s21740.1"	324	"	"C/T"	"52,2/46,8"	"164/147"	314	stress_45	"POPTR_0001s21740.1"	324	"	"C/T"	"55,3/43,5"	"47/37"	85
controllo_3	"POPTR_0010s21700.1"	375	"	"C/T"	"52,2/47,0"	"140/126"	268	stress_42	"POPTR_0010s21700.1"	375	"	"T/C"	"56,8/43,2"	"25/19"	44
controllo_3	"POPTR_0010s21700.1"	375	"	"C/T"	"52,2/47,0"	"140/126"	268	stress_45	"POPTR_0010s21700.1"	375	"	"T/C"	"64,3/32,1"	"18/9"	28
controllo_3	"POPTR_0003s08070.1"	141	"	"T/A"	"52,2/47,2"	"84/76"	161	stress_12bis	"POPTR_0003s08070.1"	141	"	"T/A"	"58,9/41,1"	"33/23"	56
controllo_3	"POPTR_0003s08070.1"	141	"	"T/A"	"52,2/47,2"	"84/76"	161	stress_42	"POPTR_0003s08070.1"	141	"	"T/A"	"57,1/42,9"	"24/18"	42
controllo_3	"POPTR_0003s08070.1"	141	"	"T/A"	"52,2/47,2"	"84/76"	161	stress_45	"POPTR_0003s08070.1"	141	"	"T/A"	"60,9/39,1"	"28/18"	46
controllo_3	"POPTR_0009s11480.1"	54	"	"C/T"	"52,2/47,3"	"221/200"	423	stress_12bis	"POPTR_0009s11480.1"	54	"	"C/T"	"55,6/44,4"	"79/63"	142
controllo_3	"POPTR_0009s11480.1"	54	"	"C/T"	"52,2/47,3"	"221/200"	423	stress_42	"POPTR_0009s11480.1"	54	"	"C/T"	"69,2/30,8"	"9/4"	13
controllo_3	"POPTR_0009s11480.1"	54	"	"C/T"	"52,2/47,3"	"221/200"	423	stress_45	"POPTR_0009s11480.1"	54	"	"C/T"	"56,9/43,1"	"29/22"	51
controllo_3	"POPTR_0011s11390.1"	993	"	"A/T"	"52,2/47,5"	"804/731"	1540	stress_12bis	"POPTR_0011s11390.1"	993	"	"A/T"	"52,2/46,8"	"271/243"	519
controllo_3	"POPTR_0011s11390.1"	993	"	"A/T"	"52,2/47,5"	"804/731"	1540	stress_42	"POPTR_0011s11390.1"	993	"	"T/A"	"51,9/46,6"	"68/61"	131
controllo_3	"POPTR_0011s11390.1"	993	"	"A/T"	"52,2/47,5"	"804/731"	1540	stress_45	"POPTR_0011s11390.1"	993	"	"T/A"	"69,4/29,8"	"84/36"	121
controllo_3	"POPTR_0001s47020.1"	1908	"	"T/C"	"52,2/47,5"	"144/131"	276	stress_12bis	"POPTR_0001s47020.1"	1908	"	"C/T"	"50,7/49,3"	"37/36"	73
controllo_3	"POPTR_0001s47020.1"	1908	"	"T/C"	"52,2/47,5"	"144/131"	276	stress_42	"POPTR_0001s47020.1"	1908	"	"T/C"	"57,3/42,7"	"55/41"	96
controllo_3	"POPTR_0001s47020.1"	1908	"	"T/C"	"52,2/47,5"	"144/131"	276	stress_45	"POPTR_0001s47020.1"	1908	"	"T/C"	"53,6/46,4"	"74/64"	138
controllo_3	"POPTR_0002s25510.2"	292	"	"T/G"	"52,2/47,6"	"349/318"	668	stress_12bis	"POPTR_0002s25510.2"	292	"	"T/G"	"54,8/45,2"	"115/95"	210
controllo_3	"POPTR_0002s25510.2"	292	"	"T/G"	"52,2/47,6"	"349/318"	668	stress_42	"POPTR_0002s25510.2"	292	"	"T/G"	"63,8/36,2"	"51/29"	80
controllo_3	"POPTR_0002s25510.2"	292	"	"T/G"	"52,2/47,6"	"349/318"	668	stress_45	"POPTR_0002s25510.2"	292	"	"T/G"	"52,4/47,6"	"33/30"	63
controllo_3	"POPTR_0019s09140.1"	753	"	"C/A"	"52,2/47,7"	"732/669"	1402	stress_12bis	"POPTR_0019s09140.1"	753	"	"C/A"	"56,3/43,7"	"254/197"	451
controllo_3	"POPTR_0019s09140.1"	753	"	"C/A"	"52,2/47,7"	"732/669"	1402	stress_42	"POPTR_0019s09140.1"	753	"	"A/C"	"51,4/48,6"	"95/90"	185
controllo_3	"POPTR_0019s09140.1"	753	"	"C/A"	"52,2/47,7"	"732/669"	1402	stress_45	"POPTR_0019s09140.1"	753	"	"C/A"	"62,1/37,9"	"113/69"	182
controllo_3	"POPTR_0005s20560.1"	48	"	"C/G"	"52,2/47,8"	"59/54"	113	stress_12bis	"POPTR_0005s20560.1"	48	"	"C/G"	"84,2/15,8"	"32/6"	38
controllo_3	"POPTR_0005s22660.1"	125	"	"G/C"	"52,2/47,8"	"12/11"	23	stress_42	"POPTR_0005s22660.1"	125	"	"G/C"	"68,7/31,3"	"101/46"	147
controllo_3	"POPTR_0005s22660.1"	125	"	"G/C"	"52,2/47,8"	"12/11"	23	stress_45	"POPTR_0005s22660.1"	125	"	"G/C"	"75,2/24,8"	"76/25"	101
controllo_3	"POPTR_0005s05450.1"	1062	"	"G/A"	"52,2/47,8"	"157/144"	301	stress_12bis	"POPTR_0005s05450.1"	1062	"	"G/A"	"60,0/40,0"	"27/18"	45
controllo_3	"POPTR_0005s05450.1"	1062	"	"G/A"	"52,2/47,8"	"157/144"	301	stress_42	"POPTR_0005s05450.1"	1062	"	"A/G"	"54,2/45,8"	"13/11"	24
controllo_3	"POPTR_0005s05450.1"	1062	"	"G/A"	"52,2/47,8"	"157/144"	301	stress_45	"POPTR_0005s05450.1"	1062	"	"A/G"	"63,2/36,8"	"24/14"	38
controllo_3	"POPTR_0017s01760.1"	81	"	"A/G"	"52,2/47,8"	"59/54"	113	stress_12bis	"POPTR_0017s01760.1"	81	"	"A/G"	"54,1/45,9"	"20/17"	37
controllo_3	"POPTR_0017s01760.1"	81	"	"A/G"	"52,2/47,8"	"59/54"	113	stress_42	"POPTR_0017s01760.1"	81	"	"A/G"	"51,5/48,5"	"17/16"	33
controllo_3	"POPTR_0017s01760.1"	81	"	"A/G"	"52,2/47,8"	"59/54"	113	stress_45	"POPTR_0017s01760.1"	81	"	"G/A"	"53,2/46,8"	"25/22"	47
controllo_3	"POPTR_0006s28990.1"	51	"	"T/C"	"52,2/47,8"	"152/139"	291	stress_12bis	"POPTR_0006s28990.1"	51	"	"C/T"	"52,3/47,7"	"23/21"	44
controllo_3	"POPTR_0006s28990.1"	51	"	"T/C"	"52,2/47,8"	"152/139"	291	stress_42	"POPTR_0006s28990.1"	51	"	"C/T"	"57,1/42,9"	"36/27"	63
controllo_3	"POPTR_0006s28990.1"	51	"	"T/C"	"52,2/47,8"	"152/139"	291	stress_45	"POPTR_0006s28990.1"	51	"	"C/T"	"63,1/36,9"	"41/24"	65
controllo_3	"POPTR_0006s08750.1"	404	"	"C/T"	"52,2/47,8"	"60/55"	115	stress_12bis	"POPTR_0006s08750.1"	404	"	"C/T"	"59,4/40,6"	"38/26"	64
controllo_3	"POPTR_0006s08750.1"	404	"	"C/T"	"52,2/47,8"	"60/55"	115	stress_42	"POPTR_0006s08750.1"	404	"	"T/C"	"58,3/41,7"	"21/15"	36
controllo_3	"POPTR_0006s08750.1"	404	"	"C/T"	"52,2/47,8"	"60/55"	115	stress_45	"POPTR_0006s08750.1"	404	"	"T/C"	"57,7/42,3"	"15/11"	26
controllo_3	"POPTR_0006s08710.1"	243	"	"T/C"	"52,2/47,8"	"70/64"	134	stress_12bis	"POPTR_0006s08710.1"	243	"	"C/T"	"53,1/46,9"	"26/23"	49
controllo_3	"POPTR_0006s08710.1"	243	"	"T/C"	"52,2/47,8"	"70/64"	134	stress_42	"POPTR_0006s08710.1"	243	"	"C/T"	"56,0/44,0"	"14/11"	25
controllo_3	"POPTR_0006s08710.1"	243	"	"T/C"	"52,2/47,8"	"70/64"	134	stress_45	"POPTR_0006s08710.1"	243	"	"C/T"	"51,4/48,6"	"19/18"	37
controllo_3	"POPTR_0018s02960.1"	1345	"	"T/C"	"52,2/47,8"	"84/77"	161	stress_12bis	"POPTR_0018s02960.1"	1345	"	"C/T"	"57,1/42,9"	"8/6"	14
controllo_3	"POPTR_0018s02960.1"	1345	"	"T/C"	"52,2/47,8"	"84/77"	161	stress_42	"POPTR_0018s02960.1"	1345	"	"T/C"	"60,0/40,0"	"6/4"	10
controllo_3	"POPTR_0018s02960.1"	1345	"	"T/C"	"52,2/47,8"	"84/77"	161	stress_45	"POPTR_0018s02960.1"	1345	"	"T/C"	"73,3/26,7"	"11/4"	15
controllo_3	"POPTR_0003s05110.1"	375	"	"C/T"	"52,2/47,8"	"785/719"	1504	stress_12bis	"POPTR_0003s05110.1"	375	"	"C/T"	"60,3/39,7"	"276/182"	458
controllo_3	"POPTR_0003s05110.1"	375	"	"C/T"	"52,2/47,8"	"785/719"	1504	stress_42	"POPTR_0003s05110.1"	375	"	"C/T"	"64,4/35,6"	"112/62"	174
controllo_3	"POPTR_0003s05110.1"	375	"	"C/T"	"52,2/47,8"	"785/719"	1504	stress_45	"POPTR_0003s05110.1"	375	"	"C/T"	"61,2/38,8"	"93/59"	152
controllo_3	"POPTR_0003s01450.1"	838	"	"G/A"	"52,2/47,8"	"140/128"	268	stress_12bis	"POPTR_0003s01450.1"	838	"	"A/G"	"55,6/44,4"	"20/16"	36
controllo_3	"POPTR_0003s01450.1"	838	"	"G/A"	"52,2/47,8"	"140/128"	268	stress_42	"POPTR_0003s01450.1"	838	"	"A/G"	"53,2/46,8"	"25/22"	47
controllo_3	"POPTR_0003s01450.1"	838	"	"G/A"	"52,2/47,8"	"140/128"	268	stress_45	"POPTR_0003s01450.1"	838	"	"A/G"	"55,6/44,4"	"35/28"	63
controllo_3	"POPTR_0013s13190.1"	210	"	"A/G"	"52,2/47,8"	"118/108"	226	stress_12bis	"POPTR_0013s13190.1"	210	"	"G/A"	"62,0/38,0"	"57/35"	92
controllo_3	"POPTR_0013s13190.1"	210	"	"A/G"	"52,2/47,8"	"118/108"	226	stress_42	"POPTR_0013s13190.1"	210	"	"G/A"	"54,8/45,2"	"17/14"	31
controllo_3	"POPTR_0013s13190.1"	210	"	"A/G"	"52,2/47,8"	"118/108"	226	stress_45	"POPTR_0013s13190.1"	210	"	"G/A"	"59,4/40,6"	"19/13"	32
controllo_3	"POPTR_0014s15120.1"	501	"	"C/A"	"52,2/47,8"	"84/77"	161	stress_12bis	"POPTR_0014s15120.1"	501	"	"C/A"	"71,1/28,9"	"32/13"	45
controllo_3	"POPTR_0014s15120.1"	501	"	"C/A"	"52,2/47,8"	"84/77"	161	stress_42	"POPTR_0014s15120.1"	501	"	"A/C"	"52,0/48,0"	"13/12"	25
controllo_3	"POPTR_0014s15120.1"	501	"	"C/A"	"52,2/47,8"	"84/77"	161	stress_45	"POPTR_0014s15120.1"	501	"	"C/A"	"75,0/25,0"	"15/5"	20
controllo_3	"POPTR_0015s11640.1"	95	"	"A/C"	"52,2/47,8"	"351/321"	672	stress_12bis	"POPTR_0015s11640.1"	95	"	"C/A"	"50,7/48,8"	"108/104"	213
controllo_3	"POPTR_0015s11640.1"	95	"	"A/C"	"52,2/47,8"	"351/321"	672	stress_42	"POPTR_0015s11640.1"	95	"	"C/A"	"52,9/47,1"	"27/24"	51
controllo_3	"POPTR_0015s11640.1"	95	"	"A/C"	"52,2/47,8"	"351/321"	672	stress_45	"POPTR_0015s11640.1"	95	"	"A/C"	"58,5/41,5"	"103/73"	176
controllo_3	"POPTR_0001s31700.1"	960	"	"C/T"	"52,2/47,8"	"202/185"	387	stress_12bis	"POPTR_0001s31700.1"	960	"	"C/T"	"52,7/47,3"	"59/53"	112
controllo_3	"POPTR_0001s31700.1"	960	"	"C/T"	"52,2/47,8"	"202/185"	387	stress_42	"POPTR_0001s31700.1"	960	"	"C/T"	"59,4/40,6"	"85/58"	143
controllo_3	"POPTR_0001s31700.1"	960	"	"C/T"	"52,2/47,8"	"202/185"	387	stress_45	"POPTR_0001s31700.1"	960	"	"C/T"	"56,4/43,6"	"115/89"	204
controllo_3	"POPTR_0001s36560.1"	816	"	"T/C"	"52,2/47,8"	"268/245"	513	stress_12bis	"POPTR_0001s36560.1"	816	"	"T/C"	"50,7/49,3"	"72/70"	142
controllo_3	"POPTR_0001s36560.1"	816	"	"T/C"	"52,2/47,8"	"268/245"	513	stress_42	"POPTR_0001s36560.1"	816	"	"C/T"	"52,9/47,1"	"9/8"	17
controllo_3	"POPTR_0001s36560.1"	816	"	"T/C"	"52,2/47,8"	"268/245"	513	stress_45	"POPTR_0001s36560.1"	816	"	"C/T"	"50,0/50,0"	"25/25"	50
controllo_3	"POPTR_0001s38810.1"	402	"	"A/G"	"52,2/47,8"	"447/409"	856	stress_12bis	"POPTR_0001s38810.1"	402	"	"A/G"	"55,0/45,0"	"126/103"	229
controllo_3	"POPTR_0001s38810.1"	402	"	"A/G"	"52,2/47,8"	"447/409"	856	stress_42	"POPTR_0001s38810.1"	402	"	"G/A"	"59,2/40,8"	"193/133"	326
controllo_3	"POPTR_0001s38810.1"	402	"	"A/G"	"52,2/47,8"	"447/409"	856	stress_45	"POPTR_0001s38810.1"	402	"	"G/A"	"60,0/40,0"	"255/170"	425
controllo_3	"POPTR_0001s44870.1"	288	"	"A/C"	"52,2/47,8"	"121/111"	232	stress_12bis	"POPTR_0001s44870.1"	288	"	"A/C"	"51,7/48,3"	"15/14"	29
controllo_3	"POPTR_0001s44870.1"	288	"	"A/C"	"52,2/47,8"	"121/111"	232	stress_42	"POPTR_0001s44870.1"	288	"	"A/C"	"60,0/40,0"	"18/12"	30
controllo_3	"POPTR_0001s44870.1"	288	"	"A/C"	"52,2/47,8"	"121/111"	232	stress_45	"POPTR_0001s44870.1"	288	"	"A/C"	"66,7/33,3"	"28/14"	42
controllo_3	"POPTR_0001s47020.1"	2043	"	"A/C"	"52,2/47,8"	"119/109"	228	stress_12bis	"POPTR_0001s47020.1"	2043	"	"A/C"	"73,8/26,2"	"48/17"	65
controllo_3	"POPTR_0001s47020.1"	2043	"	"A/C"	"52,2/47,8"	"119/109"	228	stress_42	"POPTR_0001s47020.1"	2043	"	"A/C"	"51,8/47,1"	"44/40"	85
controllo_3	"POPTR_0001s47020.1"	2043	"	"A/C"	"52,2/47,8"	"119/109"	228	stress_45	"POPTR_0001s47020.1"	2043	"	"A/C"	"50,4/48,9"	"67/65"	133
controllo_3	"POPTR_0001s07870.1"	1908	"	"G/A"	"52,2/47,8"	"83/76"	159	stress_12bis	"POPTR_0001s07870.1"	1908	"	"G/A"	"75,0/25,0"	"21/7"	28
controllo_3	"POPTR_0001s07870.1"	1908	"	"G/A"	"52,2/47,8"	"83/76"	159	stress_42	"POPTR_0001s07870.1"	1908	"	"G/A"	"83,3/16,7"	"20/4"	24
controllo_3	"POPTR_0001s07870.1"	1908	"	"G/A"	"52,2/47,8"	"83/76"	159	stress_45	"POPTR_0001s07870.1"	1908	"	"G/A"	"79,0/21,0"	"49/13"	62
controllo_3	"POPTR_0001s25520.1"	582	"	"G/C"	"52,2/47,8"	"72/66"	138	stress_12bis	"POPTR_0001s25520.1"	582	"	"G/C"	"58,0/42,0"	"29/21"	50
controllo_3	"POPTR_0001s25520.1"	582	"	"G/C"	"52,2/47,8"	"72/66"	138	stress_42	"POPTR_0001s25520.1"	582	"	"C/G"	"59,6/40,4"	"28/19"	47
controllo_3	"POPTR_0001s25520.1"	582	"	"G/C"	"52,2/47,8"	"72/66"	138	stress_45	"POPTR_0001s25520.1"	582	"	"G/C"	"57,1/42,9"	"20/15"	35
controllo_3	"POPTR_0010s14080.1"	37	"	"G/A"	"52,2/47,8"	"71/65"	136	stress_12bis	"POPTR_0010s14080.1"	37	"	"G/A"	"59,1/40,9"	"26/18"	44
controllo_3	"POPTR_0010s14080.1"	37	"	"G/A"	"52,2/47,8"	"71/65"	136	stress_45	"POPTR_0010s14080.1"	37	"	"G/A"	"77,8/22,2"	"14/4"	18
controllo_3	"POPTR_0010s26200.1"	116	"	"C/A"	"52,2/47,8"	"176/161"	337	stress_12bis	"POPTR_0010s26200.1"	116	"	"C/A"	"56,3/43,7"	"71/55"	126
controllo_3	"POPTR_0010s26200.1"	116	"	"C/A"	"52,2/47,8"	"176/161"	337	stress_42	"POPTR_0010s26200.1"	116	"	"C/A"	"55,3/44,7"	"21/17"	38
controllo_3	"POPTR_0010s26200.1"	116	"	"C/A"	"52,2/47,8"	"176/161"	337	stress_45	"POPTR_0010s26200.1"	116	"	"C/A"	"76,5/23,5"	"26/8"	34
controllo_3	"POPTR_0007s13110.1"	372	"	"C/T"	"52,2/47,8"	"163/149"	312	stress_12bis	"POPTR_0007s13110.1"	372	"	"C/T"	"55,1/44,9"	"38/31"	69
controllo_3	"POPTR_0007s13110.1"	372	"	"C/T"	"52,2/47,8"	"163/149"	312	stress_42	"POPTR_0007s13110.1"	372	"	"C/T"	"60,3/39,7"	"47/31"	78
controllo_3	"POPTR_0007s13110.1"	372	"	"C/T"	"52,2/47,8"	"163/149"	312	stress_45	"POPTR_0007s13110.1"	372	"	"C/T"	"55,7/44,3"	"59/47"	106
controllo_3	"POPTR_0007s14280.1"	94	"	"T/C"	"52,2/47,8"	"72/66"	138	stress_12bis	"POPTR_0007s14280.1"	94	"	"C/T"	"53,3/46,7"	"16/14"	30
controllo_3	"POPTR_0007s14280.1"	94	"	"T/C"	"52,2/47,8"	"72/66"	138	stress_42	"POPTR_0007s14280.1"	94	"	"T/C"	"52,9/47,1"	"9/8"	17
controllo_3	"POPTR_0007s14280.1"	94	"	"T/C"	"52,2/47,8"	"72/66"	138	stress_45	"POPTR_0007s14280.1"	94	"	"T/C"	"60,0/40,0"	"18/12"	30
controllo_3	"POPTR_0002s16850.1"	414	"	"C/T"	"52,2/47,8"	"131/120"	251	stress_12bis	"POPTR_0002s16850.1"	414	"	"C/T"	"68,3/31,7"	"41/19"	60
controllo_3	"POPTR_0002s16850.1"	414	"	"C/T"	"52,2/47,8"	"131/120"	251	stress_42	"POPTR_0002s16850.1"	414	"	"C/T"	"68,0/32,0"	"17/8"	25
controllo_3	"POPTR_0002s16850.1"	414	"	"C/T"	"52,2/47,8"	"131/120"	251	stress_45	"POPTR_0002s16850.1"	414	"	"C/T"	"50,0/50,0"	"13/13"	26
controllo_3	"POPTR_0002s08010.1"	238	"	"T/C"	"52,2/47,8"	"83/76"	159	stress_12bis	"POPTR_0002s08010.1"	238	"	"T/C"	"52,0/48,0"	"13/12"	25
controllo_3	"POPTR_0002s08010.1"	238	"	"T/C"	"52,2/47,8"	"83/76"	159	stress_45	"POPTR_0002s08010.1"	238	"	"T/C"	"60,0/40,0"	"6/4"	10
controllo_3	"POPTR_0002s01080.1"	1428	"	"A/G"	"52,2/47,8"	"596/546"	1142	stress_12bis	"POPTR_0002s01080.1"	1428	"	"G/A"	"52,2/47,8"	"336/308"	644
controllo_3	"POPTR_0002s01080.1"	1428	"	"A/G"	"52,2/47,8"	"596/546"	1142	stress_42	"POPTR_0002s01080.1"	1428	"	"G/A"	"50,6/49,4"	"178/174"	352
controllo_3	"POPTR_0002s01080.1"	1428	"	"A/G"	"52,2/47,8"	"596/546"	1142	stress_45	"POPTR_0002s01080.1"	1428	"	"A/G"	"50,7/49,3"	"184/179"	363
controllo_3	"POPTR_0016s07220.1"	609	"	"A/G"	"52,2/47,8"	"60/55"	115	stress_12bis	"POPTR_0016s07220.1"	609	"	"A/G"	"63,2/36,8"	"12/7"	19
controllo_3	"POPTR_0016s07220.1"	609	"	"A/G"	"52,2/47,8"	"60/55"	115	stress_45	"POPTR_0016s07220.1"	609	"	"A/G"	"60,0/40,0"	"9/6"	15
controllo_3	"POPTR_0013s04210.1"	785	"	"C/T"	"52,3/47,0"	"69/62"	132	stress_12bis	"POPTR_0013s04210.1"	785	"	"C/T"	"66,7/33,3"	"18/9"	27
controllo_3	"POPTR_0013s04210.1"	785	"	"C/T"	"52,3/47,0"	"69/62"	132	stress_42	"POPTR_0013s04210.1"	785	"	"T/C"	"68,4/31,6"	"13/6"	19
controllo_3	"POPTR_0013s04210.1"	785	"	"C/T"	"52,3/47,0"	"69/62"	132	stress_45	"POPTR_0013s04210.1"	785	"	"C/T"	"56,0/44,0"	"14/11"	25
controllo_3	"POPTR_0001s47020.1"	1869	"	"T/G"	"52,3/47,4"	"150/136"	287	stress_12bis	"POPTR_0001s47020.1"	1869	"	"T/G"	"56,5/43,5"	"52/40"	92
controllo_3	"POPTR_0001s47020.1"	1869	"	"T/G"	"52,3/47,4"	"150/136"	287	stress_42	"POPTR_0001s47020.1"	1869	"	"T/G"	"59,6/40,4"	"53/36"	89
controllo_3	"POPTR_0001s47020.1"	1869	"	"T/G"	"52,3/47,4"	"150/136"	287	stress_45	"POPTR_0001s47020.1"	1869	"	"G/T"	"50,0/50,0"	"81/81"	162
controllo_3	"POPTR_0006s08530.1"	360	"	"C/T"	"52,3/47,6"	"1412/1286"	2699	stress_12bis	"POPTR_0006s08530.1"	360	"	"C/T"	"53,9/45,9"	"911/776"	1689
controllo_3	"POPTR_0006s08530.1"	360	"	"C/T"	"52,3/47,6"	"1412/1286"	2699	stress_42	"POPTR_0006s08530.1"	360	"	"C/T"	"69,6/30,2"	"1341/582"	1927
controllo_3	"POPTR_0006s08530.1"	360	"	"C/T"	"52,3/47,6"	"1412/1286"	2699	stress_45	"POPTR_0006s08530.1"	360	"	"C/T"	"68,4/31,6"	"1407/649"	2057
controllo_3	"POPTR_0017s07800.1"	131	"	"A/G"	"52,3/47,7"	"68/62"	130	stress_12bis	"POPTR_0017s07800.1"	131	"	"G/A"	"60,0/40,0"	"24/16"	40
controllo_3	"POPTR_0017s07800.1"	131	"	"A/G"	"52,3/47,7"	"68/62"	130	stress_42	"POPTR_0017s07800.1"	131	"	"G/A"	"72,7/27,3"	"8/3"	11
controllo_3	"POPTR_0006s20440.1"	564	"	"A/C"	"52,3/47,7"	"58/53"	111	stress_12bis	"POPTR_0006s20440.1"	564	"	"A/C"	"61,0/39,0"	"25/16"	41
controllo_3	"POPTR_0006s20440.1"	564	"	"A/C"	"52,3/47,7"	"58/53"	111	stress_42	"POPTR_0006s20440.1"	564	"	"C/A"	"54,5/45,5"	"12/10"	22
controllo_3	"POPTR_0006s20440.1"	564	"	"A/C"	"52,3/47,7"	"58/53"	111	stress_45	"POPTR_0006s20440.1"	564	"	"A/C"	"67,9/32,1"	"19/9"	28
controllo_3	"POPTR_0006s08750.1"	212	"	"G/T"	"52,3/47,7"	"57/52"	109	stress_12bis	"POPTR_0006s08750.1"	212	"	"G/T"	"60,7/39,3"	"51/33"	84
controllo_3	"POPTR_0006s08750.1"	212	"	"G/T"	"52,3/47,7"	"57/52"	109	stress_42	"POPTR_0006s08750.1"	212	"	"G/T"	"53,8/46,2"	"14/12"	26
controllo_3	"POPTR_0006s08750.1"	212	"	"G/T"	"52,3/47,7"	"57/52"	109	stress_45	"POPTR_0006s08750.1"	212	"	"G/T"	"62,1/37,9"	"18/11"	29
controllo_3	"POPTR_0006s10080.1"	347	"	"A/T"	"52,3/47,7"	"115/105"	220	stress_12bis	"POPTR_0006s10080.1"	347	"	"T/A"	"55,1/44,9"	"49/40"	89
controllo_3	"POPTR_0006s10080.1"	347	"	"A/T"	"52,3/47,7"	"115/105"	220	stress_42	"POPTR_0006s10080.1"	347	"	"A/T"	"51,5/48,5"	"17/16"	33
controllo_3	"POPTR_0006s10080.1"	347	"	"A/T"	"52,3/47,7"	"115/105"	220	stress_45	"POPTR_0006s10080.1"	347	"	"A/T"	"51,7/48,3"	"106/99"	205
controllo_3	"POPTR_0006s10080.1"	1024	"	"T/C"	"52,3/47,7"	"91/83"	174	stress_12bis	"POPTR_0006s10080.1"	1024	"	"C/T"	"51,8/48,2"	"44/41"	85
controllo_3	"POPTR_0006s10080.1"	1024	"	"T/C"	"52,3/47,7"	"91/83"	174	stress_42	"POPTR_0006s10080.1"	1024	"	"C/T"	"62,3/37,7"	"33/20"	53
controllo_3	"POPTR_0006s10080.1"	1024	"	"T/C"	"52,3/47,7"	"91/83"	174	stress_45	"POPTR_0006s10080.1"	1024	"	"C/T"	"58,7/41,3"	"111/78"	189
controllo_3	"POPTR_0006s04960.1"	1866	"	"A/G"	"52,3/47,7"	"147/134"	281	stress_12bis	"POPTR_0006s04960.1"	1866	"	"G/A"	"56,9/43,1"	"33/25"	58
controllo_3	"POPTR_0006s04960.1"	1866	"	"A/G"	"52,3/47,7"	"147/134"	281	stress_42	"POPTR_0006s04960.1"	1866	"	"G/A"	"61,1/38,9"	"11/7"	18
controllo_3	"POPTR_0006s04960.1"	1866	"	"A/G"	"52,3/47,7"	"147/134"	281	stress_45	"POPTR_0006s04960.1"	1866	"	"G/A"	"53,8/46,2"	"14/12"	26
controllo_3	"POPTR_0006s03660.1"	4044	"	"C/T"	"52,3/47,7"	"116/106"	222	stress_12bis	"POPTR_0006s03660.1"	4044	"	"C/T"	"69,8/30,2"	"37/16"	53
controllo_3	"POPTR_0006s03660.1"	4044	"	"C/T"	"52,3/47,7"	"116/106"	222	stress_42	"POPTR_0006s03660.1"	4044	"	"C/T"	"63,6/36,4"	"14/8"	22
controllo_3	"POPTR_0006s03660.1"	4044	"	"C/T"	"52,3/47,7"	"116/106"	222	stress_45	"POPTR_0006s03660.1"	4044	"	"C/T"	"59,3/40,7"	"32/22"	54
controllo_3	"POPTR_0006s00620.1"	1210	"	"T/G"	"52,3/47,7"	"69/63"	132	stress_12bis	"POPTR_0006s00620.1"	1210	"	"T/G"	"77,4/22,6"	"24/7"	31
controllo_3	"POPTR_0003s05110.1"	240	"	"A/T"	"52,3/47,7"	"800/730"	1531	stress_12bis	"POPTR_0003s05110.1"	240	"	"A/T"	"51,0/49,0"	"274/263"	537
controllo_3	"POPTR_0003s05110.1"	240	"	"A/T"	"52,3/47,7"	"800/730"	1531	stress_42	"POPTR_0003s05110.1"	240	"	"A/T"	"63,8/36,2"	"104/59"	163
controllo_3	"POPTR_0003s05110.1"	240	"	"A/T"	"52,3/47,7"	"800/730"	1531	stress_45	"POPTR_0003s05110.1"	240	"	"A/T"	"63,0/37,0"	"87/51"	138
controllo_3	"POPTR_0003s20840.1"	1015	"	"G/C"	"52,3/47,7"	"45/41"	86	stress_12bis	"POPTR_0003s20840.1"	1015	"	"C/G"	"51,7/48,3"	"61/57"	118
controllo_3	"POPTR_0003s14170.1"	666	"	"G/T"	"52,3/47,7"	"147/134"	281	stress_12bis	"POPTR_0003s14170.1"	666	"	"T/G"	"54,1/45,9"	"20/17"	37
controllo_3	"POPTR_0003s14170.1"	666	"	"G/T"	"52,3/47,7"	"147/134"	281	stress_45	"POPTR_0003s14170.1"	666	"	"T/G"	"60,0/40,0"	"12/8"	20
controllo_3	"POPTR_0019s05540.1"	318	"	"T/A"	"52,3/47,7"	"69/63"	132	stress_12bis	"POPTR_0019s05540.1"	318	"	"T/A"	"51,4/48,6"	"18/17"	35
controllo_3	"POPTR_0019s05540.1"	318	"	"T/A"	"52,3/47,7"	"69/63"	132	stress_42	"POPTR_0019s05540.1"	318	"	"A/T"	"56,5/43,5"	"26/20"	46
controllo_3	"POPTR_0019s05540.1"	318	"	"T/A"	"52,3/47,7"	"69/63"	132	stress_45	"POPTR_0019s05540.1"	318	"	"A/T"	"52,8/47,2"	"28/25"	53
controllo_3	"POPTR_0013s07150.1"	839	"	"C/T"	"52,3/47,7"	"68/62"	130	stress_12bis	"POPTR_0013s07150.1"	839	"	"C/T"	"60,0/40,0"	"18/12"	30
controllo_3	"POPTR_0013s07150.1"	839	"	"C/T"	"52,3/47,7"	"68/62"	130	stress_42	"POPTR_0013s07150.1"	839	"	"T/C"	"60,0/40,0"	"6/4"	10
controllo_3	"POPTR_0013s07150.1"	839	"	"C/T"	"52,3/47,7"	"68/62"	130	stress_45	"POPTR_0013s07150.1"	839	"	"T/C"	"56,5/43,5"	"13/10"	23
controllo_3	"POPTR_0014s13430.1"	739	"	"A/G"	"52,3/47,7"	"92/84"	176	stress_12bis	"POPTR_0014s13430.1"	739	"	"A/G"	"72,2/27,8"	"39/15"	54
controllo_3	"POPTR_0014s13430.1"	739	"	"A/G"	"52,3/47,7"	"92/84"	176	stress_42	"POPTR_0014s13430.1"	739	"	"G/A"	"53,8/46,2"	"7/6"	13
controllo_3	"POPTR_0009s07030.1"	273	"	"G/T"	"52,3/47,7"	"67/61"	128	stress_12bis	"POPTR_0009s07030.1"	273	"	"G/T"	"63,8/36,2"	"37/21"	58
controllo_3	"POPTR_0009s07030.1"	273	"	"G/T"	"52,3/47,7"	"67/61"	128	stress_42	"POPTR_0009s07030.1"	273	"	"G/T"	"66,7/33,3"	"16/8"	24
controllo_3	"POPTR_0009s07030.1"	273	"	"G/T"	"52,3/47,7"	"67/61"	128	stress_45	"POPTR_0009s07030.1"	273	"	"G/T"	"72,0/28,0"	"18/7"	25
controllo_3	"POPTR_0009s01470.1"	90	"	"C/G"	"52,3/47,7"	"102/93"	195	stress_12bis	"POPTR_0009s01470.1"	90	"	"C/G"	"64,0/36,0"	"32/18"	50
controllo_3	"POPTR_0009s01470.1"	90	"	"C/G"	"52,3/47,7"	"102/93"	195	stress_42	"POPTR_0009s01470.1"	90	"	"C/G"	"50,0/50,0"	"11/11"	22
controllo_3	"POPTR_0009s01470.1"	90	"	"C/G"	"52,3/47,7"	"102/93"	195	stress_45	"POPTR_0009s01470.1"	90	"	"C/G"	"59,5/40,5"	"22/15"	37
controllo_3	"POPTR_0012s07040.1"	381	"	"G/A"	"52,3/47,7"	"219/200"	419	stress_12bis	"POPTR_0012s07040.1"	381	"	"G/A"	"55,4/44,6"	"67/54"	121
controllo_3	"POPTR_0012s07040.1"	381	"	"G/A"	"52,3/47,7"	"219/200"	419	stress_42	"POPTR_0012s07040.1"	381	"	"G/A"	"54,2/45,8"	"13/11"	24
controllo_3	"POPTR_0012s07040.1"	381	"	"G/A"	"52,3/47,7"	"219/200"	419	stress_45	"POPTR_0012s07040.1"	381	"	"A/G"	"51,6/48,4"	"16/15"	31
controllo_3	"POPTR_0011s05670.1"	1050	"	"C/T"	"52,3/47,7"	"58/53"	111	stress_12bis	"POPTR_0011s05670.1"	1050	"	"C/T"	"50,0/50,0"	"18/18"	36
controllo_3	"POPTR_0011s05670.1"	1050	"	"C/T"	"52,3/47,7"	"58/53"	111	stress_42	"POPTR_0011s05670.1"	1050	"	"T/C"	"72,2/27,8"	"13/5"	18
controllo_3	"POPTR_0011s05670.1"	1050	"	"C/T"	"52,3/47,7"	"58/53"	111	stress_45	"POPTR_0011s05670.1"	1050	"	"T/C"	"75,9/24,1"	"22/7"	29
controllo_3	"POPTR_0011s14150.1"	276	"	"A/C"	"52,3/47,7"	"56/51"	107	stress_12bis	"POPTR_0011s14150.1"	276	"	"A/C"	"50,0/50,0"	"22/22"	44
controllo_3	"POPTR_0011s14150.1"	276	"	"A/C"	"52,3/47,7"	"56/51"	107	stress_42	"POPTR_0011s14150.1"	276	"	"A/C"	"58,1/41,9"	"18/13"	31
controllo_3	"POPTR_0011s14150.1"	276	"	"A/C"	"52,3/47,7"	"56/51"	107	stress_45	"POPTR_0011s14150.1"	276	"	"A/C"	"55,1/44,9"	"27/22"	49
controllo_3	"POPTR_0015s07640.1"	866	"	"A/T"	"52,3/47,7"	"56/51"	107	stress_12bis	"POPTR_0015s07640.1"	866	"	"T/A"	"62,2/37,8"	"28/17"	45
controllo_3	"POPTR_0015s07640.1"	866	"	"A/T"	"52,3/47,7"	"56/51"	107	stress_42	"POPTR_0015s07640.1"	866	"	"T/A"	"51,7/48,3"	"30/28"	58
controllo_3	"POPTR_0015s07640.1"	866	"	"A/T"	"52,3/47,7"	"56/51"	107	stress_45	"POPTR_0015s07640.1"	866	"	"A/T"	"50,0/50,0"	"31/31"	62
controllo_3	"POPTR_0015s04810.1"	175	"	"A/T"	"52,3/47,7"	"56/51"	107	stress_12bis	"POPTR_0015s04810.1"	175	"	"A/T"	"75,0/25,0"	"21/7"	28
controllo_3	"POPTR_0001s37480.1"	328	"	"G/A"	"52,3/47,7"	"135/123"	258	stress_12bis	"POPTR_0001s37480.1"	328	"	"G/A"	"56,5/43,5"	"35/27"	62
controllo_3	"POPTR_0001s37480.1"	328	"	"G/A"	"52,3/47,7"	"135/123"	258	stress_42	"POPTR_0001s37480.1"	328	"	"G/A"	"63,9/36,1"	"23/13"	36
controllo_3	"POPTR_0001s37480.1"	328	"	"G/A"	"52,3/47,7"	"135/123"	258	stress_45	"POPTR_0001s37480.1"	328	"	"A/G"	"50,5/49,5"	"56/55"	111
controllo_3	"POPTR_0001s40250.1"	2370	"	"C/G"	"52,3/47,7"	"45/41"	86	stress_45	"POPTR_0001s40250.1"	2370	"	"G/C"	"76,0/24,0"	"152/48"	200
controllo_3	"POPTR_0001s14310.1"	84	"	"G/A"	"52,3/47,7"	"134/122"	256	stress_12bis	"POPTR_0001s14310.1"	84	"	"G/A"	"64,0/36,0"	"16/9"	25
controllo_3	"POPTR_0001s14310.1"	84	"	"G/A"	"52,3/47,7"	"134/122"	256	stress_42	"POPTR_0001s14310.1"	84	"	"G/A"	"58,6/41,4"	"17/12"	29
controllo_3	"POPTR_0001s14310.1"	84	"	"G/A"	"52,3/47,7"	"134/122"	256	stress_45	"POPTR_0001s14310.1"	84	"	"A/G"	"50,0/50,0"	"76/76"	152
controllo_3	"POPTR_0001s14310.1"	774	"	"T/A"	"52,3/47,7"	"79/72"	151	stress_42	"POPTR_0001s14310.1"	774	"	"A/T"	"54,5/45,5"	"12/10"	22
controllo_3	"POPTR_0001s14310.1"	774	"	"T/A"	"52,3/47,7"	"79/72"	151	stress_45	"POPTR_0001s14310.1"	774	"	"T/A"	"66,2/33,8"	"53/27"	80
controllo_3	"POPTR_0001s47020.1"	1757	"	"A/G"	"52,3/47,7"	"190/173"	363	stress_12bis	"POPTR_0001s47020.1"	1757	"	"A/G"	"51,9/48,1"	"56/52"	108
controllo_3	"POPTR_0001s47020.1"	1757	"	"A/G"	"52,3/47,7"	"190/173"	363	stress_42	"POPTR_0001s47020.1"	1757	"	"G/A"	"56,4/43,6"	"53/41"	94
controllo_3	"POPTR_0001s47020.1"	1757	"	"A/G"	"52,3/47,7"	"190/173"	363	stress_45	"POPTR_0001s47020.1"	1757	"	"G/A"	"54,6/45,4"	"95/79"	174
controllo_3	"POPTR_0001s44140.1"	129	"	"T/A"	"52,3/47,7"	"57/52"	109	stress_12bis	"POPTR_0001s44140.1"	129	"	"T/A"	"63,6/36,4"	"21/12"	33
controllo_3	"POPTR_0001s44140.1"	129	"	"T/A"	"52,3/47,7"	"57/52"	109	stress_42	"POPTR_0001s44140.1"	129	"	"T/A"	"68,4/31,6"	"26/12"	38
controllo_3	"POPTR_0001s44140.1"	129	"	"T/A"	"52,3/47,7"	"57/52"	109	stress_45	"POPTR_0001s44140.1"	129	"	"T/A"	"74,4/25,6"	"29/10"	39
controllo_3	"POPTR_0001s07870.1"	1683	"	"A/G"	"52,3/47,7"	"81/74"	155	stress_12bis	"POPTR_0001s07870.1"	1683	"	"A/G"	"68,8/31,2"	"11/5"	16
controllo_3	"POPTR_0001s07870.1"	1683	"	"A/G"	"52,3/47,7"	"81/74"	155	stress_45	"POPTR_0001s07870.1"	1683	"	"A/G"	"82,6/17,4"	"38/8"	46
controllo_3	"POPTR_0001s21140.1"	518	"	"G/A"	"52,3/47,7"	"228/208"	436	stress_12bis	"POPTR_0001s21140.1"	518	"	"A/G"	"54,3/45,7"	"88/74"	162
controllo_3	"POPTR_0001s21140.1"	518	"	"G/A"	"52,3/47,7"	"228/208"	436	stress_42	"POPTR_0001s21140.1"	518	"	"G/A"	"65,9/34,1"	"27/14"	41
controllo_3	"POPTR_0001s21140.1"	518	"	"G/A"	"52,3/47,7"	"228/208"	436	stress_45	"POPTR_0001s21140.1"	518	"	"G/A"	"57,6/42,4"	"19/14"	33
controllo_3	"POPTR_0010s07730.1"	120	"	"A/C"	"52,3/47,7"	"352/321"	673	stress_12bis	"POPTR_0010s07730.1"	120	"	"C/A"	"54,2/45,8"	"154/130"	284
controllo_3	"POPTR_0010s07730.1"	120	"	"A/C"	"52,3/47,7"	"352/321"	673	stress_42	"POPTR_0010s07730.1"	120	"	"A/C"	"54,8/45,2"	"51/42"	93
controllo_3	"POPTR_0010s07730.1"	120	"	"A/C"	"52,3/47,7"	"352/321"	673	stress_45	"POPTR_0010s07730.1"	120	"	"C/A"	"58,0/42,0"	"47/34"	81
controllo_3	"POPTR_0010s12050.1"	56	"	"G/A"	"52,3/47,7"	"179/163"	342	stress_12bis	"POPTR_0010s12050.1"	56	"	"G/A"	"59,8/40,2"	"61/41"	102
controllo_3	"POPTR_0010s12050.1"	56	"	"G/A"	"52,3/47,7"	"179/163"	342	stress_42	"POPTR_0010s12050.1"	56	"	"G/A"	"74,2/25,8"	"23/8"	31
controllo_3	"POPTR_0010s12050.1"	56	"	"G/A"	"52,3/47,7"	"179/163"	342	stress_45	"POPTR_0010s12050.1"	56	"	"G/A"	"66,7/33,3"	"20/10"	30
controllo_3	"POPTR_0010s19860.1"	294	"	"C/T"	"52,3/47,7"	"56/51"	107	stress_12bis	"POPTR_0010s19860.1"	294	"	"T/C"	"56,0/44,0"	"28/22"	50
controllo_3	"POPTR_0010s19860.1"	294	"	"C/T"	"52,3/47,7"	"56/51"	107	stress_42	"POPTR_0010s19860.1"	294	"	"C/T"	"64,2/35,8"	"34/19"	53
controllo_3	"POPTR_0010s19860.1"	294	"	"C/T"	"52,3/47,7"	"56/51"	107	stress_45	"POPTR_0010s19860.1"	294	"	"C/T"	"50,0/50,0"	"55/55"	110
controllo_3	"POPTR_0007s05810.1"	237	"	"A/G"	"52,3/47,7"	"116/106"	222	stress_12bis	"POPTR_0007s05810.1"	237	"	"A/G"	"56,4/43,6"	"22/17"	39
controllo_3	"POPTR_0007s05810.1"	237	"	"A/G"	"52,3/47,7"	"116/106"	222	stress_42	"POPTR_0007s05810.1"	237	"	"G/A"	"71,7/28,3"	"43/17"	60
controllo_3	"POPTR_0007s05810.1"	237	"	"A/G"	"52,3/47,7"	"116/106"	222	stress_45	"POPTR_0007s05810.1"	237	"	"G/A"	"58,5/41,5"	"55/39"	94
controllo_3	"POPTR_0002s25170.1"	279	"	"T/C"	"52,3/47,7"	"102/93"	195	stress_12bis	"POPTR_0002s25170.1"	279	"	"C/T"	"50,7/49,3"	"36/35"	71
controllo_3	"POPTR_0002s25170.1"	279	"	"T/C"	"52,3/47,7"	"102/93"	195	stress_42	"POPTR_0002s25170.1"	279	"	"T/C"	"51,7/48,3"	"30/28"	58
controllo_3	"POPTR_0002s25170.1"	279	"	"T/C"	"52,3/47,7"	"102/93"	195	stress_45	"POPTR_0002s25170.1"	279	"	"T/C"	"58,5/41,5"	"62/44"	106
controllo_3	"POPTR_0002s05780.1"	151	"	"T/C"	"52,3/47,7"	"56/51"	107	stress_12bis	"POPTR_0002s05780.1"	151	"	"C/T"	"50,0/50,0"	"6/6"	12
controllo_3	"POPTR_0002s05780.1"	151	"	"T/C"	"52,3/47,7"	"56/51"	107	stress_42	"POPTR_0002s05780.1"	151	"	"C/T"	"54,5/45,5"	"6/5"	11
controllo_3	"POPTR_0002s05780.1"	151	"	"T/C"	"52,3/47,7"	"56/51"	107	stress_45	"POPTR_0002s05780.1"	151	"	"T/C"	"61,5/38,5"	"8/5"	13
controllo_3	"POPTR_0002s26190.1"	957	"	"C/T"	"52,3/47,7"	"57/52"	109	stress_12bis	"POPTR_0002s26190.1"	957	"	"C/T"	"73,3/26,7"	"11/4"	15
controllo_3	"POPTR_0002s26190.1"	957	"	"C/T"	"52,3/47,7"	"57/52"	109	stress_42	"POPTR_0002s26190.1"	957	"	"C/T"	"82,4/17,6"	"14/3"	17
controllo_3	"POPTR_0002s21340.1"	117	"	"A/C"	"52,3/47,7"	"57/52"	109	stress_12bis	"POPTR_0002s21340.1"	117	"	"A/C"	"59,1/40,9"	"26/18"	44
controllo_3	"POPTR_0002s21340.1"	117	"	"A/C"	"52,3/47,7"	"57/52"	109	stress_42	"POPTR_0002s21340.1"	117	"	"A/C"	"54,1/45,9"	"20/17"	37
controllo_3	"POPTR_0002s21340.1"	117	"	"A/C"	"52,3/47,7"	"57/52"	109	stress_45	"POPTR_0002s21340.1"	117	"	"A/C"	"57,9/42,1"	"44/32"	76
controllo_3	"POPTR_0002s21340.1"	1455	"	"T/C"	"52,3/47,7"	"57/52"	109	stress_12bis	"POPTR_0002s21340.1"	1455	"	"T/C"	"61,9/38,1"	"26/16"	42
controllo_3	"POPTR_0002s21340.1"	1455	"	"T/C"	"52,3/47,7"	"57/52"	109	stress_42	"POPTR_0002s21340.1"	1455	"	"T/C"	"51,5/48,5"	"34/32"	66
controllo_3	"POPTR_0002s21340.1"	1455	"	"T/C"	"52,3/47,7"	"57/52"	109	stress_45	"POPTR_0002s21340.1"	1455	"	"T/C"	"55,7/44,3"	"54/43"	97
controllo_3	"POPTR_0002s01080.1"	1299	"	"A/G"	"52,3/47,7"	"670/611"	1282	stress_12bis	"POPTR_0002s01080.1"	1299	"	"G/A"	"51,9/48,1"	"340/315"	655
controllo_3	"POPTR_0002s01080.1"	1299	"	"A/G"	"52,3/47,7"	"670/611"	1282	stress_42	"POPTR_0002s01080.1"	1299	"	"A/G"	"50,1/49,9"	"178/177"	355
controllo_3	"POPTR_0002s01080.1"	1299	"	"A/G"	"52,3/47,7"	"670/611"	1282	stress_45	"POPTR_0002s01080.1"	1299	"	"A/G"	"51,9/48,1"	"200/185"	385
controllo_3	"POPTR_0008s15930.1"	852	"	"G/A"	"52,3/47,7"	"57/52"	109	stress_12bis	"POPTR_0008s15930.1"	852	"	"G/A"	"56,5/43,5"	"13/10"	23
controllo_3	"POPTR_0008s15930.1"	852	"	"G/A"	"52,3/47,7"	"57/52"	109	stress_45	"POPTR_0008s15930.1"	852	"	"A/G"	"72,0/28,0"	"36/14"	50
controllo_3	"POPTR_0008s01960.1"	1042	"	"C/T"	"52,3/47,7"	"57/52"	109	stress_12bis	"POPTR_0008s01960.1"	1042	"	"C/T"	"55,3/44,7"	"26/21"	47
controllo_3	"POPTR_0008s01960.1"	1042	"	"C/T"	"52,3/47,7"	"57/52"	109	stress_42	"POPTR_0008s01960.1"	1042	"	"T/C"	"61,8/38,2"	"21/13"	34
controllo_3	"POPTR_0008s01960.1"	1042	"	"C/T"	"52,3/47,7"	"57/52"	109	stress_45	"POPTR_0008s01960.1"	1042	"	"C/T"	"63,3/36,7"	"19/11"	30
controllo_3	"POPTR_0016s10780.1"	108	"	"T/C"	"52,3/47,7"	"101/92"	193	stress_12bis	"POPTR_0016s10780.1"	108	"	"C/T"	"68,4/31,6"	"13/6"	19
controllo_3	"POPTR_0016s10780.1"	108	"	"T/C"	"52,3/47,7"	"101/92"	193	stress_45	"POPTR_0016s10780.1"	108	"	"C/T"	"50,0/50,0"	"5/5"	10
controllo_3	"POPTR_0018s01420.1"	444	"	"G/A"	"52,4/46,5"	"89/79"	170	stress_12bis	"POPTR_0018s01420.1"	444	"	"G/A"	"60,8/39,2"	"48/31"	79
controllo_3	"POPTR_0018s01420.1"	444	"	"G/A"	"52,4/46,5"	"89/79"	170	stress_42	"POPTR_0018s01420.1"	444	"	"G/A"	"53,4/46,6"	"47/41"	88
controllo_3	"POPTR_0018s01420.1"	444	"	"G/A"	"52,4/46,5"	"89/79"	170	stress_45	"POPTR_0018s01420.1"	444	"	"G/A"	"52,3/47,7"	"56/51"	107
controllo_3	"POPTR_0002s02310.1"	330	"	"T/C"	"52,4/46,8"	"121/108"	231	stress_12bis	"POPTR_0002s02310.1"	330	"	"T/C"	"50,8/49,2"	"30/29"	59
controllo_3	"POPTR_0002s02310.1"	330	"	"T/C"	"52,4/46,8"	"121/108"	231	stress_42	"POPTR_0002s02310.1"	330	"	"C/T"	"57,3/42,7"	"43/32"	75
controllo_3	"POPTR_0002s02310.1"	330	"	"T/C"	"52,4/46,8"	"121/108"	231	stress_45	"POPTR_0002s02310.1"	330	"	"T/C"	"51,8/45,9"	"44/39"	85
controllo_3	"POPTR_0004s23490.1"	972	"	"C/T"	"52,4/47,1"	"98/88"	187	stress_12bis	"POPTR_0004s23490.1"	972	"	"C/T"	"66,0/34,0"	"35/18"	53
controllo_3	"POPTR_0004s23490.1"	972	"	"C/T"	"52,4/47,1"	"98/88"	187	stress_42	"POPTR_0004s23490.1"	972	"	"C/T"	"62,5/37,5"	"35/21"	56
controllo_3	"POPTR_0004s23490.1"	972	"	"C/T"	"52,4/47,1"	"98/88"	187	stress_45	"POPTR_0004s23490.1"	972	"	"C/T"	"50,6/49,4"	"45/44"	89
controllo_3	"POPTR_0001s36700.1"	758	"	"A/C"	"52,4/47,1"	"100/90"	191	stress_12bis	"POPTR_0001s36700.1"	758	"	"A/C"	"61,8/38,2"	"42/26"	68
controllo_3	"POPTR_0001s36700.1"	758	"	"A/C"	"52,4/47,1"	"100/90"	191	stress_42	"POPTR_0001s36700.1"	758	"	"C/A"	"53,1/46,9"	"26/23"	49
controllo_3	"POPTR_0001s36700.1"	758	"	"A/C"	"52,4/47,1"	"100/90"	191	stress_45	"POPTR_0001s36700.1"	758	"	"C/A"	"65,9/34,1"	"58/30"	88
controllo_3	"POPTR_0010s21280.1"	405	"	"T/C"	"52,4/47,1"	"98/88"	187	stress_12bis	"POPTR_0010s21280.1"	405	"	"T/C"	"74,2/25,8"	"49/17"	66
controllo_3	"POPTR_0010s21280.1"	405	"	"T/C"	"52,4/47,1"	"98/88"	187	stress_42	"POPTR_0010s21280.1"	405	"	"T/C"	"61,1/38,9"	"11/7"	18
controllo_3	"POPTR_0010s21280.1"	405	"	"T/C"	"52,4/47,1"	"98/88"	187	stress_45	"POPTR_0010s21280.1"	405	"	"T/C"	"55,3/44,7"	"21/17"	38
controllo_3	"POPTR_0016s07280.1"	468	"	"C/T"	"52,4/47,1"	"98/88"	187	stress_12bis	"POPTR_0016s07280.1"	468	"	"C/T"	"63,3/36,7"	"31/18"	49
controllo_3	"POPTR_0016s07280.1"	468	"	"C/T"	"52,4/47,1"	"98/88"	187	stress_42	"POPTR_0016s07280.1"	468	"	"C/T"	"55,6/44,4"	"10/8"	18
controllo_3	"POPTR_0016s07280.1"	468	"	"C/T"	"52,4/47,1"	"98/88"	187	stress_45	"POPTR_0016s07280.1"	468	"	"C/T"	"54,2/41,7"	"13/10"	24
controllo_3	"POPTR_0011s12440.1"	138	"	"A/T"	"52,4/47,3"	"163/147"	311	stress_12bis	"POPTR_0011s12440.1"	138	"	"A/T"	"60,0/39,4"	"99/65"	165
controllo_3	"POPTR_0011s12440.1"	138	"	"A/T"	"52,4/47,3"	"163/147"	311	stress_42	"POPTR_0011s12440.1"	138	"	"A/T"	"58,3/41,7"	"14/10"	24
controllo_3	"POPTR_0011s12440.1"	138	"	"A/T"	"52,4/47,3"	"163/147"	311	stress_45	"POPTR_0011s12440.1"	138	"	"T/A"	"59,5/40,5"	"25/17"	42
controllo_3	"POPTR_0001s40700.1"	348	"	"G/T"	"52,4/47,3"	"153/138"	292	stress_12bis	"POPTR_0001s40700.1"	348	"	"T/G"	"59,8/38,1"	"58/37"	97
controllo_3	"POPTR_0001s40700.1"	348	"	"G/T"	"52,4/47,3"	"153/138"	292	stress_42	"POPTR_0001s40700.1"	348	"	"T/G"	"69,6/30,4"	"39/17"	56
controllo_3	"POPTR_0001s40700.1"	348	"	"G/T"	"52,4/47,3"	"153/138"	292	stress_45	"POPTR_0001s40700.1"	348	"	"T/G"	"65,9/34,1"	"54/28"	82
controllo_3	"POPTR_0005s13860.1"	674	"	"A/G"	"52,4/47,6"	"484/440"	924	stress_12bis	"POPTR_0005s13860.1"	674	"	"G/A"	"54,1/45,9"	"126/107"	233
controllo_3	"POPTR_0005s13860.1"	674	"	"A/G"	"52,4/47,6"	"484/440"	924	stress_42	"POPTR_0005s13860.1"	674	"	"G/A"	"55,1/44,9"	"38/31"	69
controllo_3	"POPTR_0005s13860.1"	674	"	"A/G"	"52,4/47,6"	"484/440"	924	stress_45	"POPTR_0005s13860.1"	674	"	"G/A"	"61,4/38,6"	"51/32"	83
controllo_3	"POPTR_0005s26740.1"	237	"	"A/C"	"52,4/47,6"	"538/488"	1026	stress_12bis	"POPTR_0005s26740.1"	237	"	"C/A"	"55,8/44,2"	"153/121"	274
controllo_3	"POPTR_0005s26740.1"	237	"	"A/C"	"52,4/47,6"	"538/488"	1026	stress_42	"POPTR_0005s26740.1"	237	"	"C/A"	"63,3/36,7"	"119/69"	188
controllo_3	"POPTR_0005s26740.1"	237	"	"A/C"	"52,4/47,6"	"538/488"	1026	stress_45	"POPTR_0005s26740.1"	237	"	"C/A"	"58,4/41,6"	"125/89"	214
controllo_3	"POPTR_0017s08610.1"	1162	"	"C/A"	"52,4/47,6"	"77/70"	147	stress_12bis	"POPTR_0017s08610.1"	1162	"	"A/C"	"53,8/46,2"	"7/6"	13
controllo_3	"POPTR_0017s08610.1"	1162	"	"C/A"	"52,4/47,6"	"77/70"	147	stress_42	"POPTR_0017s08610.1"	1162	"	"C/A"	"72,4/27,6"	"123/47"	170
controllo_3	"POPTR_0017s08610.1"	1162	"	"C/A"	"52,4/47,6"	"77/70"	147	stress_45	"POPTR_0017s08610.1"	1162	"	"C/A"	"71,1/28,9"	"207/84"	291
controllo_3	"POPTR_0017s12590.1"	807	"	"T/C"	"52,4/47,6"	"66/60"	126	stress_12bis	"POPTR_0017s12590.1"	807	"	"T/C"	"57,1/42,9"	"20/15"	35
controllo_3	"POPTR_0006s14400.1"	825	"	"A/G"	"52,4/47,6"	"1073/975"	2048	stress_12bis	"POPTR_0006s14400.1"	825	"	"A/G"	"52,2/47,8"	"273/250"	523
controllo_3	"POPTR_0006s14400.1"	825	"	"A/G"	"52,4/47,6"	"1073/975"	2048	stress_42	"POPTR_0006s14400.1"	825	"	"G/A"	"78,3/21,7"	"902/250"	1152
controllo_3	"POPTR_0006s14400.1"	825	"	"A/G"	"52,4/47,6"	"1073/975"	2048	stress_45	"POPTR_0006s14400.1"	825	"	"G/A"	"77,9/22,1"	"1112/316"	1428
controllo_3	"POPTR_0006s08530.1"	192	"	"C/T"	"52,4/47,6"	"3046/2766"	5812	stress_12bis	"POPTR_0006s08530.1"	192	"	"C/T"	"52,0/48,0"	"1942/1791"	3733
controllo_3	"POPTR_0006s08530.1"	192	"	"C/T"	"52,4/47,6"	"3046/2766"	5812	stress_42	"POPTR_0006s08530.1"	192	"	"C/T"	"69,1/30,9"	"2751/1233"	3984
controllo_3	"POPTR_0006s08530.1"	192	"	"C/T"	"52,4/47,6"	"3046/2766"	5812	stress_45	"POPTR_0006s08530.1"	192	"	"C/T"	"65,0/35,0"	"2616/1406"	4022
controllo_3	"POPTR_0006s04960.1"	831	"	"T/C"	"52,4/47,6"	"109/99"	208	stress_12bis	"POPTR_0006s04960.1"	831	"	"T/C"	"52,6/47,4"	"20/18"	38
controllo_3	"POPTR_0006s04960.1"	831	"	"T/C"	"52,4/47,6"	"109/99"	208	stress_45	"POPTR_0006s04960.1"	831	"	"T/C"	"78,9/21,1"	"15/4"	19
controllo_3	"POPTR_0003s13880.1"	233	"	"C/T"	"52,4/47,6"	"75/68"	143	stress_12bis	"POPTR_0003s13880.1"	233	"	"C/T"	"50,0/50,0"	"30/30"	60
controllo_3	"POPTR_0003s13880.1"	233	"	"C/T"	"52,4/47,6"	"75/68"	143	stress_42	"POPTR_0003s13880.1"	233	"	"C/T"	"63,9/36,1"	"108/61"	169
controllo_3	"POPTR_0003s13880.1"	233	"	"C/T"	"52,4/47,6"	"75/68"	143	stress_45	"POPTR_0003s13880.1"	233	"	"C/T"	"56,0/44,0"	"121/95"	216
controllo_3	"POPTR_0013s06710.1"	909	"	"A/C"	"52,4/47,6"	"76/69"	145	stress_12bis	"POPTR_0013s06710.1"	909	"	"C/A"	"52,0/48,0"	"26/24"	50
controllo_3	"POPTR_0013s06710.1"	909	"	"A/C"	"52,4/47,6"	"76/69"	145	stress_42	"POPTR_0013s06710.1"	909	"	"C/A"	"59,1/40,9"	"13/9"	22
controllo_3	"POPTR_0013s06710.1"	909	"	"A/C"	"52,4/47,6"	"76/69"	145	stress_45	"POPTR_0013s06710.1"	909	"	"A/C"	"56,8/43,2"	"21/16"	37
controllo_3	"POPTR_0013s01080.1"	1767	"	"A/G"	"52,4/47,6"	"77/70"	147	stress_12bis	"POPTR_0013s01080.1"	1767	"	"A/G"	"56,9/43,1"	"37/28"	65
controllo_3	"POPTR_0013s01080.1"	1767	"	"A/G"	"52,4/47,6"	"77/70"	147	stress_42	"POPTR_0013s01080.1"	1767	"	"A/G"	"55,6/44,4"	"20/16"	36
controllo_3	"POPTR_0013s01080.1"	1767	"	"A/G"	"52,4/47,6"	"77/70"	147	stress_45	"POPTR_0013s01080.1"	1767	"	"G/A"	"54,5/45,5"	"12/10"	22
controllo_3	"POPTR_0004s14960.1"	492	"	"T/A"	"52,4/47,6"	"54/49"	103	stress_12bis	"POPTR_0004s14960.1"	492	"	"T/A"	"62,1/37,9"	"18/11"	29
controllo_3	"POPTR_0004s14960.1"	492	"	"T/A"	"52,4/47,6"	"54/49"	103	stress_45	"POPTR_0004s14960.1"	492	"	"T/A"	"64,3/35,7"	"9/5"	14
controllo_3	"POPTR_0004s14780.1"	507	"	"C/T"	"52,4/47,6"	"142/129"	271	stress_12bis	"POPTR_0004s14780.1"	507	"	"C/T"	"50,0/50,0"	"52/52"	104
controllo_3	"POPTR_0004s14780.1"	507	"	"C/T"	"52,4/47,6"	"142/129"	271	stress_42	"POPTR_0004s14780.1"	507	"	"C/T"	"54,9/45,1"	"28/23"	51
controllo_3	"POPTR_0004s14780.1"	507	"	"C/T"	"52,4/47,6"	"142/129"	271	stress_45	"POPTR_0004s14780.1"	507	"	"C/T"	"50,9/49,1"	"29/28"	57
controllo_3	"POPTR_0004s04860.1"	612	"	"G/A"	"52,4/47,6"	"165/150"	315	stress_12bis	"POPTR_0004s04860.1"	612	"	"A/G"	"56,1/43,9"	"55/43"	98
controllo_3	"POPTR_0004s04860.1"	612	"	"G/A"	"52,4/47,6"	"165/150"	315	stress_42	"POPTR_0004s04860.1"	612	"	"G/A"	"59,3/40,7"	"16/11"	27
controllo_3	"POPTR_0004s04860.1"	612	"	"G/A"	"52,4/47,6"	"165/150"	315	stress_45	"POPTR_0004s04860.1"	612	"	"G/A"	"56,2/43,8"	"27/21"	48
controllo_3	"POPTR_0009s10270.1"	666	"	"T/A"	"52,4/47,6"	"65/59"	124	stress_12bis	"POPTR_0009s10270.1"	666	"	"T/A"	"54,5/45,5"	"6/5"	11
controllo_3	"POPTR_0009s10270.1"	666	"	"T/A"	"52,4/47,6"	"65/59"	124	stress_42	"POPTR_0009s10270.1"	666	"	"A/T"	"56,2/43,8"	"9/7"	16
controllo_3	"POPTR_0009s10270.1"	666	"	"T/A"	"52,4/47,6"	"65/59"	124	stress_45	"POPTR_0009s10270.1"	666	"	"T/A"	"63,6/36,4"	"14/8"	22
controllo_3	"POPTR_0009s05850.1"	678	"	"C/A"	"52,4/47,6"	"87/79"	166	stress_12bis	"POPTR_0009s05850.1"	678	"	"A/C"	"64,5/35,5"	"20/11"	31
controllo_3	"POPTR_0009s05850.1"	678	"	"C/A"	"52,4/47,6"	"87/79"	166	stress_42	"POPTR_0009s05850.1"	678	"	"A/C"	"63,2/36,8"	"24/14"	38
controllo_3	"POPTR_0009s05850.1"	678	"	"C/A"	"52,4/47,6"	"87/79"	166	stress_45	"POPTR_0009s05850.1"	678	"	"A/C"	"64,9/35,1"	"61/33"	94
controllo_3	"POPTR_0011s05670.1"	552	"	"C/T"	"52,4/47,6"	"97/88"	185	stress_12bis	"POPTR_0011s05670.1"	552	"	"C/T"	"55,8/44,2"	"43/34"	77
controllo_3	"POPTR_0011s05670.1"	552	"	"C/T"	"52,4/47,6"	"97/88"	185	stress_42	"POPTR_0011s05670.1"	552	"	"C/T"	"59,5/40,5"	"22/15"	37
controllo_3	"POPTR_0011s05670.1"	552	"	"C/T"	"52,4/47,6"	"97/88"	185	stress_45	"POPTR_0011s05670.1"	552	"	"C/T"	"54,8/45,2"	"23/19"	42
controllo_3	"POPTR_0001s26970.1"	684	"	"C/T"	"52,4/47,6"	"88/80"	168	stress_12bis	"POPTR_0001s26970.1"	684	"	"C/T"	"51,1/48,9"	"23/22"	45
controllo_3	"POPTR_0001s26970.1"	684	"	"C/T"	"52,4/47,6"	"88/80"	168	stress_45	"POPTR_0001s26970.1"	684	"	"T/C"	"54,5/45,5"	"6/5"	11
controllo_3	"POPTR_0001s21140.1"	105	"	"G/A"	"52,4/47,6"	"236/214"	450	stress_12bis	"POPTR_0001s21140.1"	105	"	"G/A"	"56,2/43,8"	"86/67"	153
controllo_3	"POPTR_0001s21140.1"	105	"	"G/A"	"52,4/47,6"	"236/214"	450	stress_42	"POPTR_0001s21140.1"	105	"	"G/A"	"63,3/36,7"	"19/11"	30
controllo_3	"POPTR_0001s21140.1"	105	"	"G/A"	"52,4/47,6"	"236/214"	450	stress_45	"POPTR_0001s21140.1"	105	"	"G/A"	"69,6/30,4"	"16/7"	23
controllo_3	"POPTR_0010s15190.1"	237	"	"C/G"	"52,4/47,6"	"65/59"	124	stress_12bis	"POPTR_0010s15190.1"	237	"	"C/G"	"55,6/44,4"	"25/20"	45
controllo_3	"POPTR_0010s15190.1"	237	"	"C/G"	"52,4/47,6"	"65/59"	124	stress_42	"POPTR_0010s15190.1"	237	"	"G/C"	"53,8/46,2"	"28/24"	52
controllo_3	"POPTR_0010s15190.1"	237	"	"C/G"	"52,4/47,6"	"65/59"	124	stress_45	"POPTR_0010s15190.1"	237	"	"G/C"	"52,9/47,1"	"55/49"	104
controllo_3	"POPTR_0007s13110.1"	327	"	"C/T"	"52,4/47,6"	"152/138"	290	stress_12bis	"POPTR_0007s13110.1"	327	"	"T/C"	"53,7/44,4"	"29/24"	54
controllo_3	"POPTR_0007s13110.1"	327	"	"C/T"	"52,4/47,6"	"152/138"	290	stress_42	"POPTR_0007s13110.1"	327	"	"T/C"	"57,5/42,5"	"46/34"	80
controllo_3	"POPTR_0007s13110.1"	327	"	"C/T"	"52,4/47,6"	"152/138"	290	stress_45	"POPTR_0007s13110.1"	327	"	"C/T"	"61,0/39,0"	"61/39"	100
controllo_3	"POPTR_0002s07390.1"	306	"	"T/C"	"52,4/47,6"	"77/70"	147	stress_12bis	"POPTR_0002s07390.1"	306	"	"T/C"	"62,5/37,5"	"15/9"	24
controllo_3	"POPTR_0002s08010.1"	2032	"	"C/G"	"52,4/47,6"	"76/69"	145	stress_12bis	"POPTR_0002s08010.1"	2032	"	"G/C"	"52,6/47,4"	"20/18"	38
controllo_3	"POPTR_0002s08010.1"	2032	"	"C/G"	"52,4/47,6"	"76/69"	145	stress_42	"POPTR_0002s08010.1"	2032	"	"G/C"	"64,3/35,7"	"9/5"	14
controllo_3	"POPTR_0002s08010.1"	2032	"	"C/G"	"52,4/47,6"	"76/69"	145	stress_45	"POPTR_0002s08010.1"	2032	"	"C/G"	"52,4/47,6"	"11/10"	21
controllo_3	"POPTR_0002s05780.1"	216	"	"C/T"	"52,4/47,6"	"87/79"	166	stress_12bis	"POPTR_0002s05780.1"	216	"	"C/T"	"61,5/38,5"	"8/5"	13
controllo_3	"POPTR_0002s05780.1"	216	"	"C/T"	"52,4/47,6"	"87/79"	166	stress_42	"POPTR_0002s05780.1"	216	"	"C/T"	"54,5/45,5"	"6/5"	11
controllo_3	"POPTR_0002s05780.1"	216	"	"C/T"	"52,4/47,6"	"87/79"	166	stress_45	"POPTR_0002s05780.1"	216	"	"C/T"	"60,9/39,1"	"14/9"	23
controllo_3	"POPTR_0002s08410.1"	146	"	"T/C"	"52,4/47,6"	"1467/1335"	2802	stress_12bis	"POPTR_0002s08410.1"	146	"	"T/C"	"52,8/47,2"	"412/369"	781
controllo_3	"POPTR_0002s08410.1"	146	"	"T/C"	"52,4/47,6"	"1467/1335"	2802	stress_42	"POPTR_0002s08410.1"	146	"	"C/T"	"51,7/48,3"	"109/102"	211
controllo_3	"POPTR_0002s08410.1"	146	"	"T/C"	"52,4/47,6"	"1467/1335"	2802	stress_45	"POPTR_0002s08410.1"	146	"	"C/T"	"50,4/49,6"	"140/138"	278
controllo_3	"POPTR_0002s01080.1"	658	"	"C/T"	"52,4/47,6"	"463/421"	884	stress_12bis	"POPTR_0002s01080.1"	658	"	"C/T"	"51,1/48,9"	"239/229"	468
controllo_3	"POPTR_0002s01080.1"	658	"	"C/T"	"52,4/47,6"	"463/421"	884	stress_42	"POPTR_0002s01080.1"	658	"	"T/C"	"51,4/48,6"	"90/85"	175
controllo_3	"POPTR_0002s01080.1"	658	"	"C/T"	"52,4/47,6"	"463/421"	884	stress_45	"POPTR_0002s01080.1"	658	"	"C/T"	"50,9/48,3"	"117/111"	230
controllo_3	"POPTR_0008s22310.1"	57	"	"T/C"	"52,4/47,6"	"77/70"	147	stress_12bis	"POPTR_0008s22310.1"	57	"	"T/C"	"66,9/33,1"	"99/49"	148
controllo_3	"POPTR_0008s22310.1"	57	"	"T/C"	"52,4/47,6"	"77/70"	147	stress_42	"POPTR_0008s22310.1"	57	"	"C/T"	"50,0/50,0"	"39/39"	78
controllo_3	"POPTR_0008s22310.1"	57	"	"T/C"	"52,4/47,6"	"77/70"	147	stress_45	"POPTR_0008s22310.1"	57	"	"C/T"	"58,9/41,1"	"56/39"	95
controllo_3	"POPTR_0016s03980.1"	641	"	"G/C"	"52,4/47,6"	"55/50"	105	stress_12bis	"POPTR_0016s03980.1"	641	"	"C/G"	"66,7/33,3"	"18/9"	27
controllo_3	"POPTR_0016s03980.1"	641	"	"G/C"	"52,4/47,6"	"55/50"	105	stress_45	"POPTR_0016s03980.1"	641	"	"G/C"	"53,8/46,2"	"7/6"	13
controllo_3	"POPTR_0016s06950.1"	387	"	"G/A"	"52,4/47,6"	"54/49"	103	stress_12bis	"POPTR_0016s06950.1"	387	"	"G/A"	"54,8/45,2"	"17/14"	31
controllo_3	"POPTR_0016s06950.1"	387	"	"G/A"	"52,4/47,6"	"54/49"	103	stress_42	"POPTR_0016s06950.1"	387	"	"A/G"	"64,0/36,0"	"32/18"	50
controllo_3	"POPTR_0016s06950.1"	387	"	"G/A"	"52,4/47,6"	"54/49"	103	stress_45	"POPTR_0016s06950.1"	387	"	"A/G"	"56,8/43,2"	"46/35"	81
controllo_3	"POPTR_0022s00530.1"	1086	"	"C/T"	"52,5/46,7"	"63/56"	120	stress_12bis	"POPTR_0022s00530.1"	1086	"	"C/T"	"78,1/21,9"	"25/7"	32
controllo_3	"POPTR_0022s00530.1"	1086	"	"C/T"	"52,5/46,7"	"63/56"	120	stress_42	"POPTR_0022s00530.1"	1086	"	"C/T"	"75,0/25,0"	"12/4"	16
controllo_3	"POPTR_0022s00530.1"	1086	"	"C/T"	"52,5/46,7"	"63/56"	120	stress_45	"POPTR_0022s00530.1"	1086	"	"C/T"	"70,4/29,6"	"19/8"	27
controllo_3	"POPTR_0006s24570.1"	2601	"	"A/G"	"52,5/47,4"	"1250/1127"	2379	stress_12bis	"POPTR_0006s24570.1"	2601	"	"A/G"	"50,6/49,4"	"379/370"	749
controllo_3	"POPTR_0006s24570.1"	2601	"	"A/G"	"52,5/47,4"	"1250/1127"	2379	stress_42	"POPTR_0006s24570.1"	2601	"	"A/G"	"67,3/32,7"	"37/18"	55
controllo_3	"POPTR_0006s24570.1"	2601	"	"A/G"	"52,5/47,4"	"1250/1127"	2379	stress_45	"POPTR_0006s24570.1"	2601	"	"A/G"	"60,8/39,2"	"59/38"	97
controllo_3	"POPTR_0005s27390.1"	237	"	"A/G"	"52,5/47,5"	"181/164"	345	stress_12bis	"POPTR_0005s27390.1"	237	"	"A/G"	"50,0/50,0"	"32/32"	64
controllo_3	"POPTR_0005s27390.1"	237	"	"A/G"	"52,5/47,5"	"181/164"	345	stress_42	"POPTR_0005s27390.1"	237	"	"A/G"	"59,0/41,0"	"46/32"	78
controllo_3	"POPTR_0005s27390.1"	237	"	"A/G"	"52,5/47,5"	"181/164"	345	stress_45	"POPTR_0005s27390.1"	237	"	"A/G"	"52,3/47,7"	"68/62"	130
controllo_3	"POPTR_0006s03320.1"	368	"	"C/G"	"52,5/47,5"	"62/56"	118	stress_12bis	"POPTR_0006s03320.1"	368	"	"C/G"	"58,8/41,2"	"57/40"	97
controllo_3	"POPTR_0006s03320.1"	368	"	"C/G"	"52,5/47,5"	"62/56"	118	stress_42	"POPTR_0006s03320.1"	368	"	"G/C"	"62,2/37,8"	"23/14"	37
controllo_3	"POPTR_0006s03320.1"	368	"	"C/G"	"52,5/47,5"	"62/56"	118	stress_45	"POPTR_0006s03320.1"	368	"	"G/C"	"61,5/38,5"	"24/15"	39
controllo_3	"POPTR_0006s08980.1"	171	"	"G/T"	"52,5/47,5"	"139/126"	265	stress_12bis	"POPTR_0006s08980.1"	171	"	"G/T"	"53,2/44,7"	"25/21"	47
controllo_3	"POPTR_0006s08980.1"	171	"	"G/T"	"52,5/47,5"	"139/126"	265	stress_42	"POPTR_0006s08980.1"	171	"	"G/T"	"56,4/43,6"	"22/17"	39
controllo_3	"POPTR_0006s08980.1"	171	"	"G/T"	"52,5/47,5"	"139/126"	265	stress_45	"POPTR_0006s08980.1"	171	"	"G/T"	"67,1/32,9"	"55/27"	82
controllo_3	"POPTR_0006s05160.1"	1494	"	"T/C"	"52,5/47,5"	"186/168"	354	stress_12bis	"POPTR_0006s05160.1"	1494	"	"C/T"	"50,0/50,0"	"50/50"	100
controllo_3	"POPTR_0006s05160.1"	1494	"	"T/C"	"52,5/47,5"	"186/168"	354	stress_42	"POPTR_0006s05160.1"	1494	"	"C/T"	"51,9/48,1"	"27/25"	52
controllo_3	"POPTR_0006s05160.1"	1494	"	"T/C"	"52,5/47,5"	"186/168"	354	stress_45	"POPTR_0006s05160.1"	1494	"	"C/T"	"51,5/48,5"	"35/33"	68
controllo_3	"POPTR_0006s02810.1"	855	"	"G/T"	"52,5/47,5"	"138/125"	263	stress_12bis	"POPTR_0006s02810.1"	855	"	"G/T"	"51,1/48,9"	"23/22"	45
controllo_3	"POPTR_0006s02810.1"	855	"	"G/T"	"52,5/47,5"	"138/125"	263	stress_42	"POPTR_0006s02810.1"	855	"	"T/G"	"56,5/43,5"	"13/10"	23
controllo_3	"POPTR_0006s02810.1"	855	"	"G/T"	"52,5/47,5"	"138/125"	263	stress_45	"POPTR_0006s02810.1"	855	"	"G/T"	"53,8/46,2"	"7/6"	13
controllo_3	"POPTR_0021s00380.1"	1176	"	"A/G"	"52,5/47,5"	"308/279"	587	stress_12bis	"POPTR_0021s00380.1"	1176	"	"G/A"	"58,4/41,6"	"122/87"	209
controllo_3	"POPTR_0021s00380.1"	1176	"	"A/G"	"52,5/47,5"	"308/279"	587	stress_42	"POPTR_0021s00380.1"	1176	"	"A/G"	"50,0/50,0"	"17/17"	34
controllo_3	"POPTR_0021s00380.1"	1176	"	"A/G"	"52,5/47,5"	"308/279"	587	stress_45	"POPTR_0021s00380.1"	1176	"	"A/G"	"54,8/45,2"	"23/19"	42
controllo_3	"POPTR_0003s06370.1"	516	"	"G/A"	"52,5/47,5"	"364/329"	693	stress_12bis	"POPTR_0003s06370.1"	516	"	"G/A"	"71,7/28,3"	"33/13"	46
controllo_3	"POPTR_0014s02550.1"	183	"	"A/G"	"52,5/47,5"	"94/85"	179	stress_12bis	"POPTR_0014s02550.1"	183	"	"G/A"	"51,9/48,1"	"40/37"	77
controllo_3	"POPTR_0014s02550.1"	183	"	"A/G"	"52,5/47,5"	"94/85"	179	stress_42	"POPTR_0014s02550.1"	183	"	"A/G"	"52,5/47,5"	"32/29"	61
controllo_3	"POPTR_0014s02550.1"	183	"	"A/G"	"52,5/47,5"	"94/85"	179	stress_45	"POPTR_0014s02550.1"	183	"	"G/A"	"56,6/43,4"	"47/36"	83
controllo_3	"POPTR_0014s14200.1"	606	"	"A/C"	"52,5/47,5"	"155/140"	295	stress_12bis	"POPTR_0014s14200.1"	606	"	"A/C"	"72,7/27,3"	"16/6"	22
controllo_3	"POPTR_0014s14200.1"	606	"	"A/C"	"52,5/47,5"	"155/140"	295	stress_42	"POPTR_0014s14200.1"	606	"	"A/C"	"53,8/46,2"	"14/12"	26
controllo_3	"POPTR_0014s14200.1"	606	"	"A/C"	"52,5/47,5"	"155/140"	295	stress_45	"POPTR_0014s14200.1"	606	"	"A/C"	"64,8/35,2"	"68/37"	105
controllo_3	"POPTR_0004s14960.1"	219	"	"G/C"	"52,5/47,5"	"85/77"	162	stress_12bis	"POPTR_0004s14960.1"	219	"	"C/G"	"56,1/43,9"	"23/18"	41
controllo_3	"POPTR_0004s14960.1"	219	"	"G/C"	"52,5/47,5"	"85/77"	162	stress_42	"POPTR_0004s14960.1"	219	"	"C/G"	"73,3/26,7"	"11/4"	15
controllo_3	"POPTR_0004s14960.1"	219	"	"G/C"	"52,5/47,5"	"85/77"	162	stress_45	"POPTR_0004s14960.1"	219	"	"C/G"	"62,5/37,5"	"15/9"	24
controllo_3	"POPTR_0004s20830.1"	1617	"	"A/G"	"52,5/47,5"	"53/48"	101	stress_12bis	"POPTR_0004s20830.1"	1617	"	"G/A"	"58,5/41,5"	"38/27"	65
controllo_3	"POPTR_0004s20830.1"	1617	"	"A/G"	"52,5/47,5"	"53/48"	101	stress_42	"POPTR_0004s20830.1"	1617	"	"A/G"	"59,6/40,4"	"34/23"	57
controllo_3	"POPTR_0004s20830.1"	1617	"	"A/G"	"52,5/47,5"	"53/48"	101	stress_45	"POPTR_0004s20830.1"	1617	"	"A/G"	"53,6/46,4"	"37/32"	69
controllo_3	"POPTR_0009s05850.1"	288	"	"C/A"	"52,5/47,5"	"83/75"	158	stress_12bis	"POPTR_0009s05850.1"	288	"	"A/C"	"66,7/33,3"	"14/7"	21
controllo_3	"POPTR_0009s05850.1"	288	"	"C/A"	"52,5/47,5"	"83/75"	158	stress_42	"POPTR_0009s05850.1"	288	"	"A/C"	"54,8/45,2"	"17/14"	31
controllo_3	"POPTR_0009s05850.1"	288	"	"C/A"	"52,5/47,5"	"83/75"	158	stress_45	"POPTR_0009s05850.1"	288	"	"A/C"	"55,7/44,3"	"39/31"	70
controllo_3	"POPTR_0012s07060.1"	720	"	"T/A"	"52,5/47,5"	"165/149"	314	stress_12bis	"POPTR_0012s07060.1"	720	"	"A/T"	"55,3/44,7"	"57/46"	103
controllo_3	"POPTR_0012s07060.1"	720	"	"T/A"	"52,5/47,5"	"165/149"	314	stress_42	"POPTR_0012s07060.1"	720	"	"A/T"	"68,5/31,5"	"37/17"	54
controllo_3	"POPTR_0012s07060.1"	720	"	"T/A"	"52,5/47,5"	"165/149"	314	stress_45	"POPTR_0012s07060.1"	720	"	"A/T"	"51,3/48,7"	"40/38"	78
controllo_3	"POPTR_0015s06230.1"	1119	"	"C/T"	"52,5/47,5"	"95/86"	181	stress_12bis	"POPTR_0015s06230.1"	1119	"	"T/C"	"56,0/44,0"	"14/11"	25
controllo_3	"POPTR_0015s06230.1"	1119	"	"C/T"	"52,5/47,5"	"95/86"	181	stress_42	"POPTR_0015s06230.1"	1119	"	"T/C"	"70,0/30,0"	"7/3"	10
controllo_3	"POPTR_0001s08420.1"	79	"	"T/G"	"52,5/47,5"	"53/48"	101	stress_12bis	"POPTR_0001s08420.1"	79	"	"T/G"	"58,3/41,7"	"14/10"	24
controllo_3	"POPTR_0001s36330.1"	1011	"	"G/A"	"52,5/47,5"	"53/48"	101	stress_12bis	"POPTR_0001s36330.1"	1011	"	"G/A"	"59,4/40,6"	"60/41"	101
controllo_3	"POPTR_0001s36330.1"	1011	"	"G/A"	"52,5/47,5"	"53/48"	101	stress_42	"POPTR_0001s36330.1"	1011	"	"G/A"	"66,7/33,3"	"12/6"	18
controllo_3	"POPTR_0001s36330.1"	1011	"	"G/A"	"52,5/47,5"	"53/48"	101	stress_45	"POPTR_0001s36330.1"	1011	"	"G/A"	"62,5/37,5"	"25/15"	40
controllo_3	"POPTR_0001s45410.1"	385	"	"C/T"	"52,5/47,5"	"64/58"	122	stress_12bis	"POPTR_0001s45410.1"	385	"	"T/C"	"54,5/45,5"	"24/20"	44
controllo_3	"POPTR_0001s45410.1"	385	"	"C/T"	"52,5/47,5"	"64/58"	122	stress_42	"POPTR_0001s45410.1"	385	"	"T/C"	"63,6/36,4"	"7/4"	11
controllo_3	"POPTR_0001s45410.1"	385	"	"C/T"	"52,5/47,5"	"64/58"	122	stress_45	"POPTR_0001s45410.1"	385	"	"C/T"	"55,6/44,4"	"10/8"	18
controllo_3	"POPTR_0001s19360.1"	1827	"	"C/T"	"52,5/47,5"	"53/48"	101	stress_12bis	"POPTR_0001s19360.1"	1827	"	"C/T"	"50,0/50,0"	"25/25"	50
controllo_3	"POPTR_0001s19360.1"	1827	"	"C/T"	"52,5/47,5"	"53/48"	101	stress_42	"POPTR_0001s19360.1"	1827	"	"C/T"	"60,0/40,0"	"24/16"	40
controllo_3	"POPTR_0001s19360.1"	1827	"	"C/T"	"52,5/47,5"	"53/48"	101	stress_45	"POPTR_0001s19360.1"	1827	"	"T/C"	"56,9/43,1"	"41/31"	72
controllo_3	"POPTR_0001s35220.1"	951	"	"A/G"	"52,5/47,5"	"62/56"	118	stress_12bis	"POPTR_0001s35220.1"	951	"	"G/A"	"56,7/43,3"	"17/13"	30
controllo_3	"POPTR_0010s17400.1"	408	"	"T/C"	"52,5/47,5"	"53/48"	101	stress_12bis	"POPTR_0010s17400.1"	408	"	"T/C"	"80,0/20,0"	"28/7"	35
controllo_3	"POPTR_0010s17400.1"	408	"	"T/C"	"52,5/47,5"	"53/48"	101	stress_42	"POPTR_0010s17400.1"	408	"	"T/C"	"80,0/20,0"	"12/3"	15
controllo_3	"POPTR_0010s17400.1"	408	"	"T/C"	"52,5/47,5"	"53/48"	101	stress_45	"POPTR_0010s17400.1"	408	"	"C/T"	"50,0/50,0"	"5/5"	10
controllo_3	"POPTR_0007s02460.1"	1020	"	"T/C"	"52,5/47,5"	"53/48"	101	stress_12bis	"POPTR_0007s02460.1"	1020	"	"T/C"	"63,6/36,4"	"14/8"	22
controllo_3	"POPTR_0007s02460.1"	1020	"	"T/C"	"52,5/47,5"	"53/48"	101	stress_42	"POPTR_0007s02460.1"	1020	"	"T/C"	"66,0/34,0"	"31/16"	47
controllo_3	"POPTR_0007s02460.1"	1020	"	"T/C"	"52,5/47,5"	"53/48"	101	stress_45	"POPTR_0007s02460.1"	1020	"	"T/C"	"75,0/25,0"	"27/9"	36
controllo_3	"POPTR_0002s01740.1"	7	"	"G/A"	"52,5/47,5"	"53/48"	101	stress_12bis	"POPTR_0002s01740.1"	7	"	"G/A"	"71,4/28,6"	"10/4"	14
controllo_3	"POPTR_0002s06680.1"	900	"	"C/T"	"52,5/47,5"	"42/38"	80	stress_45	"POPTR_0002s06680.1"	900	"	"T/C"	"55,5/43,7"	"66/52"	119
controllo_3	"POPTR_0002s08010.1"	692	"	"C/T"	"52,5/47,5"	"96/87"	183	stress_12bis	"POPTR_0002s08010.1"	692	"	"T/C"	"65,6/34,4"	"21/11"	32
controllo_3	"POPTR_0002s08010.1"	692	"	"C/T"	"52,5/47,5"	"96/87"	183	stress_45	"POPTR_0002s08010.1"	692	"	"C/T"	"57,9/42,1"	"11/8"	19
controllo_3	"POPTR_0002s08010.1"	1773	"	"T/C"	"52,5/47,5"	"95/86"	181	stress_12bis	"POPTR_0002s08010.1"	1773	"	"C/T"	"54,5/45,5"	"24/20"	44
controllo_3	"POPTR_0002s08010.1"	1773	"	"T/C"	"52,5/47,5"	"95/86"	181	stress_42	"POPTR_0002s08010.1"	1773	"	"T/C"	"75,0/25,0"	"12/4"	16
controllo_3	"POPTR_0002s08010.1"	1773	"	"T/C"	"52,5/47,5"	"95/86"	181	stress_45	"POPTR_0002s08010.1"	1773	"	"T/C"	"52,6/47,4"	"10/9"	19
controllo_3	"POPTR_0002s05780.1"	649	"	"T/C"	"52,5/47,5"	"64/58"	122	stress_12bis	"POPTR_0002s05780.1"	649	"	"C/T"	"53,8/46,2"	"7/6"	13
controllo_3	"POPTR_0002s05780.1"	649	"	"T/C"	"52,5/47,5"	"64/58"	122	stress_42	"POPTR_0002s05780.1"	649	"	"T/C"	"60,0/40,0"	"12/8"	20
controllo_3	"POPTR_0002s05780.1"	649	"	"T/C"	"52,5/47,5"	"64/58"	122	stress_45	"POPTR_0002s05780.1"	649	"	"T/C"	"53,8/46,2"	"7/6"	13
controllo_3	"POPTR_0008s19960.1"	1017	"	"A/T"	"52,5/47,5"	"64/58"	122	stress_12bis	"POPTR_0008s19960.1"	1017	"	"A/T"	"63,6/36,4"	"7/4"	11
controllo_3	"POPTR_0004s09910.1"	99	"	"T/G"	"52,6/47,1"	"7031/6299"	13360	stress_12bis	"POPTR_0004s09910.1"	99	"	"T/G"	"50,8/48,9"	"1204/1160"	2371
controllo_3	"POPTR_0004s09910.1"	99	"	"T/G"	"52,6/47,1"	"7031/6299"	13360	stress_42	"POPTR_0004s09910.1"	99	"	"T/G"	"54,1/45,9"	"113/96"	209
controllo_3	"POPTR_0004s09910.1"	99	"	"T/G"	"52,6/47,1"	"7031/6299"	13360	stress_45	"POPTR_0004s09910.1"	99	"	"T/G"	"50,4/49,3"	"175/171"	347
controllo_3	"POPTR_0004s08380.1"	333	"	"T/C"	"52,6/47,2"	"912/819"	1735	stress_12bis	"POPTR_0004s08380.1"	333	"	"C/T"	"51,6/47,9"	"237/220"	459
controllo_3	"POPTR_0004s08380.1"	333	"	"T/C"	"52,6/47,2"	"912/819"	1735	stress_42	"POPTR_0004s08380.1"	333	"	"T/C"	"70,0/30,0"	"35/15"	50
controllo_3	"POPTR_0004s08380.1"	333	"	"T/C"	"52,6/47,2"	"912/819"	1735	stress_45	"POPTR_0004s08380.1"	333	"	"T/C"	"58,8/41,2"	"30/21"	51
controllo_3	"POPTR_0016s07280.1"	412	"	"C/A"	"52,6/47,2"	"194/174"	369	stress_12bis	"POPTR_0016s07280.1"	412	"	"C/A"	"55,8/44,2"	"48/38"	86
controllo_3	"POPTR_0016s07280.1"	412	"	"C/A"	"52,6/47,2"	"194/174"	369	stress_42	"POPTR_0016s07280.1"	412	"	"C/A"	"73,1/26,9"	"19/7"	26
controllo_3	"POPTR_0016s07280.1"	412	"	"C/A"	"52,6/47,2"	"194/174"	369	stress_45	"POPTR_0016s07280.1"	412	"	"C/A"	"60,5/39,5"	"23/15"	38
controllo_3	"POPTR_0006s14630.1"	138	"	"T/G"	"52,6/47,3"	"454/408"	863	stress_12bis	"POPTR_0006s14630.1"	138	"	"T/G"	"51,1/48,9"	"121/116"	237
controllo_3	"POPTR_0006s14630.1"	138	"	"T/G"	"52,6/47,3"	"454/408"	863	stress_42	"POPTR_0006s14630.1"	138	"	"T/G"	"59,3/40,7"	"70/48"	118
controllo_3	"POPTR_0006s14630.1"	138	"	"T/G"	"52,6/47,3"	"454/408"	863	stress_45	"POPTR_0006s14630.1"	138	"	"T/G"	"52,0/48,0"	"39/36"	75
controllo_3	"POPTR_0001s38810.1"	225	"	"A/T"	"52,6/47,3"	"499/449"	949	stress_12bis	"POPTR_0001s38810.1"	225	"	"A/T"	"56,9/42,7"	"141/106"	248
controllo_3	"POPTR_0001s38810.1"	225	"	"A/T"	"52,6/47,3"	"499/449"	949	stress_42	"POPTR_0001s38810.1"	225	"	"T/A"	"63,1/36,9"	"197/115"	312
controllo_3	"POPTR_0001s38810.1"	225	"	"A/T"	"52,6/47,3"	"499/449"	949	stress_45	"POPTR_0001s38810.1"	225	"	"T/A"	"61,8/38,0"	"254/156"	411
controllo_3	"POPTR_0005s20920.1"	417	"	"G/A"	"52,6/47,4"	"204/184"	388	stress_12bis	"POPTR_0005s20920.1"	417	"	"A/G"	"51,2/48,8"	"43/41"	84
controllo_3	"POPTR_0006s05160.1"	758	"	"A/G"	"52,6/47,4"	"141/127"	268	stress_12bis	"POPTR_0006s05160.1"	758	"	"A/G"	"56,2/43,8"	"50/39"	89
controllo_3	"POPTR_0006s05160.1"	758	"	"A/G"	"52,6/47,4"	"141/127"	268	stress_42	"POPTR_0006s05160.1"	758	"	"G/A"	"53,3/46,7"	"16/14"	30
controllo_3	"POPTR_0006s05160.1"	758	"	"A/G"	"52,6/47,4"	"141/127"	268	stress_45	"POPTR_0006s05160.1"	758	"	"A/G"	"52,7/47,3"	"29/26"	55
controllo_3	"POPTR_0013s06710.1"	736	"	"G/T"	"52,6/47,4"	"120/108"	228	stress_12bis	"POPTR_0013s06710.1"	736	"	"T/G"	"50,5/49,5"	"46/45"	91
controllo_3	"POPTR_0013s06710.1"	736	"	"G/T"	"52,6/47,4"	"120/108"	228	stress_42	"POPTR_0013s06710.1"	736	"	"T/G"	"57,1/42,9"	"20/15"	35
controllo_3	"POPTR_0013s06710.1"	736	"	"G/T"	"52,6/47,4"	"120/108"	228	stress_45	"POPTR_0013s06710.1"	736	"	"T/G"	"62,9/37,1"	"22/13"	35
controllo_3	"POPTR_0014s15960.1"	726	"	"A/G"	"52,6/47,4"	"30/27"	57	stress_42	"POPTR_0014s15960.1"	726	"	"A/G"	"60,7/39,3"	"145/94"	239
controllo_3	"POPTR_0014s15960.1"	726	"	"A/G"	"52,6/47,4"	"30/27"	57	stress_45	"POPTR_0014s15960.1"	726	"	"A/G"	"70,5/28,6"	"148/60"	210
controllo_3	"POPTR_0004s08380.1"	928	"	"G/A"	"52,6/47,4"	"1428/1287"	2715	stress_12bis	"POPTR_0004s08380.1"	928	"	"A/G"	"52,4/47,6"	"365/331"	696
controllo_3	"POPTR_0004s08380.1"	928	"	"G/A"	"52,6/47,4"	"1428/1287"	2715	stress_42	"POPTR_0004s08380.1"	928	"	"A/G"	"52,6/46,4"	"51/45"	97
controllo_3	"POPTR_0004s08380.1"	928	"	"G/A"	"52,6/47,4"	"1428/1287"	2715	stress_45	"POPTR_0004s08380.1"	928	"	"G/A"	"51,4/48,6"	"54/51"	105
controllo_3	"POPTR_0009s09710.1"	47	"	"A/G"	"52,6/47,4"	"101/91"	192	stress_12bis	"POPTR_0009s09710.1"	47	"	"G/A"	"51,6/48,4"	"47/44"	91
controllo_3	"POPTR_0009s09710.1"	47	"	"A/G"	"52,6/47,4"	"101/91"	192	stress_42	"POPTR_0009s09710.1"	47	"	"A/G"	"55,9/44,1"	"19/15"	34
controllo_3	"POPTR_0009s09710.1"	47	"	"A/G"	"52,6/47,4"	"101/91"	192	stress_45	"POPTR_0009s09710.1"	47	"	"G/A"	"53,1/46,9"	"26/23"	49
controllo_3	"POPTR_0001s11600.1"	315	"	"C/T"	"52,6/47,4"	"380/343"	723	stress_12bis	"POPTR_0001s11600.1"	315	"	"T/C"	"51,0/49,0"	"102/98"	200
controllo_3	"POPTR_0001s11600.1"	315	"	"C/T"	"52,6/47,4"	"380/343"	723	stress_42	"POPTR_0001s11600.1"	315	"	"C/T"	"50,9/49,1"	"27/26"	53
controllo_3	"POPTR_0001s11600.1"	315	"	"C/T"	"52,6/47,4"	"380/343"	723	stress_45	"POPTR_0001s11600.1"	315	"	"T/C"	"59,4/40,6"	"41/28"	69
controllo_3	"POPTR_0001s10930.1"	321	"	"C/A"	"52,6/47,4"	"103/93"	196	stress_12bis	"POPTR_0001s10930.1"	321	"	"C/A"	"54,0/46,0"	"27/23"	50
controllo_3	"POPTR_0001s10930.1"	321	"	"C/A"	"52,6/47,4"	"103/93"	196	stress_42	"POPTR_0001s10930.1"	321	"	"C/A"	"57,1/42,9"	"16/12"	28
controllo_3	"POPTR_0001s10930.1"	321	"	"C/A"	"52,6/47,4"	"103/93"	196	stress_45	"POPTR_0001s10930.1"	321	"	"A/C"	"59,1/40,9"	"26/18"	44
controllo_3	"POPTR_0001s47020.1"	1273	"	"A/T"	"52,6/47,4"	"112/101"	213	stress_12bis	"POPTR_0001s47020.1"	1273	"	"A/T"	"61,3/38,7"	"38/24"	62
controllo_3	"POPTR_0001s47020.1"	1273	"	"A/T"	"52,6/47,4"	"112/101"	213	stress_42	"POPTR_0001s47020.1"	1273	"	"A/T"	"67,9/32,1"	"38/18"	56
controllo_3	"POPTR_0001s47020.1"	1273	"	"A/T"	"52,6/47,4"	"112/101"	213	stress_45	"POPTR_0001s47020.1"	1273	"	"T/A"	"53,1/46,9"	"60/53"	113
controllo_3	"POPTR_0001s01630.1"	213	"	"T/A"	"52,6/47,4"	"112/101"	213	stress_12bis	"POPTR_0001s01630.1"	213	"	"A/T"	"52,9/47,1"	"27/24"	51
controllo_3	"POPTR_0001s10040.1"	627	"	"C/G"	"52,6/47,4"	"80/72"	152	stress_12bis	"POPTR_0001s10040.1"	627	"	"C/G"	"54,1/45,9"	"33/28"	61
controllo_3	"POPTR_0001s10040.1"	627	"	"C/G"	"52,6/47,4"	"80/72"	152	stress_42	"POPTR_0001s10040.1"	627	"	"C/G"	"57,5/42,5"	"46/34"	80
controllo_3	"POPTR_0001s10040.1"	627	"	"C/G"	"52,6/47,4"	"80/72"	152	stress_45	"POPTR_0001s10040.1"	627	"	"C/G"	"52,6/47,4"	"41/37"	78
controllo_3	"POPTR_0010s17860.1"	306	"	"T/C"	"52,6/47,4"	"110/99"	209	stress_12bis	"POPTR_0010s17860.1"	306	"	"T/C"	"58,5/41,5"	"24/17"	41
controllo_3	"POPTR_0010s17860.1"	306	"	"T/C"	"52,6/47,4"	"110/99"	209	stress_45	"POPTR_0010s17860.1"	306	"	"C/T"	"60,0/40,0"	"6/4"	10
controllo_3	"POPTR_0010s22790.1"	418	"	"A/G"	"52,6/47,4"	"313/282"	595	stress_12bis	"POPTR_0010s22790.1"	418	"	"A/G"	"52,2/47,8"	"121/111"	232
controllo_3	"POPTR_0010s22790.1"	418	"	"A/G"	"52,6/47,4"	"313/282"	595	stress_42	"POPTR_0010s22790.1"	418	"	"G/A"	"55,1/44,9"	"43/35"	78
controllo_3	"POPTR_0010s22790.1"	418	"	"A/G"	"52,6/47,4"	"313/282"	595	stress_45	"POPTR_0010s22790.1"	418	"	"A/G"	"58,7/41,3"	"61/43"	104
controllo_3	"POPTR_0008s15050.1"	1314	"	"A/T"	"52,6/47,4"	"40/36"	76	stress_12bis	"POPTR_0008s15050.1"	1314	"	"T/A"	"53,5/46,5"	"54/47"	101
controllo_3	"POPTR_0008s05470.1"	1206	"	"G/T"	"52,6/47,4"	"82/74"	156	stress_12bis	"POPTR_0008s05470.1"	1206	"	"G/T"	"67,9/32,1"	"19/9"	28
controllo_3	"POPTR_0008s05470.1"	1206	"	"G/T"	"52,6/47,4"	"82/74"	156	stress_42	"POPTR_0008s05470.1"	1206	"	"G/T"	"73,3/26,7"	"11/4"	15
controllo_3	"POPTR_0008s05470.1"	1206	"	"G/T"	"52,6/47,4"	"82/74"	156	stress_45	"POPTR_0008s05470.1"	1206	"	"T/G"	"69,0/31,0"	"29/13"	42
controllo_3	"POPTR_0008s01960.1"	840	"	"A/G"	"52,6/47,4"	"60/54"	114	stress_12bis	"POPTR_0008s01960.1"	840	"	"G/A"	"58,5/41,5"	"24/17"	41
controllo_3	"POPTR_0008s01960.1"	840	"	"A/G"	"52,6/47,4"	"60/54"	114	stress_42	"POPTR_0008s01960.1"	840	"	"A/G"	"50,0/50,0"	"13/13"	26
controllo_3	"POPTR_0008s01960.1"	840	"	"A/G"	"52,6/47,4"	"60/54"	114	stress_45	"POPTR_0008s01960.1"	840	"	"G/A"	"58,1/41,9"	"18/13"	31
controllo_3	"POPTR_0008s10020.1"	1464	"	"C/T"	"52,6/47,4"	"72/65"	137	stress_12bis	"POPTR_0008s10020.1"	1464	"	"C/T"	"65,4/34,6"	"34/18"	52
controllo_3	"POPTR_0008s10020.1"	1464	"	"C/T"	"52,6/47,4"	"72/65"	137	stress_42	"POPTR_0008s10020.1"	1464	"	"C/T"	"61,3/38,7"	"19/12"	31
controllo_3	"POPTR_0008s10020.1"	1464	"	"C/T"	"52,6/47,4"	"72/65"	137	stress_45	"POPTR_0008s10020.1"	1464	"	"C/T"	"50,0/46,2"	"13/12"	26
controllo_3	"POPTR_0008s19960.1"	1104	"	"A/G"	"52,6/47,4"	"81/73"	154	stress_12bis	"POPTR_0008s19960.1"	1104	"	"G/A"	"58,1/41,9"	"18/13"	31
controllo_3	"POPTR_0008s15290.1"	633	"	"A/G"	"52,6/47,4"	"72/65"	137	stress_12bis	"POPTR_0008s15290.1"	633	"	"G/A"	"53,2/46,8"	"33/29"	62
controllo_3	"POPTR_0008s15290.1"	633	"	"A/G"	"52,6/47,4"	"72/65"	137	stress_42	"POPTR_0008s15290.1"	633	"	"G/A"	"52,0/48,0"	"26/24"	50
controllo_3	"POPTR_0008s15290.1"	633	"	"A/G"	"52,6/47,4"	"72/65"	137	stress_45	"POPTR_0008s15290.1"	633	"	"A/G"	"59,7/40,3"	"46/31"	77
controllo_3	"POPTR_0016s08520.1"	994	"	"T/A"	"52,6/47,4"	"51/46"	97	stress_45	"POPTR_0016s08520.1"	994	"	"A/T"	"55,0/44,2"	"71/57"	129
controllo_3	"POPTR_0016s14100.1"	639	"	"T/C"	"52,6/47,4"	"90/81"	171	stress_12bis	"POPTR_0016s14100.1"	639	"	"C/T"	"52,1/47,9"	"50/46"	96
controllo_3	"POPTR_0016s14100.1"	639	"	"T/C"	"52,6/47,4"	"90/81"	171	stress_42	"POPTR_0016s14100.1"	639	"	"C/T"	"63,6/36,4"	"14/8"	22
controllo_3	"POPTR_0016s14100.1"	639	"	"T/C"	"52,6/47,4"	"90/81"	171	stress_45	"POPTR_0016s14100.1"	639	"	"T/C"	"57,1/42,9"	"16/12"	28
controllo_3	"POPTR_0007s02460.1"	921	"	"C/A"	"52,7/46,6"	"78/69"	148	stress_12bis	"POPTR_0007s02460.1"	921	"	"C/A"	"64,7/35,3"	"22/12"	34
controllo_3	"POPTR_0007s02460.1"	921	"	"C/A"	"52,7/46,6"	"78/69"	148	stress_42	"POPTR_0007s02460.1"	921	"	"A/C"	"55,8/44,2"	"29/23"	52
controllo_3	"POPTR_0007s02460.1"	921	"	"C/A"	"52,7/46,6"	"78/69"	148	stress_45	"POPTR_0007s02460.1"	921	"	"A/C"	"50,0/50,0"	"30/30"	60
controllo_3	"POPTR_0005s08610.1"	465	"	"T/A"	"52,7/47,3"	"96/86"	182	stress_12bis	"POPTR_0005s08610.1"	465	"	"T/A"	"54,3/45,7"	"50/42"	92
controllo_3	"POPTR_0005s08610.1"	465	"	"T/A"	"52,7/47,3"	"96/86"	182	stress_42	"POPTR_0005s08610.1"	465	"	"A/T"	"64,6/35,4"	"42/23"	65
controllo_3	"POPTR_0005s08610.1"	465	"	"T/A"	"52,7/47,3"	"96/86"	182	stress_45	"POPTR_0005s08610.1"	465	"	"A/T"	"54,4/45,6"	"31/26"	57
controllo_3	"POPTR_0006s28990.1"	1374	"	"T/C"	"52,7/47,3"	"144/129"	273	stress_12bis	"POPTR_0006s28990.1"	1374	"	"C/T"	"51,1/48,9"	"23/22"	45
controllo_3	"POPTR_0006s28990.1"	1374	"	"T/C"	"52,7/47,3"	"144/129"	273	stress_42	"POPTR_0006s28990.1"	1374	"	"T/C"	"52,1/47,9"	"49/45"	94
controllo_3	"POPTR_0006s28990.1"	1374	"	"T/C"	"52,7/47,3"	"144/129"	273	stress_45	"POPTR_0006s28990.1"	1374	"	"T/C"	"59,6/40,4"	"56/38"	94
controllo_3	"POPTR_0006s05160.1"	1014	"	"G/T"	"52,7/47,3"	"117/105"	222	stress_12bis	"POPTR_0006s05160.1"	1014	"	"T/G"	"51,2/48,8"	"43/41"	84
controllo_3	"POPTR_0006s05160.1"	1014	"	"G/T"	"52,7/47,3"	"117/105"	222	stress_42	"POPTR_0006s05160.1"	1014	"	"G/T"	"63,6/36,4"	"14/8"	22
controllo_3	"POPTR_0006s05160.1"	1014	"	"G/T"	"52,7/47,3"	"117/105"	222	stress_45	"POPTR_0006s05160.1"	1014	"	"T/G"	"60,0/40,0"	"33/22"	55
controllo_3	"POPTR_0006s11570.1"	1032	"	"T/A"	"52,7/47,3"	"126/113"	239	stress_12bis	"POPTR_0006s11570.1"	1032	"	"T/A"	"57,1/42,9"	"32/24"	56
controllo_3	"POPTR_0006s11570.1"	1032	"	"T/A"	"52,7/47,3"	"126/113"	239	stress_42	"POPTR_0006s11570.1"	1032	"	"A/T"	"50,0/50,0"	"48/48"	96
controllo_3	"POPTR_0006s11570.1"	1032	"	"T/A"	"52,7/47,3"	"126/113"	239	stress_45	"POPTR_0006s11570.1"	1032	"	"T/A"	"57,3/42,7"	"55/41"	96
controllo_3	"POPTR_0018s01420.1"	252	"	"C/T"	"52,7/47,3"	"69/62"	131	stress_12bis	"POPTR_0018s01420.1"	252	"	"T/C"	"52,9/47,1"	"36/32"	68
controllo_3	"POPTR_0018s01420.1"	252	"	"C/T"	"52,7/47,3"	"69/62"	131	stress_42	"POPTR_0018s01420.1"	252	"	"T/C"	"53,3/46,7"	"40/35"	75
controllo_3	"POPTR_0018s01420.1"	252	"	"C/T"	"52,7/47,3"	"69/62"	131	stress_45	"POPTR_0018s01420.1"	252	"	"T/C"	"52,6/47,4"	"41/37"	78
controllo_3	"POPTR_0003s14170.1"	440	"	"G/A"	"52,7/47,3"	"117/105"	222	stress_12bis	"POPTR_0003s14170.1"	440	"	"A/G"	"54,8/45,2"	"23/19"	42
controllo_3	"POPTR_0003s14170.1"	440	"	"G/A"	"52,7/47,3"	"117/105"	222	stress_42	"POPTR_0003s14170.1"	440	"	"A/G"	"66,7/33,3"	"8/4"	12
controllo_3	"POPTR_0003s14170.1"	440	"	"G/A"	"52,7/47,3"	"117/105"	222	stress_45	"POPTR_0003s14170.1"	440	"	"A/G"	"80,0/20,0"	"16/4"	20
controllo_3	"POPTR_0019s09140.1"	109	"	"A/T"	"52,7/47,3"	"884/795"	1679	stress_12bis	"POPTR_0019s09140.1"	109	"	"T/A"	"55,6/44,4"	"340/271"	611
controllo_3	"POPTR_0019s09140.1"	109	"	"A/T"	"52,7/47,3"	"884/795"	1679	stress_42	"POPTR_0019s09140.1"	109	"	"T/A"	"59,4/40,6"	"98/67"	165
controllo_3	"POPTR_0019s09140.1"	109	"	"A/T"	"52,7/47,3"	"884/795"	1679	stress_45	"POPTR_0019s09140.1"	109	"	"A/T"	"53,8/46,2"	"120/103"	223
controllo_3	"POPTR_0019s05540.1"	405	"	"A/G"	"52,7/47,3"	"69/62"	131	stress_12bis	"POPTR_0019s05540.1"	405	"	"A/G"	"54,0/46,0"	"27/23"	50
controllo_3	"POPTR_0019s05540.1"	405	"	"A/G"	"52,7/47,3"	"69/62"	131	stress_42	"POPTR_0019s05540.1"	405	"	"A/G"	"57,4/42,6"	"35/26"	61
controllo_3	"POPTR_0019s05540.1"	405	"	"A/G"	"52,7/47,3"	"69/62"	131	stress_45	"POPTR_0019s05540.1"	405	"	"A/G"	"60,3/39,7"	"47/31"	78
controllo_3	"POPTR_0019s08240.1"	507	"	"A/C"	"52,7/47,3"	"260/233"	493	stress_12bis	"POPTR_0019s08240.1"	507	"	"C/A"	"59,5/40,5"	"88/60"	148
controllo_3	"POPTR_0019s08240.1"	507	"	"A/C"	"52,7/47,3"	"260/233"	493	stress_42	"POPTR_0019s08240.1"	507	"	"C/A"	"53,1/46,9"	"26/23"	49
controllo_3	"POPTR_0019s08240.1"	507	"	"A/C"	"52,7/47,3"	"260/233"	493	stress_45	"POPTR_0019s08240.1"	507	"	"A/C"	"60,7/39,3"	"34/22"	56
controllo_3	"POPTR_0013s10250.1"	501	"	"G/T"	"52,7/47,3"	"177/159"	336	stress_12bis	"POPTR_0013s10250.1"	501	"	"T/G"	"54,2/45,8"	"71/60"	131
controllo_3	"POPTR_0013s10250.1"	501	"	"G/T"	"52,7/47,3"	"177/159"	336	stress_42	"POPTR_0013s10250.1"	501	"	"T/G"	"52,6/47,4"	"30/27"	57
controllo_3	"POPTR_0013s10250.1"	501	"	"G/T"	"52,7/47,3"	"177/159"	336	stress_45	"POPTR_0013s10250.1"	501	"	"T/G"	"60,7/39,3"	"37/24"	61
controllo_3	"POPTR_0014s02550.1"	1113	"	"T/A"	"52,7/47,3"	"88/79"	167	stress_12bis	"POPTR_0014s02550.1"	1113	"	"T/A"	"62,5/37,5"	"45/27"	72
controllo_3	"POPTR_0014s02550.1"	1113	"	"T/A"	"52,7/47,3"	"88/79"	167	stress_42	"POPTR_0014s02550.1"	1113	"	"T/A"	"54,7/45,3"	"35/29"	64
controllo_3	"POPTR_0014s02550.1"	1113	"	"T/A"	"52,7/47,3"	"88/79"	167	stress_45	"POPTR_0014s02550.1"	1113	"	"A/T"	"51,0/49,0"	"49/47"	96
controllo_3	"POPTR_0014s08150.1"	1179	"	"A/C"	"52,7/47,3"	"58/52"	110	stress_12bis	"POPTR_0014s08150.1"	1179	"	"A/C"	"59,5/40,5"	"22/15"	37
controllo_3	"POPTR_0004s01660.1"	1647	"	"T/C"	"52,7/47,3"	"59/53"	112	stress_12bis	"POPTR_0004s01660.1"	1647	"	"C/T"	"50,9/49,1"	"27/26"	53
controllo_3	"POPTR_0004s01660.1"	1647	"	"T/C"	"52,7/47,3"	"59/53"	112	stress_42	"POPTR_0004s01660.1"	1647	"	"C/T"	"62,5/37,5"	"15/9"	24
controllo_3	"POPTR_0004s01660.1"	1647	"	"T/C"	"52,7/47,3"	"59/53"	112	stress_45	"POPTR_0004s01660.1"	1647	"	"T/C"	"57,7/42,3"	"15/11"	26
controllo_3	"POPTR_0004s14960.1"	2325	"	"G/A"	"52,7/47,3"	"97/87"	184	stress_12bis	"POPTR_0004s14960.1"	2325	"	"G/A"	"66,7/33,3"	"26/13"	39
controllo_3	"POPTR_0004s14960.1"	2325	"	"G/A"	"52,7/47,3"	"97/87"	184	stress_42	"POPTR_0004s14960.1"	2325	"	"G/A"	"53,3/46,7"	"8/7"	15
controllo_3	"POPTR_0004s14960.1"	2325	"	"G/A"	"52,7/47,3"	"97/87"	184	stress_45	"POPTR_0004s14960.1"	2325	"	"G/A"	"76,9/23,1"	"20/6"	26
controllo_3	"POPTR_0004s14960.1"	2436	"	"G/A"	"52,7/47,3"	"69/62"	131	stress_12bis	"POPTR_0004s14960.1"	2436	"	"G/A"	"54,3/45,7"	"25/21"	46
controllo_3	"POPTR_0004s14960.1"	2436	"	"G/A"	"52,7/47,3"	"69/62"	131	stress_42	"POPTR_0004s14960.1"	2436	"	"G/A"	"53,3/46,7"	"8/7"	15
controllo_3	"POPTR_0004s14960.1"	2436	"	"G/A"	"52,7/47,3"	"69/62"	131	stress_45	"POPTR_0004s14960.1"	2436	"	"A/G"	"51,9/48,1"	"14/13"	27
controllo_3	"POPTR_0004s08380.1"	113	"	"G/A"	"52,7/47,3"	"880/789"	1669	stress_12bis	"POPTR_0004s08380.1"	113	"	"G/A"	"56,0/44,0"	"239/188"	427
controllo_3	"POPTR_0004s08380.1"	113	"	"G/A"	"52,7/47,3"	"880/789"	1669	stress_42	"POPTR_0004s08380.1"	113	"	"G/A"	"56,5/43,5"	"39/30"	69
controllo_3	"POPTR_0004s08380.1"	113	"	"G/A"	"52,7/47,3"	"880/789"	1669	stress_45	"POPTR_0004s08380.1"	113	"	"A/G"	"50,0/50,0"	"30/30"	60
controllo_3	"POPTR_0004s04860.1"	159	"	"A/G"	"52,7/47,3"	"109/98"	207	stress_12bis	"POPTR_0004s04860.1"	159	"	"G/A"	"52,7/47,3"	"29/26"	55
controllo_3	"POPTR_0004s04860.1"	159	"	"A/G"	"52,7/47,3"	"109/98"	207	stress_42	"POPTR_0004s04860.1"	159	"	"G/A"	"70,0/30,0"	"7/3"	10
controllo_3	"POPTR_0004s04860.1"	159	"	"A/G"	"52,7/47,3"	"109/98"	207	stress_45	"POPTR_0004s04860.1"	159	"	"A/G"	"50,0/50,0"	"9/9"	18
controllo_3	"POPTR_0004s17020.1"	1419	"	"T/A"	"52,7/47,3"	"68/61"	129	stress_12bis	"POPTR_0004s17020.1"	1419	"	"T/A"	"52,2/47,8"	"36/33"	69
controllo_3	"POPTR_0004s17020.1"	1419	"	"T/A"	"52,7/47,3"	"68/61"	129	stress_42	"POPTR_0004s17020.1"	1419	"	"A/T"	"67,5/32,5"	"79/38"	117
controllo_3	"POPTR_0004s17020.1"	1419	"	"T/A"	"52,7/47,3"	"68/61"	129	stress_45	"POPTR_0004s17020.1"	1419	"	"A/T"	"63,5/36,5"	"101/58"	159
controllo_3	"POPTR_0004s17020.1"	1710	"	"A/T"	"52,7/47,3"	"69/62"	131	stress_12bis	"POPTR_0004s17020.1"	1710	"	"T/A"	"50,5/49,5"	"47/46"	93
controllo_3	"POPTR_0004s17020.1"	1710	"	"A/T"	"52,7/47,3"	"69/62"	131	stress_42	"POPTR_0004s17020.1"	1710	"	"T/A"	"62,1/37,9"	"82/50"	132
controllo_3	"POPTR_0004s17020.1"	1710	"	"A/T"	"52,7/47,3"	"69/62"	131	stress_45	"POPTR_0004s17020.1"	1710	"	"T/A"	"61,5/38,5"	"99/62"	161
controllo_3	"POPTR_0009s08850.1"	349	"	"T/C"	"52,7/47,3"	"58/52"	110	stress_45	"POPTR_0009s08850.1"	349	"	"T/C"	"60,0/40,0"	"21/14"	35
controllo_3	"POPTR_0009s01320.1"	1773	"	"G/C"	"52,7/47,3"	"69/62"	131	stress_12bis	"POPTR_0009s01320.1"	1773	"	"G/C"	"58,4/41,6"	"80/57"	137
controllo_3	"POPTR_0009s01320.1"	1773	"	"G/C"	"52,7/47,3"	"69/62"	131	stress_42	"POPTR_0009s01320.1"	1773	"	"G/C"	"60,5/39,5"	"130/85"	215
controllo_3	"POPTR_0009s01320.1"	1773	"	"G/C"	"52,7/47,3"	"69/62"	131	stress_45	"POPTR_0009s01320.1"	1773	"	"G/C"	"53,9/46,1"	"103/88"	191
controllo_3	"POPTR_0009s08420.1"	550	"	"C/T"	"52,7/47,3"	"58/52"	110	stress_12bis	"POPTR_0009s08420.1"	550	"	"T/C"	"53,1/46,9"	"17/15"	32
controllo_3	"POPTR_0009s08420.1"	550	"	"C/T"	"52,7/47,3"	"58/52"	110	stress_42	"POPTR_0009s08420.1"	550	"	"T/C"	"52,4/47,6"	"11/10"	21
controllo_3	"POPTR_0009s08420.1"	550	"	"C/T"	"52,7/47,3"	"58/52"	110	stress_45	"POPTR_0009s08420.1"	550	"	"T/C"	"64,7/35,3"	"11/6"	17
controllo_3	"POPTR_0011s11390.1"	108	"	"G/A"	"52,7/47,3"	"753/676"	1429	stress_12bis	"POPTR_0011s11390.1"	108	"	"G/A"	"54,2/45,8"	"267/226"	493
controllo_3	"POPTR_0011s11390.1"	108	"	"G/A"	"52,7/47,3"	"753/676"	1429	stress_42	"POPTR_0011s11390.1"	108	"	"A/G"	"66,2/33,8"	"53/27"	80
controllo_3	"POPTR_0011s11390.1"	108	"	"G/A"	"52,7/47,3"	"753/676"	1429	stress_45	"POPTR_0011s11390.1"	108	"	"A/G"	"70,4/29,6"	"69/29"	98
controllo_3	"POPTR_0001s12960.1"	543	"	"T/C"	"52,7/47,3"	"58/52"	110	stress_12bis	"POPTR_0001s12960.1"	543	"	"C/T"	"55,6/44,4"	"15/12"	27
controllo_3	"POPTR_0001s12960.1"	543	"	"T/C"	"52,7/47,3"	"58/52"	110	stress_42	"POPTR_0001s12960.1"	543	"	"C/T"	"58,1/41,9"	"50/36"	86
controllo_3	"POPTR_0001s12960.1"	543	"	"T/C"	"52,7/47,3"	"58/52"	110	stress_45	"POPTR_0001s12960.1"	543	"	"C/T"	"54,5/44,6"	"61/50"	112
controllo_3	"POPTR_0001s10930.1"	414	"	"A/G"	"52,7/47,3"	"125/112"	237	stress_12bis	"POPTR_0001s10930.1"	414	"	"A/G"	"51,0/49,0"	"26/25"	51
controllo_3	"POPTR_0001s10930.1"	414	"	"A/G"	"52,7/47,3"	"125/112"	237	stress_42	"POPTR_0001s10930.1"	414	"	"G/A"	"56,9/43,1"	"29/22"	51
controllo_3	"POPTR_0001s10930.1"	414	"	"A/G"	"52,7/47,3"	"125/112"	237	stress_45	"POPTR_0001s10930.1"	414	"	"A/G"	"50,0/50,0"	"27/27"	54
controllo_3	"POPTR_0001s47020.1"	687	"	"T/C"	"52,7/47,3"	"87/78"	165	stress_12bis	"POPTR_0001s47020.1"	687	"	"T/C"	"59,5/40,5"	"22/15"	37
controllo_3	"POPTR_0001s47020.1"	687	"	"T/C"	"52,7/47,3"	"87/78"	165	stress_42	"POPTR_0001s47020.1"	687	"	"C/T"	"66,7/33,3"	"18/9"	27
controllo_3	"POPTR_0001s47020.1"	687	"	"T/C"	"52,7/47,3"	"87/78"	165	stress_45	"POPTR_0001s47020.1"	687	"	"C/T"	"53,6/46,4"	"45/39"	84
controllo_3	"POPTR_0001s07870.1"	1575	"	"C/A"	"52,7/47,3"	"79/71"	150	stress_12bis	"POPTR_0001s07870.1"	1575	"	"C/A"	"67,7/32,3"	"21/10"	31
controllo_3	"POPTR_0001s07870.1"	1575	"	"C/A"	"52,7/47,3"	"79/71"	150	stress_42	"POPTR_0001s07870.1"	1575	"	"C/A"	"62,2/37,8"	"23/14"	37
controllo_3	"POPTR_0001s07870.1"	1575	"	"C/A"	"52,7/47,3"	"79/71"	150	stress_45	"POPTR_0001s07870.1"	1575	"	"C/A"	"76,9/23,1"	"30/9"	39
controllo_3	"POPTR_0010s14080.1"	1802	"	"T/C"	"52,7/47,3"	"96/86"	182	stress_12bis	"POPTR_0010s14080.1"	1802	"	"T/C"	"76,7/23,3"	"69/21"	90
controllo_3	"POPTR_0010s14080.1"	1802	"	"T/C"	"52,7/47,3"	"96/86"	182	stress_42	"POPTR_0010s14080.1"	1802	"	"T/C"	"64,9/35,1"	"24/13"	37
controllo_3	"POPTR_0010s14080.1"	1802	"	"T/C"	"52,7/47,3"	"96/86"	182	stress_45	"POPTR_0010s14080.1"	1802	"	"T/C"	"66,0/34,0"	"31/16"	47
controllo_3	"POPTR_0010s19720.1"	270	"	"C/T"	"52,7/47,3"	"59/53"	112	stress_12bis	"POPTR_0010s19720.1"	270	"	"C/T"	"50,0/50,0"	"17/17"	34
controllo_3	"POPTR_0010s19720.1"	270	"	"C/T"	"52,7/47,3"	"59/53"	112	stress_45	"POPTR_0010s19720.1"	270	"	"C/T"	"52,9/47,1"	"9/8"	17
controllo_3	"POPTR_0007s04180.1"	184	"	"G/A"	"52,7/47,3"	"58/52"	110	stress_12bis	"POPTR_0007s04180.1"	184	"	"A/G"	"57,4/42,6"	"27/20"	47
controllo_3	"POPTR_0007s04180.1"	184	"	"G/A"	"52,7/47,3"	"58/52"	110	stress_42	"POPTR_0007s04180.1"	184	"	"A/G"	"50,0/50,0"	"9/9"	18
controllo_3	"POPTR_0007s04180.1"	184	"	"G/A"	"52,7/47,3"	"58/52"	110	stress_45	"POPTR_0007s04180.1"	184	"	"A/G"	"52,9/47,1"	"18/16"	34
controllo_3	"POPTR_0002s01320.1"	687	"	"A/G"	"52,7/47,3"	"328/294"	622	stress_12bis	"POPTR_0002s01320.1"	687	"	"A/G"	"58,6/41,4"	"92/65"	157
controllo_3	"POPTR_0002s01320.1"	687	"	"A/G"	"52,7/47,3"	"328/294"	622	stress_42	"POPTR_0002s01320.1"	687	"	"G/A"	"51,2/48,8"	"21/20"	41
controllo_3	"POPTR_0002s01320.1"	687	"	"A/G"	"52,7/47,3"	"328/294"	622	stress_45	"POPTR_0002s01320.1"	687	"	"A/G"	"55,3/44,7"	"47/38"	85
controllo_3	"POPTR_0002s08010.1"	234	"	"A/T"	"52,7/47,3"	"79/71"	150	stress_12bis	"POPTR_0002s08010.1"	234	"	"A/T"	"56,0/44,0"	"14/11"	25
controllo_3	"POPTR_0005s27240.1"	2094	"	"G/A"	"52,8/45,1"	"75/64"	142	stress_12bis	"POPTR_0005s27240.1"	2094	"	"G/A"	"74,4/25,6"	"96/33"	129
controllo_3	"POPTR_0005s27240.1"	2094	"	"G/A"	"52,8/45,1"	"75/64"	142	stress_42	"POPTR_0005s27240.1"	2094	"	"G/A"	"64,9/35,1"	"24/13"	37
controllo_3	"POPTR_0005s27240.1"	2094	"	"G/A"	"52,8/45,1"	"75/64"	142	stress_45	"POPTR_0005s27240.1"	2094	"	"G/A"	"55,6/44,4"	"45/36"	81
controllo_3	"POPTR_0013s07960.1"	338	"	"G/C"	"52,8/45,4"	"57/49"	108	stress_12bis	"POPTR_0013s07960.1"	338	"	"C/G"	"54,3/45,7"	"19/16"	35
controllo_3	"POPTR_0002s19710.1"	129	"	"G/C"	"52,8/45,6"	"95/82"	180	stress_12bis	"POPTR_0002s19710.1"	129	"	"C/G"	"59,7/40,3"	"40/27"	67
controllo_3	"POPTR_0002s19710.1"	129	"	"G/C"	"52,8/45,6"	"95/82"	180	stress_42	"POPTR_0002s19710.1"	129	"	"G/C"	"57,7/42,3"	"15/11"	26
controllo_3	"POPTR_0002s19710.1"	129	"	"G/C"	"52,8/45,6"	"95/82"	180	stress_45	"POPTR_0002s19710.1"	129	"	"G/C"	"66,7/30,0"	"20/9"	30
controllo_3	"POPTR_0001s29660.1"	172	"	"T/C"	"52,8/46,2"	"56/49"	106	stress_12bis	"POPTR_0001s29660.1"	172	"	"T/C"	"58,0/42,0"	"29/21"	50
controllo_3	"POPTR_0001s29660.1"	172	"	"T/C"	"52,8/46,2"	"56/49"	106	stress_42	"POPTR_0001s29660.1"	172	"	"C/T"	"62,5/37,5"	"10/6"	16
controllo_3	"POPTR_0001s29660.1"	172	"	"T/C"	"52,8/46,2"	"56/49"	106	stress_45	"POPTR_0001s29660.1"	172	"	"C/T"	"75,0/25,0"	"21/7"	28
controllo_3	"POPTR_0003s11300.1"	1566	"	"T/A"	"52,8/46,9"	"179/159"	339	stress_12bis	"POPTR_0003s11300.1"	1566	"	"T/A"	"65,7/34,3"	"69/36"	105
controllo_3	"POPTR_0003s11300.1"	1566	"	"T/A"	"52,8/46,9"	"179/159"	339	stress_42	"POPTR_0003s11300.1"	1566	"	"T/A"	"59,3/40,7"	"16/11"	27
controllo_3	"POPTR_0003s11300.1"	1566	"	"T/A"	"52,8/46,9"	"179/159"	339	stress_45	"POPTR_0003s11300.1"	1566	"	"A/T"	"50,0/50,0"	"13/13"	26
controllo_3	"POPTR_0014s14200.1"	636	"	"T/G"	"52,8/46,9"	"160/142"	303	stress_12bis	"POPTR_0014s14200.1"	636	"	"T/G"	"57,1/42,9"	"12/9"	21
controllo_3	"POPTR_0014s14200.1"	636	"	"T/G"	"52,8/46,9"	"160/142"	303	stress_42	"POPTR_0014s14200.1"	636	"	"T/G"	"75,0/25,0"	"24/8"	32
controllo_3	"POPTR_0014s14200.1"	636	"	"T/G"	"52,8/46,9"	"160/142"	303	stress_45	"POPTR_0014s14200.1"	636	"	"T/G"	"65,6/34,4"	"80/42"	122
controllo_3	"POPTR_0003s06370.1"	501	"	"C/T"	"52,8/47,0"	"363/323"	687	stress_12bis	"POPTR_0003s06370.1"	501	"	"C/T"	"81,8/18,2"	"45/10"	55
controllo_3	"POPTR_0011s14410.1"	597	"	"C/T"	"52,8/47,0"	"392/349"	742	stress_12bis	"POPTR_0011s14410.1"	597	"	"T/C"	"51,9/48,1"	"68/63"	131
controllo_3	"POPTR_0011s14410.1"	597	"	"C/T"	"52,8/47,0"	"392/349"	742	stress_42	"POPTR_0011s14410.1"	597	"	"C/T"	"65,0/35,0"	"13/7"	20
controllo_3	"POPTR_0011s14410.1"	597	"	"C/T"	"52,8/47,0"	"392/349"	742	stress_45	"POPTR_0011s14410.1"	597	"	"T/C"	"52,8/47,2"	"19/17"	36
controllo_3	"POPTR_0005s15660.1"	228	"	"C/T"	"52,8/47,1"	"10187/9090"	19279	stress_12bis	"POPTR_0005s15660.1"	228	"	"C/T"	"54,3/45,7"	"2714/2287"	5001
controllo_3	"POPTR_0005s15660.1"	228	"	"C/T"	"52,8/47,1"	"10187/9090"	19279	stress_42	"POPTR_0005s15660.1"	228	"	"C/T"	"58,4/41,6"	"855/608"	1463
controllo_3	"POPTR_0005s15660.1"	228	"	"C/T"	"52,8/47,1"	"10187/9090"	19279	stress_45	"POPTR_0005s15660.1"	228	"	"C/T"	"58,8/41,1"	"738/516"	1255
controllo_3	"POPTR_0005s27690.1"	2247	"	"C/T"	"52,8/47,2"	"57/51"	108	stress_12bis	"POPTR_0005s27690.1"	2247	"	"C/T"	"57,1/42,9"	"12/9"	21
controllo_3	"POPTR_0005s05980.1"	318	"	"A/C"	"52,8/47,2"	"75/67"	142	stress_12bis	"POPTR_0005s05980.1"	318	"	"A/C"	"55,6/44,4"	"40/32"	72
controllo_3	"POPTR_0005s05980.1"	318	"	"A/C"	"52,8/47,2"	"75/67"	142	stress_42	"POPTR_0005s05980.1"	318	"	"A/C"	"63,6/36,4"	"21/12"	33
controllo_3	"POPTR_0005s05980.1"	318	"	"A/C"	"52,8/47,2"	"75/67"	142	stress_45	"POPTR_0005s05980.1"	318	"	"C/A"	"67,3/32,7"	"33/16"	49
controllo_3	"POPTR_0005s20920.1"	273	"	"C/A"	"52,8/47,2"	"246/220"	466	stress_12bis	"POPTR_0005s20920.1"	273	"	"A/C"	"51,3/47,9"	"61/57"	119
controllo_3	"POPTR_0005s20920.1"	273	"	"C/A"	"52,8/47,2"	"246/220"	466	stress_45	"POPTR_0005s20920.1"	273	"	"A/C"	"54,5/36,4"	"6/4"	11
controllo_3	"POPTR_0017s06920.1"	999	"	"C/A"	"52,8/47,2"	"306/274"	580	stress_12bis	"POPTR_0017s06920.1"	999	"	"C/A"	"50,7/49,3"	"77/75"	152
controllo_3	"POPTR_0006s08230.1"	282	"	"G/A"	"52,8/47,2"	"66/59"	125	stress_12bis	"POPTR_0006s08230.1"	282	"	"G/A"	"70,6/29,4"	"12/5"	17
controllo_3	"POPTR_0006s08230.1"	282	"	"G/A"	"52,8/47,2"	"66/59"	125	stress_42	"POPTR_0006s08230.1"	282	"	"A/G"	"58,3/41,7"	"21/15"	36
controllo_3	"POPTR_0006s08230.1"	282	"	"G/A"	"52,8/47,2"	"66/59"	125	stress_45	"POPTR_0006s08230.1"	282	"	"G/A"	"55,2/44,8"	"32/26"	58
controllo_3	"POPTR_0018s02960.1"	507	"	"A/C"	"52,8/47,2"	"85/76"	161	stress_12bis	"POPTR_0018s02960.1"	507	"	"A/C"	"50,0/50,0"	"6/6"	12
controllo_3	"POPTR_0018s02960.1"	507	"	"A/C"	"52,8/47,2"	"85/76"	161	stress_42	"POPTR_0018s02960.1"	507	"	"C/A"	"84,2/15,8"	"16/3"	19
controllo_3	"POPTR_0018s02960.1"	507	"	"A/C"	"52,8/47,2"	"85/76"	161	stress_45	"POPTR_0018s02960.1"	507	"	"A/C"	"52,9/47,1"	"9/8"	17
controllo_3	"POPTR_0003s14170.1"	72	"	"T/A"	"52,8/47,2"	"104/93"	197	stress_12bis	"POPTR_0003s14170.1"	72	"	"A/T"	"51,9/48,1"	"14/13"	27
controllo_3	"POPTR_0019s08090.1"	504	"	"T/C"	"52,8/47,2"	"65/58"	123	stress_12bis	"POPTR_0019s08090.1"	504	"	"T/C"	"60,5/39,5"	"26/17"	43
controllo_3	"POPTR_0019s08090.1"	504	"	"T/C"	"52,8/47,2"	"65/58"	123	stress_42	"POPTR_0019s08090.1"	504	"	"C/T"	"78,3/21,7"	"36/10"	46
controllo_3	"POPTR_0019s08090.1"	504	"	"T/C"	"52,8/47,2"	"65/58"	123	stress_45	"POPTR_0019s08090.1"	504	"	"C/T"	"59,1/40,9"	"26/18"	44
controllo_3	"POPTR_0013s08620.1"	165	"	"A/G"	"52,8/47,2"	"56/50"	106	stress_12bis	"POPTR_0013s08620.1"	165	"	"A/G"	"69,2/30,8"	"18/8"	26
controllo_3	"POPTR_0013s08620.1"	165	"	"A/G"	"52,8/47,2"	"56/50"	106	stress_42	"POPTR_0013s08620.1"	165	"	"A/G"	"61,5/38,5"	"8/5"	13
controllo_3	"POPTR_0013s08620.1"	165	"	"A/G"	"52,8/47,2"	"56/50"	106	stress_45	"POPTR_0013s08620.1"	165	"	"A/G"	"63,6/36,4"	"7/4"	11
controllo_3	"POPTR_0014s10200.1"	471	"	"A/G"	"52,8/47,2"	"410/366"	776	stress_12bis	"POPTR_0014s10200.1"	471	"	"A/G"	"63,4/36,6"	"137/79"	216
controllo_3	"POPTR_0014s10200.1"	471	"	"A/G"	"52,8/47,2"	"410/366"	776	stress_42	"POPTR_0014s10200.1"	471	"	"A/G"	"58,0/42,0"	"47/34"	81
controllo_3	"POPTR_0014s10200.1"	471	"	"A/G"	"52,8/47,2"	"410/366"	776	stress_45	"POPTR_0014s10200.1"	471	"	"A/G"	"72,4/27,6"	"63/24"	87
controllo_3	"POPTR_0014s17280.1"	558	"	"G/A"	"52,8/47,2"	"66/59"	125	stress_12bis	"POPTR_0014s17280.1"	558	"	"G/A"	"55,9/44,1"	"19/15"	34
controllo_3	"POPTR_0014s17280.1"	558	"	"G/A"	"52,8/47,2"	"66/59"	125	stress_42	"POPTR_0014s17280.1"	558	"	"A/G"	"57,1/42,9"	"24/18"	42
controllo_3	"POPTR_0014s17280.1"	558	"	"G/A"	"52,8/47,2"	"66/59"	125	stress_45	"POPTR_0014s17280.1"	558	"	"A/G"	"54,8/45,2"	"23/19"	42
controllo_3	"POPTR_0014s09760.1"	440	"	"G/T"	"52,8/47,2"	"66/59"	125	stress_12bis	"POPTR_0014s09760.1"	440	"	"G/T"	"50,0/50,0"	"17/17"	34
controllo_3	"POPTR_0014s09760.1"	440	"	"G/T"	"52,8/47,2"	"66/59"	125	stress_42	"POPTR_0014s09760.1"	440	"	"G/T"	"52,9/47,1"	"9/8"	17
controllo_3	"POPTR_0014s09760.1"	440	"	"G/T"	"52,8/47,2"	"66/59"	125	stress_45	"POPTR_0014s09760.1"	440	"	"T/G"	"54,2/45,8"	"13/11"	24
controllo_3	"POPTR_0004s19380.1"	114	"	"G/A"	"52,8/47,2"	"57/51"	108	stress_12bis	"POPTR_0004s19380.1"	114	"	"A/G"	"73,3/26,7"	"44/16"	60
controllo_3	"POPTR_0004s19380.1"	114	"	"G/A"	"52,8/47,2"	"57/51"	108	stress_42	"POPTR_0004s19380.1"	114	"	"A/G"	"58,3/41,7"	"7/5"	12
controllo_3	"POPTR_0004s19380.1"	114	"	"G/A"	"52,8/47,2"	"57/51"	108	stress_45	"POPTR_0004s19380.1"	114	"	"A/G"	"58,3/41,7"	"7/5"	12
controllo_3	"POPTR_0004s24420.1"	225	"	"A/C"	"52,8/47,2"	"95/85"	180	stress_12bis	"POPTR_0004s24420.1"	225	"	"A/C"	"56,2/43,8"	"41/32"	73
controllo_3	"POPTR_0004s24420.1"	225	"	"A/C"	"52,8/47,2"	"95/85"	180	stress_42	"POPTR_0004s24420.1"	225	"	"A/C"	"68,4/31,6"	"54/25"	79
controllo_3	"POPTR_0004s24420.1"	225	"	"A/C"	"52,8/47,2"	"95/85"	180	stress_45	"POPTR_0004s24420.1"	225	"	"A/C"	"66,3/33,7"	"59/30"	89
controllo_3	"POPTR_0009s12710.1"	1131	"	"T/C"	"52,8/47,2"	"1726/1542"	3269	stress_12bis	"POPTR_0009s12710.1"	1131	"	"T/C"	"54,4/45,6"	"613/514"	1127
controllo_3	"POPTR_0009s12710.1"	1131	"	"T/C"	"52,8/47,2"	"1726/1542"	3269	stress_42	"POPTR_0009s12710.1"	1131	"	"T/C"	"53,1/46,9"	"111/98"	209
controllo_3	"POPTR_0009s12710.1"	1131	"	"T/C"	"52,8/47,2"	"1726/1542"	3269	stress_45	"POPTR_0009s12710.1"	1131	"	"T/C"	"51,5/48,5"	"121/114"	235
controllo_3	"POPTR_0009s01470.1"	1146	"	"G/A"	"52,8/47,2"	"94/84"	178	stress_12bis	"POPTR_0009s01470.1"	1146	"	"G/A"	"57,4/42,6"	"31/23"	54
controllo_3	"POPTR_0009s01470.1"	1146	"	"G/A"	"52,8/47,2"	"94/84"	178	stress_42	"POPTR_0009s01470.1"	1146	"	"G/A"	"56,7/43,3"	"17/13"	30
controllo_3	"POPTR_0009s01470.1"	1146	"	"G/A"	"52,8/47,2"	"94/84"	178	stress_45	"POPTR_0009s01470.1"	1146	"	"G/A"	"52,4/47,6"	"22/20"	42
controllo_3	"POPTR_0012s07060.1"	105	"	"A/G"	"52,8/47,2"	"198/177"	375	stress_12bis	"POPTR_0012s07060.1"	105	"	"A/G"	"53,5/46,5"	"69/60"	129
controllo_3	"POPTR_0012s07060.1"	105	"	"A/G"	"52,8/47,2"	"198/177"	375	stress_42	"POPTR_0012s07060.1"	105	"	"G/A"	"56,9/43,1"	"33/25"	58
controllo_3	"POPTR_0012s07060.1"	105	"	"A/G"	"52,8/47,2"	"198/177"	375	stress_45	"POPTR_0012s07060.1"	105	"	"G/A"	"54,8/45,2"	"51/42"	93
controllo_3	"POPTR_0012s11410.1"	177	"	"A/G"	"52,8/47,2"	"86/77"	163	stress_12bis	"POPTR_0012s11410.1"	177	"	"A/G"	"61,1/38,9"	"22/14"	36
controllo_3	"POPTR_0012s11410.1"	177	"	"A/G"	"52,8/47,2"	"86/77"	163	stress_42	"POPTR_0012s11410.1"	177	"	"G/A"	"51,9/48,1"	"14/13"	27
controllo_3	"POPTR_0012s11410.1"	177	"	"A/G"	"52,8/47,2"	"86/77"	163	stress_45	"POPTR_0012s11410.1"	177	"	"A/G"	"68,6/31,4"	"24/11"	35
controllo_3	"POPTR_0001s47020.1"	297	"	"A/G"	"52,8/47,2"	"112/100"	212	stress_12bis	"POPTR_0001s47020.1"	297	"	"G/A"	"53,2/46,8"	"33/29"	62
controllo_3	"POPTR_0001s47020.1"	297	"	"A/G"	"52,8/47,2"	"112/100"	212	stress_42	"POPTR_0001s47020.1"	297	"	"A/G"	"50,0/50,0"	"19/19"	38
controllo_3	"POPTR_0001s47020.1"	297	"	"A/G"	"52,8/47,2"	"112/100"	212	stress_45	"POPTR_0001s47020.1"	297	"	"G/A"	"60,7/39,3"	"51/33"	84
controllo_3	"POPTR_0001s07870.1"	207	"	"A/G"	"52,8/47,2"	"102/91"	193	stress_12bis	"POPTR_0001s07870.1"	207	"	"G/A"	"57,9/42,1"	"11/8"	19
controllo_3	"POPTR_0001s07870.1"	207	"	"A/G"	"52,8/47,2"	"102/91"	193	stress_42	"POPTR_0001s07870.1"	207	"	"A/G"	"70,8/29,2"	"17/7"	24
controllo_3	"POPTR_0001s07870.1"	207	"	"A/G"	"52,8/47,2"	"102/91"	193	stress_45	"POPTR_0001s07870.1"	207	"	"A/G"	"63,6/36,4"	"35/20"	55
controllo_3	"POPTR_0010s26000.1"	1779	"	"T/C"	"52,8/47,2"	"56/50"	106	stress_12bis	"POPTR_0010s26000.1"	1779	"	"C/T"	"51,4/48,6"	"18/17"	35
controllo_3	"POPTR_0010s26000.1"	1779	"	"T/C"	"52,8/47,2"	"56/50"	106	stress_42	"POPTR_0010s26000.1"	1779	"	"C/T"	"52,9/47,1"	"36/32"	68
controllo_3	"POPTR_0010s26000.1"	1779	"	"T/C"	"52,8/47,2"	"56/50"	106	stress_45	"POPTR_0010s26000.1"	1779	"	"C/T"	"53,2/46,8"	"41/36"	77
controllo_3	"POPTR_0010s14080.1"	2640	"	"G/C"	"52,8/47,2"	"142/127"	269	stress_12bis	"POPTR_0010s14080.1"	2640	"	"G/C"	"66,4/33,6"	"83/42"	125
controllo_3	"POPTR_0010s14080.1"	2640	"	"G/C"	"52,8/47,2"	"142/127"	269	stress_42	"POPTR_0010s14080.1"	2640	"	"G/C"	"72,6/27,4"	"53/20"	73
controllo_3	"POPTR_0010s14080.1"	2640	"	"G/C"	"52,8/47,2"	"142/127"	269	stress_45	"POPTR_0010s14080.1"	2640	"	"G/C"	"65,5/34,5"	"55/29"	84
controllo_3	"POPTR_0010s20810.1"	333	"	"C/T"	"52,8/47,2"	"610/545"	1155	stress_12bis	"POPTR_0010s20810.1"	333	"	"C/T"	"51,7/48,3"	"212/198"	410
controllo_3	"POPTR_0010s20810.1"	333	"	"C/T"	"52,8/47,2"	"610/545"	1155	stress_42	"POPTR_0010s20810.1"	333	"	"T/C"	"60,0/40,0"	"15/10"	25
controllo_3	"POPTR_0010s20810.1"	333	"	"C/T"	"52,8/47,2"	"610/545"	1155	stress_45	"POPTR_0010s20810.1"	333	"	"T/C"	"69,2/26,9"	"18/7"	26
controllo_3	"POPTR_0010s05170.1"	594	"	"G/T"	"52,8/47,2"	"196/175"	371	stress_12bis	"POPTR_0010s05170.1"	594	"	"G/T"	"60,0/40,0"	"12/8"	20
controllo_3	"POPTR_0007s02460.1"	897	"	"T/C"	"52,8/47,2"	"65/58"	123	stress_12bis	"POPTR_0007s02460.1"	897	"	"T/C"	"56,0/44,0"	"14/11"	25
controllo_3	"POPTR_0007s02460.1"	897	"	"T/C"	"52,8/47,2"	"65/58"	123	stress_42	"POPTR_0007s02460.1"	897	"	"T/C"	"65,8/34,2"	"25/13"	38
controllo_3	"POPTR_0007s02460.1"	897	"	"T/C"	"52,8/47,2"	"65/58"	123	stress_45	"POPTR_0007s02460.1"	897	"	"T/C"	"62,1/37,9"	"36/22"	58
controllo_3	"POPTR_0002s14730.1"	1578	"	"G/A"	"52,8/47,2"	"270/241"	511	stress_12bis	"POPTR_0002s14730.1"	1578	"	"G/A"	"57,1/42,9"	"80/60"	140
controllo_3	"POPTR_0002s14730.1"	1578	"	"G/A"	"52,8/47,2"	"270/241"	511	stress_42	"POPTR_0002s14730.1"	1578	"	"G/A"	"66,7/33,3"	"16/8"	24
controllo_3	"POPTR_0002s14730.1"	1578	"	"G/A"	"52,8/47,2"	"270/241"	511	stress_45	"POPTR_0002s14730.1"	1578	"	"G/A"	"70,3/29,7"	"26/11"	37
controllo_3	"POPTR_0002s02310.1"	93	"	"G/A"	"52,8/47,2"	"67/60"	127	stress_12bis	"POPTR_0002s02310.1"	93	"	"G/A"	"52,6/47,4"	"20/18"	38
controllo_3	"POPTR_0002s02310.1"	93	"	"G/A"	"52,8/47,2"	"67/60"	127	stress_42	"POPTR_0002s02310.1"	93	"	"A/G"	"57,4/42,6"	"31/23"	54
controllo_3	"POPTR_0002s02310.1"	93	"	"G/A"	"52,8/47,2"	"67/60"	127	stress_45	"POPTR_0002s02310.1"	93	"	"A/G"	"53,1/46,9"	"26/23"	49
controllo_3	"POPTR_0008s19160.1"	1220	"	"G/T"	"52,8/47,2"	"112/100"	212	stress_12bis	"POPTR_0008s19160.1"	1220	"	"G/T"	"54,7/45,3"	"41/34"	75
controllo_3	"POPTR_0008s12550.1"	72	"	"A/T"	"52,8/47,2"	"66/59"	125	stress_12bis	"POPTR_0008s12550.1"	72	"	"A/T"	"65,5/34,5"	"19/10"	29
controllo_3	"POPTR_0008s12550.1"	72	"	"A/T"	"52,8/47,2"	"66/59"	125	stress_42	"POPTR_0008s12550.1"	72	"	"A/T"	"55,4/44,6"	"36/29"	65
controllo_3	"POPTR_0008s12550.1"	72	"	"A/T"	"52,8/47,2"	"66/59"	125	stress_45	"POPTR_0008s12550.1"	72	"	"A/T"	"54,5/45,5"	"54/45"	99
controllo_3	"POPTR_0008s15100.1"	591	"	"T/C"	"52,8/47,2"	"159/142"	301	stress_12bis	"POPTR_0008s15100.1"	591	"	"T/C"	"50,8/49,2"	"61/59"	120
controllo_3	"POPTR_0008s15100.1"	591	"	"T/C"	"52,8/47,2"	"159/142"	301	stress_42	"POPTR_0008s15100.1"	591	"	"T/C"	"58,1/39,5"	"25/17"	43
controllo_3	"POPTR_0008s15100.1"	591	"	"T/C"	"52,8/47,2"	"159/142"	301	stress_45	"POPTR_0008s15100.1"	591	"	"C/T"	"48,5/48,5"	"16/16"	33
controllo_3	"POPTR_0008s15290.1"	651	"	"G/A"	"52,8/47,2"	"86/77"	163	stress_12bis	"POPTR_0008s15290.1"	651	"	"G/A"	"60,0/40,0"	"39/26"	65
controllo_3	"POPTR_0008s15290.1"	651	"	"G/A"	"52,8/47,2"	"86/77"	163	stress_42	"POPTR_0008s15290.1"	651	"	"A/G"	"51,0/49,0"	"26/25"	51
controllo_3	"POPTR_0008s15290.1"	651	"	"G/A"	"52,8/47,2"	"86/77"	163	stress_45	"POPTR_0008s15290.1"	651	"	"A/G"	"55,8/44,2"	"48/38"	86
controllo_3	"POPTR_0016s02440.1"	1005	"	"G/A"	"52,8/47,2"	"67/60"	127	stress_12bis	"POPTR_0016s02440.1"	1005	"	"G/A"	"57,1/42,9"	"12/9"	21
controllo_3	"POPTR_0016s02440.1"	1005	"	"G/A"	"52,8/47,2"	"67/60"	127	stress_42	"POPTR_0016s02440.1"	1005	"	"G/A"	"60,0/40,0"	"6/4"	10
controllo_3	"POPTR_0016s02440.1"	1005	"	"G/A"	"52,8/47,2"	"67/60"	127	stress_45	"POPTR_0016s02440.1"	1005	"	"A/G"	"48,1/48,1"	"13/13"	27
controllo_3	"POPTR_0016s12100.1"	1249	"	"G/A"	"52,8/47,2"	"56/50"	106	stress_12bis	"POPTR_0016s12100.1"	1249	"	"G/A"	"80,0/20,0"	"8/2"	10
controllo_3	"POPTR_0025s00560.1"	2004	"	"C/T"	"52,8/47,2"	"57/51"	108	stress_12bis	"POPTR_0025s00560.1"	2004	"	"C/T"	"50,0/50,0"	"15/15"	30
controllo_3	"POPTR_0025s00560.1"	2004	"	"C/T"	"52,8/47,2"	"57/51"	108	stress_42	"POPTR_0025s00560.1"	2004	"	"C/T"	"57,5/42,5"	"23/17"	40
controllo_3	"POPTR_0025s00560.1"	2004	"	"C/T"	"52,8/47,2"	"57/51"	108	stress_45	"POPTR_0025s00560.1"	2004	"	"C/T"	"58,9/41,1"	"43/30"	73
controllo_3	"POPTR_0004s17030.1"	381	"	"T/A"	"52,9/46,1"	"54/47"	102	stress_12bis	"POPTR_0004s17030.1"	381	"	"A/T"	"50,0/46,2"	"13/12"	26
controllo_3	"POPTR_0004s17030.1"	381	"	"T/A"	"52,9/46,1"	"54/47"	102	stress_42	"POPTR_0004s17030.1"	381	"	"A/T"	"48,9/44,4"	"22/20"	45
controllo_3	"POPTR_0004s17030.1"	381	"	"T/A"	"52,9/46,1"	"54/47"	102	stress_45	"POPTR_0004s17030.1"	381	"	"A/T"	"48,7/48,7"	"19/19"	39
controllo_3	"POPTR_0005s06420.1"	187	"	"G/A"	"52,9/47,1"	"90/80"	170	stress_12bis	"POPTR_0005s06420.1"	187	"	"G/A"	"79,1/20,9"	"34/9"	43
controllo_3	"POPTR_0005s06420.1"	187	"	"G/A"	"52,9/47,1"	"90/80"	170	stress_42	"POPTR_0005s06420.1"	187	"	"G/A"	"61,5/38,5"	"8/5"	13
controllo_3	"POPTR_0005s06420.1"	187	"	"G/A"	"52,9/47,1"	"90/80"	170	stress_45	"POPTR_0005s06420.1"	187	"	"A/G"	"63,6/36,4"	"7/4"	11
controllo_3	"POPTR_0005s08740.1"	420	"	"G/C"	"52,9/47,1"	"54/48"	102	stress_12bis	"POPTR_0005s08740.1"	420	"	"C/G"	"63,2/36,8"	"12/7"	19
controllo_3	"POPTR_0017s08610.1"	1095	"	"T/C"	"52,9/47,1"	"72/64"	136	stress_12bis	"POPTR_0017s08610.1"	1095	"	"C/T"	"60,0/40,0"	"6/4"	10
controllo_3	"POPTR_0017s08610.1"	1095	"	"T/C"	"52,9/47,1"	"72/64"	136	stress_42	"POPTR_0017s08610.1"	1095	"	"T/C"	"65,7/34,3"	"94/49"	143
controllo_3	"POPTR_0017s08610.1"	1095	"	"T/C"	"52,9/47,1"	"72/64"	136	stress_45	"POPTR_0017s08610.1"	1095	"	"T/C"	"60,1/39,9"	"161/107"	268
controllo_3	"POPTR_0017s01760.1"	478	"	"G/A"	"52,9/47,1"	"72/64"	136	stress_12bis	"POPTR_0017s01760.1"	478	"	"G/A"	"53,8/46,2"	"14/12"	26
controllo_3	"POPTR_0017s01760.1"	478	"	"G/A"	"52,9/47,1"	"72/64"	136	stress_42	"POPTR_0017s01760.1"	478	"	"G/A"	"56,8/43,2"	"25/19"	44
controllo_3	"POPTR_0017s01760.1"	478	"	"G/A"	"52,9/47,1"	"72/64"	136	stress_45	"POPTR_0017s01760.1"	478	"	"G/A"	"54,3/45,7"	"38/32"	70
controllo_3	"POPTR_0017s07800.1"	127	"	"G/A"	"52,9/47,1"	"73/65"	138	stress_12bis	"POPTR_0017s07800.1"	127	"	"A/G"	"61,0/36,6"	"25/15"	41
controllo_3	"POPTR_0017s07800.1"	127	"	"G/A"	"52,9/47,1"	"73/65"	138	stress_42	"POPTR_0017s07800.1"	127	"	"A/G"	"72,7/27,3"	"8/3"	11
controllo_3	"POPTR_0006s18760.1"	546	"	"T/C"	"52,9/47,1"	"55/49"	104	stress_12bis	"POPTR_0006s18760.1"	546	"	"T/C"	"80,0/20,0"	"12/3"	15
controllo_3	"POPTR_0006s16370.1"	420	"	"C/G"	"52,9/47,1"	"54/48"	102	stress_12bis	"POPTR_0006s16370.1"	420	"	"C/G"	"70,0/30,0"	"28/12"	40
controllo_3	"POPTR_0006s16370.1"	420	"	"C/G"	"52,9/47,1"	"54/48"	102	stress_45	"POPTR_0006s16370.1"	420	"	"C/G"	"61,5/38,5"	"8/5"	13
controllo_3	"POPTR_0006s04960.1"	1905	"	"C/T"	"52,9/47,1"	"120/107"	227	stress_12bis	"POPTR_0006s04960.1"	1905	"	"C/T"	"55,3/44,7"	"26/21"	47
controllo_3	"POPTR_0006s04960.1"	1905	"	"C/T"	"52,9/47,1"	"120/107"	227	stress_42	"POPTR_0006s04960.1"	1905	"	"C/T"	"84,6/15,4"	"11/2"	13
controllo_3	"POPTR_0006s04960.1"	1905	"	"C/T"	"52,9/47,1"	"120/107"	227	stress_45	"POPTR_0006s04960.1"	1905	"	"C/T"	"54,2/45,8"	"13/11"	24
controllo_3	"POPTR_0006s10040.1"	126	"	"G/A"	"52,9/47,1"	"244/217"	461	stress_12bis	"POPTR_0006s10040.1"	126	"	"G/A"	"51,7/48,3"	"140/131"	271
controllo_3	"POPTR_0006s10040.1"	126	"	"G/A"	"52,9/47,1"	"244/217"	461	stress_42	"POPTR_0006s10040.1"	126	"	"G/A"	"70,7/29,3"	"58/24"	82
controllo_3	"POPTR_0006s10040.1"	126	"	"G/A"	"52,9/47,1"	"244/217"	461	stress_45	"POPTR_0006s10040.1"	126	"	"G/A"	"63,3/36,7"	"81/47"	128
controllo_3	"POPTR_0006s10040.1"	198	"	"C/A"	"52,9/47,1"	"199/177"	376	stress_12bis	"POPTR_0006s10040.1"	198	"	"A/C"	"50,7/49,3"	"137/133"	270
controllo_3	"POPTR_0006s10040.1"	198	"	"C/A"	"52,9/47,1"	"199/177"	376	stress_42	"POPTR_0006s10040.1"	198	"	"C/A"	"52,9/47,1"	"54/48"	102
controllo_3	"POPTR_0006s10040.1"	198	"	"C/A"	"52,9/47,1"	"199/177"	376	stress_45	"POPTR_0006s10040.1"	198	"	"C/A"	"51,1/48,9"	"48/46"	94
controllo_3	"POPTR_0018s02230.1"	119	"	"C/A"	"52,9/47,1"	"83/74"	157	stress_12bis	"POPTR_0018s02230.1"	119	"	"A/C"	"53,6/46,4"	"37/32"	69
controllo_3	"POPTR_0018s02230.1"	119	"	"C/A"	"52,9/47,1"	"83/74"	157	stress_42	"POPTR_0018s02230.1"	119	"	"A/C"	"67,4/32,6"	"58/28"	86
controllo_3	"POPTR_0018s02230.1"	119	"	"C/A"	"52,9/47,1"	"83/74"	157	stress_45	"POPTR_0018s02230.1"	119	"	"A/C"	"61,1/38,9"	"99/63"	162
controllo_3	"POPTR_0018s02960.1"	1062	"	"C/A"	"52,9/47,1"	"63/56"	119	stress_12bis	"POPTR_0018s02960.1"	1062	"	"A/C"	"56,2/43,8"	"9/7"	16
controllo_3	"POPTR_0018s02960.1"	1062	"	"C/A"	"52,9/47,1"	"63/56"	119	stress_42	"POPTR_0018s02960.1"	1062	"	"A/C"	"61,1/38,9"	"11/7"	18
controllo_3	"POPTR_0018s02960.1"	1062	"	"C/A"	"52,9/47,1"	"63/56"	119	stress_45	"POPTR_0018s02960.1"	1062	"	"A/C"	"65,0/35,0"	"13/7"	20
controllo_3	"POPTR_0003s09830.1"	92	"	"G/A"	"52,9/47,1"	"332/296"	628	stress_12bis	"POPTR_0003s09830.1"	92	"	"A/G"	"51,2/48,8"	"65/62"	127
controllo_3	"POPTR_0003s09830.1"	92	"	"G/A"	"52,9/47,1"	"332/296"	628	stress_42	"POPTR_0003s09830.1"	92	"	"A/G"	"53,6/46,4"	"15/13"	28
controllo_3	"POPTR_0003s09830.1"	92	"	"G/A"	"52,9/47,1"	"332/296"	628	stress_45	"POPTR_0003s09830.1"	92	"	"A/G"	"52,6/47,4"	"20/18"	38
controllo_3	"POPTR_0003s09830.1"	579	"	"G/A"	"52,9/47,1"	"397/353"	750	stress_12bis	"POPTR_0003s09830.1"	579	"	"G/A"	"50,3/49,7"	"78/77"	155
controllo_3	"POPTR_0003s09830.1"	579	"	"G/A"	"52,9/47,1"	"397/353"	750	stress_42	"POPTR_0003s09830.1"	579	"	"G/A"	"51,6/48,4"	"16/15"	31
controllo_3	"POPTR_0003s09830.1"	579	"	"G/A"	"52,9/47,1"	"397/353"	750	stress_45	"POPTR_0003s09830.1"	579	"	"A/G"	"50,0/50,0"	"23/23"	46
controllo_3	"POPTR_0013s01930.1"	669	"	"C/T"	"52,9/47,1"	"55/49"	104	stress_12bis	"POPTR_0013s01930.1"	669	"	"C/T"	"52,8/47,2"	"28/25"	53
controllo_3	"POPTR_0013s01930.1"	669	"	"C/T"	"52,9/47,1"	"55/49"	104	stress_42	"POPTR_0013s01930.1"	669	"	"T/C"	"60,0/40,0"	"9/6"	15
controllo_3	"POPTR_0013s01930.1"	669	"	"C/T"	"52,9/47,1"	"55/49"	104	stress_45	"POPTR_0013s01930.1"	669	"	"C/T"	"66,7/33,3"	"12/6"	18
controllo_3	"POPTR_0013s01930.1"	687	"	"G/A"	"52,9/47,1"	"64/57"	121	stress_12bis	"POPTR_0013s01930.1"	687	"	"A/G"	"60,7/39,3"	"34/22"	56
controllo_3	"POPTR_0013s01930.1"	687	"	"G/A"	"52,9/47,1"	"64/57"	121	stress_42	"POPTR_0013s01930.1"	687	"	"G/A"	"55,0/45,0"	"11/9"	20
controllo_3	"POPTR_0013s01930.1"	687	"	"G/A"	"52,9/47,1"	"64/57"	121	stress_45	"POPTR_0013s01930.1"	687	"	"A/G"	"71,4/28,6"	"15/6"	21
controllo_3	"POPTR_0004s01660.1"	300	"	"C/T"	"52,9/47,1"	"54/48"	102	stress_12bis	"POPTR_0004s01660.1"	300	"	"C/T"	"57,1/42,9"	"36/27"	63
controllo_3	"POPTR_0004s01660.1"	300	"	"C/T"	"52,9/47,1"	"54/48"	102	stress_42	"POPTR_0004s01660.1"	300	"	"C/T"	"70,0/30,0"	"7/3"	10
controllo_3	"POPTR_0004s01660.1"	300	"	"C/T"	"52,9/47,1"	"54/48"	102	stress_45	"POPTR_0004s01660.1"	300	"	"C/T"	"50,0/50,0"	"5/5"	10
controllo_3	"POPTR_0004s00480.1"	441	"	"T/C"	"52,9/47,1"	"154/137"	291	stress_12bis	"POPTR_0004s00480.1"	441	"	"C/T"	"53,2/46,8"	"82/72"	154
controllo_3	"POPTR_0004s00480.1"	441	"	"T/C"	"52,9/47,1"	"154/137"	291	stress_42	"POPTR_0004s00480.1"	441	"	"T/C"	"61,5/38,5"	"59/37"	96
controllo_3	"POPTR_0004s00480.1"	441	"	"T/C"	"52,9/47,1"	"154/137"	291	stress_45	"POPTR_0004s00480.1"	441	"	"T/C"	"58,5/41,5"	"72/51"	123
controllo_3	"POPTR_0009s05840.1"	334	"	"A/G"	"52,9/47,1"	"117/104"	221	stress_12bis	"POPTR_0009s05840.1"	334	"	"A/G"	"61,3/38,7"	"19/12"	31
controllo_3	"POPTR_0009s05840.1"	334	"	"A/G"	"52,9/47,1"	"117/104"	221	stress_42	"POPTR_0009s05840.1"	334	"	"A/G"	"52,1/47,9"	"37/34"	71
controllo_3	"POPTR_0009s05840.1"	334	"	"A/G"	"52,9/47,1"	"117/104"	221	stress_45	"POPTR_0009s05840.1"	334	"	"A/G"	"55,9/44,1"	"90/71"	161
controllo_3	"POPTR_0009s04820.1"	199	"	"C/A"	"52,9/47,1"	"63/56"	119	stress_12bis	"POPTR_0009s04820.1"	199	"	"A/C"	"60,0/36,7"	"18/11"	30
controllo_3	"POPTR_0009s04820.1"	199	"	"C/A"	"52,9/47,1"	"63/56"	119	stress_42	"POPTR_0009s04820.1"	199	"	"C/A"	"65,0/35,0"	"13/7"	20
controllo_3	"POPTR_0009s04820.1"	199	"	"C/A"	"52,9/47,1"	"63/56"	119	stress_45	"POPTR_0009s04820.1"	199	"	"C/A"	"78,6/21,4"	"11/3"	14
controllo_3	"POPTR_0011s03390.1"	310	"	"A/C"	"52,9/47,1"	"55/49"	104	stress_12bis	"POPTR_0011s03390.1"	310	"	"A/C"	"70,0/30,0"	"14/6"	20
controllo_3	"POPTR_0011s03390.1"	310	"	"A/C"	"52,9/47,1"	"55/49"	104	stress_42	"POPTR_0011s03390.1"	310	"	"C/A"	"57,9/42,1"	"11/8"	19
controllo_3	"POPTR_0011s03390.1"	310	"	"A/C"	"52,9/47,1"	"55/49"	104	stress_45	"POPTR_0011s03390.1"	310	"	"A/C"	"50,0/50,0"	"14/14"	28
controllo_3	"POPTR_0011s14410.1"	636	"	"G/A"	"52,9/47,1"	"235/209"	444	stress_12bis	"POPTR_0011s14410.1"	636	"	"G/A"	"62,9/37,1"	"39/23"	62
controllo_3	"POPTR_0011s14410.1"	636	"	"G/A"	"52,9/47,1"	"235/209"	444	stress_42	"POPTR_0011s14410.1"	636	"	"A/G"	"50,0/50,0"	"6/6"	12
controllo_3	"POPTR_0011s14410.1"	636	"	"G/A"	"52,9/47,1"	"235/209"	444	stress_45	"POPTR_0011s14410.1"	636	"	"A/G"	"56,2/43,8"	"9/7"	16
controllo_3	"POPTR_0015s04250.1"	198	"	"C/T"	"52,9/47,1"	"55/49"	104	stress_12bis	"POPTR_0015s04250.1"	198	"	"C/T"	"51,5/48,5"	"17/16"	33
controllo_3	"POPTR_0015s04250.1"	198	"	"C/T"	"52,9/47,1"	"55/49"	104	stress_42	"POPTR_0015s04250.1"	198	"	"T/C"	"51,9/48,1"	"14/13"	27
controllo_3	"POPTR_0015s04250.1"	198	"	"C/T"	"52,9/47,1"	"55/49"	104	stress_45	"POPTR_0015s04250.1"	198	"	"C/T"	"56,9/43,1"	"37/28"	65
controllo_3	"POPTR_0015s06230.1"	610	"	"C/G"	"52,9/47,1"	"82/73"	155	stress_12bis	"POPTR_0015s06230.1"	610	"	"G/C"	"61,9/38,1"	"13/8"	21
controllo_3	"POPTR_0001s25760.1"	358	"	"G/T"	"52,9/47,1"	"90/80"	170	stress_12bis	"POPTR_0001s25760.1"	358	"	"G/T"	"63,3/36,7"	"31/18"	49
controllo_3	"POPTR_0001s25760.1"	358	"	"G/T"	"52,9/47,1"	"90/80"	170	stress_42	"POPTR_0001s25760.1"	358	"	"T/G"	"53,8/46,2"	"7/6"	13
controllo_3	"POPTR_0001s25760.1"	358	"	"G/T"	"52,9/47,1"	"90/80"	170	stress_45	"POPTR_0001s25760.1"	358	"	"G/T"	"57,1/42,9"	"12/9"	21
controllo_3	"POPTR_0001s26970.1"	372	"	"A/G"	"52,9/47,1"	"63/56"	119	stress_12bis	"POPTR_0001s26970.1"	372	"	"G/A"	"52,1/47,9"	"25/23"	48
controllo_3	"POPTR_0001s26970.1"	372	"	"A/G"	"52,9/47,1"	"63/56"	119	stress_45	"POPTR_0001s26970.1"	372	"	"A/G"	"55,6/44,4"	"10/8"	18
controllo_3	"POPTR_0001s10930.1"	642	"	"T/C"	"52,9/47,1"	"108/96"	204	stress_12bis	"POPTR_0001s10930.1"	642	"	"C/T"	"63,6/36,4"	"28/16"	44
controllo_3	"POPTR_0001s10930.1"	642	"	"T/C"	"52,9/47,1"	"108/96"	204	stress_42	"POPTR_0001s10930.1"	642	"	"C/T"	"56,7/43,3"	"17/13"	30
controllo_3	"POPTR_0001s10930.1"	642	"	"T/C"	"52,9/47,1"	"108/96"	204	stress_45	"POPTR_0001s10930.1"	642	"	"C/T"	"50,0/50,0"	"18/18"	36
controllo_3	"POPTR_0001s33710.1"	96	"	"C/T"	"52,9/47,1"	"127/113"	240	stress_12bis	"POPTR_0001s33710.1"	96	"	"C/T"	"58,8/41,2"	"30/21"	51
controllo_3	"POPTR_0001s33710.1"	96	"	"C/T"	"52,9/47,1"	"127/113"	240	stress_42	"POPTR_0001s33710.1"	96	"	"C/T"	"71,4/28,6"	"10/4"	14
controllo_3	"POPTR_0001s33710.1"	96	"	"C/T"	"52,9/47,1"	"127/113"	240	stress_45	"POPTR_0001s33710.1"	96	"	"C/T"	"50,0/50,0"	"7/7"	14
controllo_3	"POPTR_0001s25520.1"	99	"	"G/A"	"52,9/47,1"	"92/82"	174	stress_12bis	"POPTR_0001s25520.1"	99	"	"G/A"	"51,8/48,2"	"29/27"	56
controllo_3	"POPTR_0001s25520.1"	99	"	"G/A"	"52,9/47,1"	"92/82"	174	stress_42	"POPTR_0001s25520.1"	99	"	"A/G"	"50,0/50,0"	"13/13"	26
controllo_3	"POPTR_0001s25520.1"	99	"	"G/A"	"52,9/47,1"	"92/82"	174	stress_45	"POPTR_0001s25520.1"	99	"	"A/G"	"55,2/44,8"	"16/13"	29
controllo_3	"POPTR_0010s12050.1"	82	"	"A/G"	"52,9/47,1"	"154/137"	291	stress_12bis	"POPTR_0010s12050.1"	82	"	"A/G"	"50,0/50,0"	"45/45"	90
controllo_3	"POPTR_0010s12050.1"	82	"	"A/G"	"52,9/47,1"	"154/137"	291	stress_42	"POPTR_0010s12050.1"	82	"	"A/G"	"75,0/25,0"	"21/7"	28
controllo_3	"POPTR_0010s12050.1"	82	"	"A/G"	"52,9/47,1"	"154/137"	291	stress_45	"POPTR_0010s12050.1"	82	"	"A/G"	"65,4/34,6"	"17/9"	26
controllo_3	"POPTR_0010s16880.1"	75	"	"C/T"	"52,9/47,1"	"72/64"	136	stress_12bis	"POPTR_0010s16880.1"	75	"	"C/T"	"61,1/38,9"	"22/14"	36
controllo_3	"POPTR_0010s14190.1"	280	"	"T/A"	"52,9/47,1"	"64/57"	121	stress_12bis	"POPTR_0010s14190.1"	280	"	"T/A"	"61,5/38,5"	"16/10"	26
controllo_3	"POPTR_0007s13110.1"	90	"	"T/C"	"52,9/47,1"	"155/138"	293	stress_12bis	"POPTR_0007s13110.1"	90	"	"C/T"	"60,5/39,5"	"23/15"	38
controllo_3	"POPTR_0007s13110.1"	90	"	"T/C"	"52,9/47,1"	"155/138"	293	stress_42	"POPTR_0007s13110.1"	90	"	"T/C"	"50,7/49,3"	"36/35"	71
controllo_3	"POPTR_0007s13110.1"	90	"	"T/C"	"52,9/47,1"	"155/138"	293	stress_45	"POPTR_0007s13110.1"	90	"	"C/T"	"51,1/48,9"	"45/43"	88
controllo_3	"POPTR_0008s17030.1"	516	"	"C/T"	"52,9/47,1"	"55/49"	104	stress_12bis	"POPTR_0008s17030.1"	516	"	"T/C"	"62,5/37,5"	"20/12"	32
controllo_3	"POPTR_0008s17030.1"	516	"	"C/T"	"52,9/47,1"	"55/49"	104	stress_42	"POPTR_0008s17030.1"	516	"	"T/C"	"54,2/45,8"	"13/11"	24
controllo_3	"POPTR_0008s17030.1"	516	"	"C/T"	"52,9/47,1"	"55/49"	104	stress_45	"POPTR_0008s17030.1"	516	"	"T/C"	"67,4/32,6"	"31/15"	46
controllo_3	"POPTR_0008s19960.1"	110	"	"A/T"	"52,9/47,1"	"55/49"	104	stress_12bis	"POPTR_0008s19960.1"	110	"	"T/A"	"59,1/40,9"	"13/9"	22
controllo_3	"POPTR_0002s10870.1"	1288	"	"A/C"	"53,0/46,4"	"88/77"	166	stress_12bis	"POPTR_0002s10870.1"	1288	"	"A/C"	"51,5/48,5"	"17/16"	33
controllo_3	"POPTR_0002s10870.1"	1288	"	"A/C"	"53,0/46,4"	"88/77"	166	stress_42	"POPTR_0002s10870.1"	1288	"	"C/A"	"59,3/40,7"	"16/11"	27
controllo_3	"POPTR_0002s10870.1"	1288	"	"A/C"	"53,0/46,4"	"88/77"	166	stress_45	"POPTR_0002s10870.1"	1288	"	"A/C"	"57,1/42,9"	"12/9"	21
controllo_3	"POPTR_0014s09180.1"	1213	"	"T/C"	"53,0/46,5"	"98/86"	185	stress_12bis	"POPTR_0014s09180.1"	1213	"	"T/C"	"57,7/42,3"	"41/30"	71
controllo_3	"POPTR_0014s09180.1"	1213	"	"T/C"	"53,0/46,5"	"98/86"	185	stress_45	"POPTR_0014s09180.1"	1213	"	"T/C"	"52,6/47,4"	"10/9"	19
controllo_3	"POPTR_0015s06410.1"	117	"	"G/C"	"53,0/46,7"	"167/147"	315	stress_12bis	"POPTR_0015s06410.1"	117	"	"G/C"	"51,6/48,4"	"65/61"	126
controllo_3	"POPTR_0015s06410.1"	117	"	"G/C"	"53,0/46,7"	"167/147"	315	stress_42	"POPTR_0015s06410.1"	117	"	"G/C"	"54,3/45,7"	"19/16"	35
controllo_3	"POPTR_0015s06410.1"	117	"	"G/C"	"53,0/46,7"	"167/147"	315	stress_45	"POPTR_0015s06410.1"	117	"	"G/C"	"62,5/37,5"	"15/9"	24
controllo_3	"POPTR_0005s22830.1"	153	"	"T/C"	"53,0/46,8"	"215/190"	406	stress_12bis	"POPTR_0005s22830.1"	153	"	"C/T"	"55,2/44,8"	"101/82"	183
controllo_3	"POPTR_0005s22830.1"	153	"	"T/C"	"53,0/46,8"	"215/190"	406	stress_42	"POPTR_0005s22830.1"	153	"	"C/T"	"62,2/37,8"	"61/37"	98
controllo_3	"POPTR_0005s22830.1"	153	"	"T/C"	"53,0/46,8"	"215/190"	406	stress_45	"POPTR_0005s22830.1"	153	"	"T/C"	"51,5/48,5"	"51/48"	99
controllo_3	"POPTR_0018s11820.1"	1176	"	"G/A"	"53,0/46,8"	"323/285"	609	stress_12bis	"POPTR_0018s11820.1"	1176	"	"A/G"	"56,2/43,8"	"99/77"	176
controllo_3	"POPTR_0018s11820.1"	1176	"	"G/A"	"53,0/46,8"	"323/285"	609	stress_42	"POPTR_0018s11820.1"	1176	"	"A/G"	"58,1/41,9"	"18/13"	31
controllo_3	"POPTR_0018s11820.1"	1176	"	"G/A"	"53,0/46,8"	"323/285"	609	stress_45	"POPTR_0018s11820.1"	1176	"	"G/A"	"61,0/39,0"	"25/16"	41
controllo_3	"POPTR_0005s11500.1"	188	"	"T/C"	"53,0/46,9"	"464/410"	875	stress_12bis	"POPTR_0005s11500.1"	188	"	"T/C"	"51,2/48,5"	"133/126"	260
controllo_3	"POPTR_0005s11500.1"	188	"	"T/C"	"53,0/46,9"	"464/410"	875	stress_42	"POPTR_0005s11500.1"	188	"	"T/C"	"52,9/47,1"	"36/32"	68
controllo_3	"POPTR_0005s11500.1"	188	"	"T/C"	"53,0/46,9"	"464/410"	875	stress_45	"POPTR_0005s11500.1"	188	"	"T/C"	"66,0/34,0"	"68/35"	103
controllo_3	"POPTR_0014s10200.1"	253	"	"T/G"	"53,0/46,9"	"566/500"	1067	stress_12bis	"POPTR_0014s10200.1"	253	"	"G/T"	"52,4/47,6"	"173/157"	330
controllo_3	"POPTR_0014s10200.1"	253	"	"T/G"	"53,0/46,9"	"566/500"	1067	stress_42	"POPTR_0014s10200.1"	253	"	"G/T"	"53,5/46,5"	"46/40"	86
controllo_3	"POPTR_0014s10200.1"	253	"	"T/G"	"53,0/46,9"	"566/500"	1067	stress_45	"POPTR_0014s10200.1"	253	"	"G/T"	"52,4/47,6"	"43/39"	82
controllo_3	"POPTR_0014s17400.1"	405	"	"C/T"	"53,0/46,9"	"1087/963"	2052	stress_12bis	"POPTR_0014s17400.1"	405	"	"C/T"	"57,5/42,3"	"330/243"	574
controllo_3	"POPTR_0014s17400.1"	405	"	"C/T"	"53,0/46,9"	"1087/963"	2052	stress_42	"POPTR_0014s17400.1"	405	"	"C/T"	"63,2/36,8"	"156/91"	247
controllo_3	"POPTR_0014s17400.1"	405	"	"C/T"	"53,0/46,9"	"1087/963"	2052	stress_45	"POPTR_0014s17400.1"	405	"	"C/T"	"56,7/43,3"	"164/125"	289
controllo_3	"POPTR_0006s06180.1"	885	"	"T/C"	"53,0/47,0"	"89/79"	168	stress_12bis	"POPTR_0006s06180.1"	885	"	"T/C"	"72,9/27,1"	"43/16"	59
controllo_3	"POPTR_0006s06180.1"	885	"	"T/C"	"53,0/47,0"	"89/79"	168	stress_42	"POPTR_0006s06180.1"	885	"	"C/T"	"50,0/50,0"	"7/7"	14
controllo_3	"POPTR_0006s06180.1"	885	"	"T/C"	"53,0/47,0"	"89/79"	168	stress_45	"POPTR_0006s06180.1"	885	"	"T/C"	"60,0/40,0"	"30/20"	50
controllo_3	"POPTR_0006s10130.1"	321	"	"G/A"	"53,0/47,0"	"506/449"	955	stress_12bis	"POPTR_0006s10130.1"	321	"	"A/G"	"53,2/46,8"	"66/58"	124
controllo_3	"POPTR_0006s10130.1"	321	"	"G/A"	"53,0/47,0"	"506/449"	955	stress_42	"POPTR_0006s10130.1"	321	"	"G/A"	"51,0/49,0"	"52/50"	102
controllo_3	"POPTR_0006s10130.1"	321	"	"G/A"	"53,0/47,0"	"506/449"	955	stress_45	"POPTR_0006s10130.1"	321	"	"G/A"	"56,3/43,7"	"71/55"	126
controllo_3	"POPTR_0006s04960.1"	1737	"	"T/C"	"53,0/47,0"	"133/118"	251	stress_12bis	"POPTR_0006s04960.1"	1737	"	"T/C"	"58,3/41,7"	"28/20"	48
controllo_3	"POPTR_0006s04960.1"	1737	"	"T/C"	"53,0/47,0"	"133/118"	251	stress_42	"POPTR_0006s04960.1"	1737	"	"T/C"	"69,2/30,8"	"9/4"	13
controllo_3	"POPTR_0006s04960.1"	1737	"	"T/C"	"53,0/47,0"	"133/118"	251	stress_45	"POPTR_0006s04960.1"	1737	"	"C/T"	"50,0/50,0"	"15/15"	30
controllo_3	"POPTR_0018s11170.1"	101	"	"T/A"	"53,0/47,0"	"132/117"	249	stress_12bis	"POPTR_0018s11170.1"	101	"	"T/A"	"54,0/46,0"	"27/23"	50
controllo_3	"POPTR_0018s11170.1"	101	"	"T/A"	"53,0/47,0"	"132/117"	249	stress_42	"POPTR_0018s11170.1"	101	"	"A/T"	"64,3/35,7"	"9/5"	14
controllo_3	"POPTR_0018s11170.1"	101	"	"T/A"	"53,0/47,0"	"132/117"	249	stress_45	"POPTR_0018s11170.1"	101	"	"A/T"	"50,0/50,0"	"11/11"	22
controllo_3	"POPTR_0018s11170.1"	194	"	"A/T"	"53,0/47,0"	"131/116"	247	stress_12bis	"POPTR_0018s11170.1"	194	"	"T/A"	"60,0/40,0"	"39/26"	65
controllo_3	"POPTR_0018s11170.1"	194	"	"A/T"	"53,0/47,0"	"131/116"	247	stress_42	"POPTR_0018s11170.1"	194	"	"A/T"	"64,3/35,7"	"9/5"	14
controllo_3	"POPTR_0018s11170.1"	194	"	"A/T"	"53,0/47,0"	"131/116"	247	stress_45	"POPTR_0018s11170.1"	194	"	"A/T"	"53,3/46,7"	"8/7"	15
controllo_3	"POPTR_0013s06710.1"	591	"	"G/A"	"53,0/47,0"	"80/71"	151	stress_12bis	"POPTR_0013s06710.1"	591	"	"A/G"	"60,7/39,3"	"34/22"	56
controllo_3	"POPTR_0013s06710.1"	591	"	"G/A"	"53,0/47,0"	"80/71"	151	stress_42	"POPTR_0013s06710.1"	591	"	"G/A"	"52,2/47,8"	"12/11"	23
controllo_3	"POPTR_0013s06710.1"	591	"	"G/A"	"53,0/47,0"	"80/71"	151	stress_45	"POPTR_0013s06710.1"	591	"	"A/G"	"58,0/42,0"	"29/21"	50
controllo_3	"POPTR_0013s04210.1"	888	"	"G/T"	"53,0/47,0"	"70/62"	132	stress_12bis	"POPTR_0013s04210.1"	888	"	"G/T"	"68,1/31,9"	"32/15"	47
controllo_3	"POPTR_0013s04210.1"	888	"	"G/T"	"53,0/47,0"	"70/62"	132	stress_42	"POPTR_0013s04210.1"	888	"	"G/T"	"57,1/42,9"	"8/6"	14
controllo_3	"POPTR_0013s04210.1"	888	"	"G/T"	"53,0/47,0"	"70/62"	132	stress_45	"POPTR_0013s04210.1"	888	"	"G/T"	"60,0/40,0"	"12/8"	20
controllo_3	"POPTR_0014s00250.1"	324	"	"G/A"	"53,0/47,0"	"80/71"	151	stress_12bis	"POPTR_0014s00250.1"	324	"	"A/G"	"50,0/50,0"	"16/16"	32
controllo_3	"POPTR_0014s00250.1"	324	"	"G/A"	"53,0/47,0"	"80/71"	151	stress_42	"POPTR_0014s00250.1"	324	"	"G/A"	"72,7/27,3"	"8/3"	11
controllo_3	"POPTR_0014s00250.1"	324	"	"G/A"	"53,0/47,0"	"80/71"	151	stress_45	"POPTR_0014s00250.1"	324	"	"G/A"	"54,5/45,5"	"6/5"	11
controllo_3	"POPTR_0014s02410.1"	94	"	"C/G"	"53,0/47,0"	"435/385"	820	stress_12bis	"POPTR_0014s02410.1"	94	"	"C/G"	"61,5/38,5"	"64/40"	104
controllo_3	"POPTR_0014s02410.1"	94	"	"C/G"	"53,0/47,0"	"435/385"	820	stress_42	"POPTR_0014s02410.1"	94	"	"C/G"	"51,5/48,5"	"53/50"	103
controllo_3	"POPTR_0014s02410.1"	94	"	"C/G"	"53,0/47,0"	"435/385"	820	stress_45	"POPTR_0014s02410.1"	94	"	"G/C"	"52,1/47,9"	"135/124"	259
controllo_3	"POPTR_0011s06730.1"	297	"	"G/A"	"53,0/47,0"	"62/55"	117	stress_12bis	"POPTR_0011s06730.1"	297	"	"G/A"	"70,4/29,6"	"19/8"	27
controllo_3	"POPTR_0011s06730.1"	297	"	"G/A"	"53,0/47,0"	"62/55"	117	stress_42	"POPTR_0011s06730.1"	297	"	"G/A"	"61,5/38,5"	"24/15"	39
controllo_3	"POPTR_0011s06730.1"	297	"	"G/A"	"53,0/47,0"	"62/55"	117	stress_45	"POPTR_0011s06730.1"	297	"	"A/G"	"51,7/48,3"	"31/29"	60
controllo_3	"POPTR_0015s09990.1"	470	"	"T/A"	"53,0/47,0"	"96/85"	181	stress_12bis	"POPTR_0015s09990.1"	470	"	"T/A"	"60,0/40,0"	"33/22"	55
controllo_3	"POPTR_0015s09990.1"	470	"	"T/A"	"53,0/47,0"	"96/85"	181	stress_42	"POPTR_0015s09990.1"	470	"	"A/T"	"61,5/38,5"	"8/5"	13
controllo_3	"POPTR_0015s09990.1"	470	"	"T/A"	"53,0/47,0"	"96/85"	181	stress_45	"POPTR_0015s09990.1"	470	"	"T/A"	"83,3/16,7"	"10/2"	12
controllo_3	"POPTR_0001s47210.1"	253	"	"G/A"	"53,0/47,0"	"140/124"	264	stress_12bis	"POPTR_0001s47210.1"	253	"	"G/A"	"59,5/40,5"	"22/15"	37
controllo_3	"POPTR_0001s47020.1"	381	"	"C/A"	"53,0/47,0"	"88/78"	166	stress_12bis	"POPTR_0001s47020.1"	381	"	"A/C"	"54,5/45,5"	"24/20"	44
controllo_3	"POPTR_0001s47020.1"	381	"	"C/A"	"53,0/47,0"	"88/78"	166	stress_42	"POPTR_0001s47020.1"	381	"	"C/A"	"56,0/44,0"	"14/11"	25
controllo_3	"POPTR_0001s47020.1"	381	"	"C/A"	"53,0/47,0"	"88/78"	166	stress_45	"POPTR_0001s47020.1"	381	"	"A/C"	"52,9/47,1"	"37/33"	70
controllo_3	"POPTR_0010s14080.1"	895	"	"C/T"	"53,0/47,0"	"122/108"	230	stress_12bis	"POPTR_0010s14080.1"	895	"	"T/C"	"62,0/38,0"	"57/35"	92
controllo_3	"POPTR_0010s14080.1"	895	"	"C/T"	"53,0/47,0"	"122/108"	230	stress_42	"POPTR_0010s14080.1"	895	"	"T/C"	"76,5/23,5"	"13/4"	17
controllo_3	"POPTR_0010s14080.1"	895	"	"C/T"	"53,0/47,0"	"122/108"	230	stress_45	"POPTR_0010s14080.1"	895	"	"T/C"	"65,9/34,1"	"29/15"	44
controllo_3	"POPTR_0010s07730.1"	91	"	"C/T"	"53,0/47,0"	"287/254"	541	stress_12bis	"POPTR_0010s07730.1"	91	"	"T/C"	"50,9/49,1"	"117/113"	230
controllo_3	"POPTR_0010s07730.1"	91	"	"C/T"	"53,0/47,0"	"287/254"	541	stress_42	"POPTR_0010s07730.1"	91	"	"C/T"	"50,8/49,2"	"32/31"	63
controllo_3	"POPTR_0010s07730.1"	91	"	"C/T"	"53,0/47,0"	"287/254"	541	stress_45	"POPTR_0010s07730.1"	91	"	"C/T"	"52,8/47,2"	"38/34"	72
controllo_3	"POPTR_0008s03280.1"	1143	"	"A/G"	"53,0/47,0"	"61/54"	115	stress_12bis	"POPTR_0008s03280.1"	1143	"	"A/G"	"72,4/27,6"	"21/8"	29
controllo_3	"POPTR_0008s03280.1"	1143	"	"A/G"	"53,0/47,0"	"61/54"	115	stress_42	"POPTR_0008s03280.1"	1143	"	"A/G"	"72,7/27,3"	"8/3"	11
controllo_3	"POPTR_0008s03280.1"	1143	"	"A/G"	"53,0/47,0"	"61/54"	115	stress_45	"POPTR_0008s03280.1"	1143	"	"G/A"	"52,4/47,6"	"11/10"	21
controllo_3	"POPTR_0016s02570.1"	81	"	"G/A"	"53,0/47,0"	"125/111"	236	stress_12bis	"POPTR_0016s02570.1"	81	"	"A/G"	"60,0/40,0"	"18/12"	30
controllo_3	"POPTR_0016s02570.1"	81	"	"G/A"	"53,0/47,0"	"125/111"	236	stress_42	"POPTR_0016s02570.1"	81	"	"A/G"	"72,7/27,3"	"8/3"	11
controllo_3	"POPTR_0016s02570.1"	81	"	"G/A"	"53,0/47,0"	"125/111"	236	stress_45	"POPTR_0016s02570.1"	81	"	"A/G"	"57,9/42,1"	"11/8"	19
controllo_3	"POPTR_0001s29660.1"	314	"	"A/G"	"53,1/46,1"	"68/59"	128	stress_12bis	"POPTR_0001s29660.1"	314	"	"G/A"	"57,4/42,6"	"31/23"	54
controllo_3	"POPTR_0001s29660.1"	314	"	"A/G"	"53,1/46,1"	"68/59"	128	stress_45	"POPTR_0001s29660.1"	314	"	"G/A"	"72,0/28,0"	"18/7"	25
controllo_3	"POPTR_0016s14100.1"	798	"	"T/A"	"53,1/46,2"	"69/60"	130	stress_12bis	"POPTR_0016s14100.1"	798	"	"T/A"	"54,8/43,5"	"34/27"	62
controllo_3	"POPTR_0016s14100.1"	798	"	"T/A"	"53,1/46,2"	"69/60"	130	stress_42	"POPTR_0016s14100.1"	798	"	"T/A"	"66,7/33,3"	"8/4"	12
controllo_3	"POPTR_0016s14100.1"	798	"	"T/A"	"53,1/46,2"	"69/60"	130	stress_45	"POPTR_0016s14100.1"	798	"	"T/A"	"60,9/39,1"	"14/9"	23
controllo_3	"POPTR_0015s08540.1"	678	"	"A/C"	"53,1/46,3"	"78/68"	147	stress_12bis	"POPTR_0015s08540.1"	678	"	"C/A"	"55,4/43,2"	"41/32"	74
controllo_3	"POPTR_0015s08540.1"	678	"	"A/C"	"53,1/46,3"	"78/68"	147	stress_42	"POPTR_0015s08540.1"	678	"	"C/A"	"60,0/40,0"	"9/6"	15
controllo_3	"POPTR_0015s08540.1"	678	"	"A/C"	"53,1/46,3"	"78/68"	147	stress_45	"POPTR_0015s08540.1"	678	"	"C/A"	"78,3/21,7"	"18/5"	23
controllo_3	"POPTR_0005s25420.1"	297	"	"T/G"	"53,1/46,5"	"135/118"	254	stress_12bis	"POPTR_0005s25420.1"	297	"	"G/T"	"60,6/38,3"	"57/36"	94
controllo_3	"POPTR_0005s25420.1"	297	"	"T/G"	"53,1/46,5"	"135/118"	254	stress_42	"POPTR_0005s25420.1"	297	"	"G/T"	"60,6/38,3"	"57/36"	94
controllo_3	"POPTR_0005s25420.1"	297	"	"T/G"	"53,1/46,5"	"135/118"	254	stress_45	"POPTR_0005s25420.1"	297	"	"T/G"	"53,0/47,0"	"35/31"	66
controllo_3	"POPTR_0015s06060.1"	288	"	"T/A"	"53,1/46,6"	"139/122"	262	stress_12bis	"POPTR_0015s06060.1"	288	"	"A/T"	"53,4/45,5"	"47/40"	88
controllo_3	"POPTR_0015s06060.1"	288	"	"T/A"	"53,1/46,6"	"139/122"	262	stress_42	"POPTR_0015s06060.1"	288	"	"A/T"	"50,5/48,6"	"56/54"	111
controllo_3	"POPTR_0015s06060.1"	288	"	"T/A"	"53,1/46,6"	"139/122"	262	stress_45	"POPTR_0015s06060.1"	288	"	"T/A"	"52,3/46,8"	"58/52"	111
controllo_3	"POPTR_0006s13310.1"	102	"	"T/C"	"53,1/46,7"	"199/175"	375	stress_12bis	"POPTR_0006s13310.1"	102	"	"T/C"	"59,4/40,6"	"190/130"	320
controllo_3	"POPTR_0006s13310.1"	102	"	"T/C"	"53,1/46,7"	"199/175"	375	stress_42	"POPTR_0006s13310.1"	102	"	"T/C"	"51,8/48,2"	"85/79"	164
controllo_3	"POPTR_0006s13310.1"	102	"	"T/C"	"53,1/46,7"	"199/175"	375	stress_45	"POPTR_0006s13310.1"	102	"	"T/C"	"55,7/44,3"	"220/175"	395
controllo_3	"POPTR_0005s06420.1"	147	"	"A/G"	"53,1/46,9"	"111/98"	209	stress_12bis	"POPTR_0005s06420.1"	147	"	"A/G"	"66,1/33,9"	"39/20"	59
controllo_3	"POPTR_0005s06420.1"	147	"	"A/G"	"53,1/46,9"	"111/98"	209	stress_42	"POPTR_0005s06420.1"	147	"	"G/A"	"69,6/30,4"	"16/7"	23
controllo_3	"POPTR_0005s26700.1"	36	"	"A/G"	"53,1/46,9"	"77/68"	145	stress_12bis	"POPTR_0005s26700.1"	36	"	"A/G"	"61,3/38,7"	"38/24"	62
controllo_3	"POPTR_0005s26700.1"	36	"	"A/G"	"53,1/46,9"	"77/68"	145	stress_42	"POPTR_0005s26700.1"	36	"	"A/G"	"50,0/50,0"	"6/6"	12
controllo_3	"POPTR_0005s26700.1"	36	"	"A/G"	"53,1/46,9"	"77/68"	145	stress_45	"POPTR_0005s26700.1"	36	"	"A/G"	"69,2/30,8"	"9/4"	13
controllo_3	"POPTR_0005s22830.1"	107	"	"C/T"	"53,1/46,9"	"204/180"	384	stress_12bis	"POPTR_0005s22830.1"	107	"	"T/C"	"52,5/47,5"	"83/75"	158
controllo_3	"POPTR_0005s22830.1"	107	"	"C/T"	"53,1/46,9"	"204/180"	384	stress_42	"POPTR_0005s22830.1"	107	"	"T/C"	"57,7/42,3"	"45/33"	78
controllo_3	"POPTR_0005s22830.1"	107	"	"C/T"	"53,1/46,9"	"204/180"	384	stress_45	"POPTR_0005s22830.1"	107	"	"T/C"	"53,5/46,5"	"46/40"	86
controllo_3	"POPTR_0006s13310.1"	251	"	"A/G"	"53,1/46,9"	"186/164"	350	stress_12bis	"POPTR_0006s13310.1"	251	"	"A/G"	"61,1/38,9"	"179/114"	293
controllo_3	"POPTR_0006s13310.1"	251	"	"A/G"	"53,1/46,9"	"186/164"	350	stress_42	"POPTR_0006s13310.1"	251	"	"A/G"	"63,2/36,8"	"134/78"	212
controllo_3	"POPTR_0006s13310.1"	251	"	"A/G"	"53,1/46,9"	"186/164"	350	stress_45	"POPTR_0006s13310.1"	251	"	"A/G"	"55,6/44,4"	"189/151"	340
controllo_3	"POPTR_0006s13310.1"	279	"	"A/T"	"53,1/46,9"	"179/158"	337	stress_12bis	"POPTR_0006s13310.1"	279	"	"A/T"	"65,2/34,2"	"212/111"	325
controllo_3	"POPTR_0006s13310.1"	279	"	"A/T"	"53,1/46,9"	"179/158"	337	stress_42	"POPTR_0006s13310.1"	279	"	"A/T"	"66,0/33,0"	"126/63"	191
controllo_3	"POPTR_0006s13310.1"	279	"	"A/T"	"53,1/46,9"	"179/158"	337	stress_45	"POPTR_0006s13310.1"	279	"	"A/T"	"55,1/44,3"	"194/156"	352
controllo_3	"POPTR_0006s12910.1"	414	"	"T/C"	"53,1/46,9"	"129/114"	243	stress_12bis	"POPTR_0006s12910.1"	414	"	"T/C"	"53,1/46,9"	"43/38"	81
controllo_3	"POPTR_0006s12910.1"	414	"	"T/C"	"53,1/46,9"	"129/114"	243	stress_42	"POPTR_0006s12910.1"	414	"	"T/C"	"57,4/42,6"	"27/20"	47
controllo_3	"POPTR_0006s12910.1"	414	"	"T/C"	"53,1/46,9"	"129/114"	243	stress_45	"POPTR_0006s12910.1"	414	"	"T/C"	"62,0/38,0"	"49/30"	79
controllo_3	"POPTR_0006s00620.1"	1866	"	"C/T"	"53,1/46,9"	"68/60"	128	stress_12bis	"POPTR_0006s00620.1"	1866	"	"C/T"	"68,0/32,0"	"17/8"	25
controllo_3	"POPTR_0018s11820.1"	1098	"	"C/T"	"53,1/46,9"	"272/240"	512	stress_12bis	"POPTR_0018s11820.1"	1098	"	"T/C"	"66,1/33,9"	"84/43"	127
controllo_3	"POPTR_0018s11820.1"	1098	"	"C/T"	"53,1/46,9"	"272/240"	512	stress_42	"POPTR_0018s11820.1"	1098	"	"C/T"	"73,3/26,7"	"22/8"	30
controllo_3	"POPTR_0018s11820.1"	1098	"	"C/T"	"53,1/46,9"	"272/240"	512	stress_45	"POPTR_0018s11820.1"	1098	"	"C/T"	"64,5/35,5"	"20/11"	31
controllo_3	"POPTR_0018s01420.1"	108	"	"C/A"	"53,1/46,9"	"93/82"	175	stress_12bis	"POPTR_0018s01420.1"	108	"	"C/A"	"54,3/45,7"	"51/43"	94
controllo_3	"POPTR_0018s01420.1"	108	"	"C/A"	"53,1/46,9"	"93/82"	175	stress_42	"POPTR_0018s01420.1"	108	"	"C/A"	"52,5/47,5"	"52/47"	99
controllo_3	"POPTR_0018s01420.1"	108	"	"C/A"	"53,1/46,9"	"93/82"	175	stress_45	"POPTR_0018s01420.1"	108	"	"C/A"	"53,4/46,6"	"62/54"	116
controllo_3	"POPTR_0003s20840.1"	1488	"	"A/G"	"53,1/46,9"	"51/45"	96	stress_12bis	"POPTR_0003s20840.1"	1488	"	"A/G"	"50,5/49,5"	"56/55"	111
controllo_3	"POPTR_0013s00610.1"	789	"	"G/C"	"53,1/46,9"	"60/53"	113	stress_12bis	"POPTR_0013s00610.1"	789	"	"G/C"	"57,1/42,9"	"16/12"	28
controllo_3	"POPTR_0013s00610.1"	789	"	"G/C"	"53,1/46,9"	"60/53"	113	stress_42	"POPTR_0013s00610.1"	789	"	"G/C"	"66,7/33,3"	"14/7"	21
controllo_3	"POPTR_0013s00610.1"	789	"	"G/C"	"53,1/46,9"	"60/53"	113	stress_45	"POPTR_0013s00610.1"	789	"	"G/C"	"57,1/42,9"	"20/15"	35
controllo_3	"POPTR_0013s15650.1"	84	"	"C/T"	"53,1/46,9"	"187/165"	352	stress_12bis	"POPTR_0013s15650.1"	84	"	"C/T"	"55,7/44,3"	"34/27"	61
controllo_3	"POPTR_0013s15650.1"	84	"	"C/T"	"53,1/46,9"	"187/165"	352	stress_42	"POPTR_0013s15650.1"	84	"	"C/T"	"63,6/36,4"	"7/4"	11
controllo_3	"POPTR_0013s15650.1"	84	"	"C/T"	"53,1/46,9"	"187/165"	352	stress_45	"POPTR_0013s15650.1"	84	"	"C/T"	"75,0/25,0"	"9/3"	12
controllo_3	"POPTR_0013s04210.1"	1248	"	"C/G"	"53,1/46,9"	"112/99"	211	stress_12bis	"POPTR_0013s04210.1"	1248	"	"C/G"	"52,3/47,7"	"34/31"	65
controllo_3	"POPTR_0013s04210.1"	1248	"	"C/G"	"53,1/46,9"	"112/99"	211	stress_42	"POPTR_0013s04210.1"	1248	"	"C/G"	"66,7/33,3"	"8/4"	12
controllo_3	"POPTR_0013s04210.1"	1248	"	"C/G"	"53,1/46,9"	"112/99"	211	stress_45	"POPTR_0013s04210.1"	1248	"	"C/G"	"57,5/42,5"	"23/17"	40
controllo_3	"POPTR_0014s02550.1"	567	"	"T/G"	"53,1/46,9"	"68/60"	128	stress_12bis	"POPTR_0014s02550.1"	567	"	"T/G"	"58,1/41,9"	"36/26"	62
controllo_3	"POPTR_0014s02550.1"	567	"	"T/G"	"53,1/46,9"	"68/60"	128	stress_42	"POPTR_0014s02550.1"	567	"	"G/T"	"61,5/38,5"	"24/15"	39
controllo_3	"POPTR_0014s02550.1"	567	"	"T/G"	"53,1/46,9"	"68/60"	128	stress_45	"POPTR_0014s02550.1"	567	"	"G/T"	"57,0/43,0"	"53/40"	93
controllo_3	"POPTR_0014s14200.1"	585	"	"T/C"	"53,1/46,9"	"154/136"	290	stress_12bis	"POPTR_0014s14200.1"	585	"	"T/C"	"63,6/36,4"	"14/8"	22
controllo_3	"POPTR_0014s14200.1"	585	"	"T/C"	"53,1/46,9"	"154/136"	290	stress_42	"POPTR_0014s14200.1"	585	"	"T/C"	"56,7/43,3"	"17/13"	30
controllo_3	"POPTR_0014s14200.1"	585	"	"T/C"	"53,1/46,9"	"154/136"	290	stress_45	"POPTR_0014s14200.1"	585	"	"T/C"	"70,0/30,0"	"70/30"	100
controllo_3	"POPTR_0014s17610.1"	888	"	"C/G"	"53,1/46,9"	"76/67"	143	stress_12bis	"POPTR_0014s17610.1"	888	"	"C/G"	"65,6/34,4"	"42/22"	64
controllo_3	"POPTR_0014s17610.1"	888	"	"C/G"	"53,1/46,9"	"76/67"	143	stress_42	"POPTR_0014s17610.1"	888	"	"G/C"	"57,1/42,9"	"8/6"	14
controllo_3	"POPTR_0014s17610.1"	888	"	"C/G"	"53,1/46,9"	"76/67"	143	stress_45	"POPTR_0014s17610.1"	888	"	"C/G"	"60,5/39,5"	"23/15"	38
controllo_3	"POPTR_0004s23490.1"	1023	"	"T/C"	"53,1/46,9"	"103/91"	194	stress_12bis	"POPTR_0004s23490.1"	1023	"	"C/T"	"55,8/44,2"	"29/23"	52
controllo_3	"POPTR_0004s23490.1"	1023	"	"T/C"	"53,1/46,9"	"103/91"	194	stress_42	"POPTR_0004s23490.1"	1023	"	"T/C"	"68,2/31,8"	"30/14"	44
controllo_3	"POPTR_0004s23490.1"	1023	"	"T/C"	"53,1/46,9"	"103/91"	194	stress_45	"POPTR_0004s23490.1"	1023	"	"T/C"	"60,2/38,0"	"65/41"	108
controllo_3	"POPTR_0004s14960.1"	262	"	"A/C"	"53,1/46,9"	"76/67"	143	stress_12bis	"POPTR_0004s14960.1"	262	"	"A/C"	"56,1/43,9"	"23/18"	41
controllo_3	"POPTR_0004s14960.1"	262	"	"A/C"	"53,1/46,9"	"76/67"	143	stress_45	"POPTR_0004s14960.1"	262	"	"A/C"	"61,1/38,9"	"11/7"	18
controllo_3	"POPTR_0004s07670.1"	201	"	"T/C"	"53,1/46,9"	"94/83"	177	stress_12bis	"POPTR_0004s07670.1"	201	"	"T/C"	"68,8/31,2"	"22/10"	32
controllo_3	"POPTR_0004s07670.1"	201	"	"T/C"	"53,1/46,9"	"94/83"	177	stress_42	"POPTR_0004s07670.1"	201	"	"T/C"	"52,9/47,1"	"18/16"	34
controllo_3	"POPTR_0004s07670.1"	201	"	"T/C"	"53,1/46,9"	"94/83"	177	stress_45	"POPTR_0004s07670.1"	201	"	"T/C"	"53,8/46,2"	"35/30"	65
controllo_3	"POPTR_0012s09570.1"	837	"	"A/T"	"53,1/46,9"	"241/213"	454	stress_12bis	"POPTR_0012s09570.1"	837	"	"A/T"	"54,0/46,0"	"34/29"	63
controllo_3	"POPTR_0012s09570.1"	837	"	"A/T"	"53,1/46,9"	"241/213"	454	stress_42	"POPTR_0012s09570.1"	837	"	"A/T"	"53,1/46,9"	"77/68"	145
controllo_3	"POPTR_0012s09570.1"	837	"	"A/T"	"53,1/46,9"	"241/213"	454	stress_45	"POPTR_0012s09570.1"	837	"	"T/A"	"54,9/45,1"	"96/79"	175
controllo_3	"POPTR_0012s11410.1"	174	"	"C/T"	"53,1/46,9"	"86/76"	162	stress_12bis	"POPTR_0012s11410.1"	174	"	"C/T"	"62,2/37,8"	"23/14"	37
controllo_3	"POPTR_0012s11410.1"	174	"	"C/T"	"53,1/46,9"	"86/76"	162	stress_42	"POPTR_0012s11410.1"	174	"	"T/C"	"55,2/44,8"	"16/13"	29
controllo_3	"POPTR_0012s11410.1"	174	"	"C/T"	"53,1/46,9"	"86/76"	162	stress_45	"POPTR_0012s11410.1"	174	"	"C/T"	"68,6/31,4"	"24/11"	35
controllo_3	"POPTR_0011s16780.1"	234	"	"C/T"	"53,1/46,9"	"86/76"	162	stress_12bis	"POPTR_0011s16780.1"	234	"	"T/C"	"53,7/46,3"	"29/25"	54
controllo_3	"POPTR_0011s16780.1"	234	"	"C/T"	"53,1/46,9"	"86/76"	162	stress_45	"POPTR_0011s16780.1"	234	"	"T/C"	"75,0/25,0"	"12/4"	16
controllo_3	"POPTR_0011s08940.1"	1259	"	"G/A"	"53,1/46,9"	"642/567"	1209	stress_12bis	"POPTR_0011s08940.1"	1259	"	"G/A"	"51,1/48,9"	"180/172"	352
controllo_3	"POPTR_0011s08940.1"	1259	"	"G/A"	"53,1/46,9"	"642/567"	1209	stress_42	"POPTR_0011s08940.1"	1259	"	"A/G"	"64,5/35,5"	"69/38"	107
controllo_3	"POPTR_0011s08940.1"	1259	"	"G/A"	"53,1/46,9"	"642/567"	1209	stress_45	"POPTR_0011s08940.1"	1259	"	"A/G"	"66,9/33,1"	"117/58"	175
controllo_3	"POPTR_0001s10700.1"	684	"	"A/T"	"53,1/46,9"	"17/15"	32	stress_42	"POPTR_0001s10700.1"	684	"	"T/A"	"53,4/46,6"	"62/54"	116
controllo_3	"POPTR_0001s26970.1"	181	"	"C/G"	"53,1/46,9"	"94/83"	177	stress_12bis	"POPTR_0001s26970.1"	181	"	"C/G"	"58,5/41,5"	"38/27"	65
controllo_3	"POPTR_0001s26970.1"	181	"	"C/G"	"53,1/46,9"	"94/83"	177	stress_42	"POPTR_0001s26970.1"	181	"	"G/C"	"57,1/42,9"	"8/6"	14
controllo_3	"POPTR_0001s26970.1"	181	"	"C/G"	"53,1/46,9"	"94/83"	177	stress_45	"POPTR_0001s26970.1"	181	"	"C/G"	"57,1/42,9"	"12/9"	21
controllo_3	"POPTR_0001s02570.1"	891	"	"G/A"	"53,1/46,9"	"68/60"	128	stress_12bis	"POPTR_0001s02570.1"	891	"	"G/A"	"68,8/31,2"	"11/5"	16
controllo_3	"POPTR_0001s02570.1"	891	"	"G/A"	"53,1/46,9"	"68/60"	128	stress_42	"POPTR_0001s02570.1"	891	"	"G/A"	"64,7/35,3"	"11/6"	17
controllo_3	"POPTR_0001s47020.1"	479	"	"T/C"	"53,1/46,9"	"111/98"	209	stress_12bis	"POPTR_0001s47020.1"	479	"	"T/C"	"54,0/46,0"	"34/29"	63
controllo_3	"POPTR_0001s47020.1"	479	"	"T/C"	"53,1/46,9"	"111/98"	209	stress_42	"POPTR_0001s47020.1"	479	"	"T/C"	"60,7/39,3"	"17/11"	28
controllo_3	"POPTR_0001s47020.1"	479	"	"T/C"	"53,1/46,9"	"111/98"	209	stress_45	"POPTR_0001s47020.1"	479	"	"T/C"	"52,0/48,0"	"51/47"	98
controllo_3	"POPTR_0001s26960.1"	1009	"	"C/G"	"53,1/46,9"	"130/115"	245	stress_12bis	"POPTR_0001s26960.1"	1009	"	"C/G"	"58,8/41,2"	"40/28"	68
controllo_3	"POPTR_0001s26960.1"	1009	"	"C/G"	"53,1/46,9"	"130/115"	245	stress_42	"POPTR_0001s26960.1"	1009	"	"G/C"	"70,8/25,0"	"17/6"	24
controllo_3	"POPTR_0001s26960.1"	1009	"	"C/G"	"53,1/46,9"	"130/115"	245	stress_45	"POPTR_0001s26960.1"	1009	"	"C/G"	"52,8/47,2"	"19/17"	36
controllo_3	"POPTR_0001s11950.1"	379	"	"G/A"	"53,1/46,9"	"76/67"	143	stress_12bis	"POPTR_0001s11950.1"	379	"	"G/A"	"54,2/45,8"	"13/11"	24
controllo_3	"POPTR_0010s22790.1"	721	"	"G/A"	"53,1/46,9"	"77/68"	145	stress_12bis	"POPTR_0010s22790.1"	721	"	"A/G"	"54,0/46,0"	"34/29"	63
controllo_3	"POPTR_0010s22790.1"	721	"	"G/A"	"53,1/46,9"	"77/68"	145	stress_42	"POPTR_0010s22790.1"	721	"	"G/A"	"76,2/23,8"	"16/5"	21
controllo_3	"POPTR_0010s22790.1"	721	"	"G/A"	"53,1/46,9"	"77/68"	145	stress_45	"POPTR_0010s22790.1"	721	"	"G/A"	"69,2/30,8"	"9/4"	13
controllo_3	"POPTR_0010s20060.1"	112	"	"A/G"	"53,1/46,9"	"139/123"	262	stress_12bis	"POPTR_0010s20060.1"	112	"	"A/G"	"58,5/41,5"	"62/44"	106
controllo_3	"POPTR_0010s20060.1"	112	"	"A/G"	"53,1/46,9"	"139/123"	262	stress_42	"POPTR_0010s20060.1"	112	"	"G/A"	"56,2/43,8"	"9/7"	16
controllo_3	"POPTR_0010s20060.1"	112	"	"A/G"	"53,1/46,9"	"139/123"	262	stress_45	"POPTR_0010s20060.1"	112	"	"G/A"	"60,0/40,0"	"21/14"	35
controllo_3	"POPTR_0007s06620.1"	1098	"	"C/T"	"53,1/46,9"	"95/84"	179	stress_12bis	"POPTR_0007s06620.1"	1098	"	"T/C"	"53,8/46,2"	"21/18"	39
controllo_3	"POPTR_0007s14280.1"	129	"	"A/G"	"53,1/46,9"	"77/68"	145	stress_12bis	"POPTR_0007s14280.1"	129	"	"A/G"	"60,0/40,0"	"15/10"	25
controllo_3	"POPTR_0007s14280.1"	129	"	"A/G"	"53,1/46,9"	"77/68"	145	stress_42	"POPTR_0007s14280.1"	129	"	"A/G"	"57,1/42,9"	"12/9"	21
controllo_3	"POPTR_0007s14280.1"	129	"	"A/G"	"53,1/46,9"	"77/68"	145	stress_45	"POPTR_0007s14280.1"	129	"	"A/G"	"59,3/40,7"	"16/11"	27
controllo_3	"POPTR_0007s09630.1"	115	"	"G/A"	"53,1/46,9"	"216/191"	407	stress_12bis	"POPTR_0007s09630.1"	115	"	"G/A"	"51,6/48,4"	"48/45"	93
controllo_3	"POPTR_0007s09630.1"	115	"	"G/A"	"53,1/46,9"	"216/191"	407	stress_42	"POPTR_0007s09630.1"	115	"	"A/G"	"63,6/36,4"	"7/4"	11
controllo_3	"POPTR_0007s09630.1"	115	"	"G/A"	"53,1/46,9"	"216/191"	407	stress_45	"POPTR_0007s09630.1"	115	"	"G/A"	"54,5/45,5"	"12/10"	22
controllo_3	"POPTR_0002s14730.1"	747	"	"G/A"	"53,1/46,9"	"274/242"	516	stress_12bis	"POPTR_0002s14730.1"	747	"	"G/A"	"51,1/48,9"	"89/85"	174
controllo_3	"POPTR_0002s14730.1"	747	"	"G/A"	"53,1/46,9"	"274/242"	516	stress_42	"POPTR_0002s14730.1"	747	"	"A/G"	"84,6/15,4"	"11/2"	13
controllo_3	"POPTR_0002s14730.1"	747	"	"G/A"	"53,1/46,9"	"274/242"	516	stress_45	"POPTR_0002s14730.1"	747	"	"A/G"	"59,6/40,4"	"28/19"	47
controllo_3	"POPTR_0002s24310.1"	249	"	"A/G"	"53,1/46,9"	"60/53"	113	stress_12bis	"POPTR_0002s24310.1"	249	"	"A/G"	"60,0/40,0"	"15/10"	25
controllo_3	"POPTR_0002s24310.1"	249	"	"A/G"	"53,1/46,9"	"60/53"	113	stress_42	"POPTR_0002s24310.1"	249	"	"A/G"	"50,0/50,0"	"10/10"	20
controllo_3	"POPTR_0002s24310.1"	249	"	"A/G"	"53,1/46,9"	"60/53"	113	stress_45	"POPTR_0002s24310.1"	249	"	"G/A"	"58,8/41,2"	"10/7"	17
controllo_3	"POPTR_0008s06720.1"	351	"	"G/T"	"53,1/46,9"	"878/775"	1653	stress_12bis	"POPTR_0008s06720.1"	351	"	"T/G"	"50,5/49,5"	"237/232"	469
controllo_3	"POPTR_0008s06720.1"	351	"	"G/T"	"53,1/46,9"	"878/775"	1653	stress_42	"POPTR_0008s06720.1"	351	"	"G/T"	"66,7/31,8"	"88/42"	132
controllo_3	"POPTR_0008s06720.1"	351	"	"G/T"	"53,1/46,9"	"878/775"	1653	stress_45	"POPTR_0008s06720.1"	351	"	"G/T"	"71,7/28,3"	"71/28"	99
controllo_3	"POPTR_0008s08400.1"	1041	"	"C/T"	"53,1/46,9"	"68/60"	128	stress_12bis	"POPTR_0008s08400.1"	1041	"	"C/T"	"65,2/34,8"	"15/8"	23
controllo_3	"POPTR_0008s08400.1"	1041	"	"C/T"	"53,1/46,9"	"68/60"	128	stress_42	"POPTR_0008s08400.1"	1041	"	"T/C"	"59,2/40,8"	"29/20"	49
controllo_3	"POPTR_0008s08400.1"	1041	"	"C/T"	"53,1/46,9"	"68/60"	128	stress_45	"POPTR_0008s08400.1"	1041	"	"T/C"	"52,2/47,8"	"24/22"	46
controllo_3	"POPTR_0016s09190.1"	615	"	"T/A"	"53,1/46,9"	"78/69"	147	stress_12bis	"POPTR_0016s09190.1"	615	"	"A/T"	"50,0/50,0"	"23/23"	46
controllo_3	"POPTR_0016s09190.1"	615	"	"T/A"	"53,1/46,9"	"78/69"	147	stress_42	"POPTR_0016s09190.1"	615	"	"T/A"	"51,6/48,4"	"16/15"	31
controllo_3	"POPTR_0016s09190.1"	615	"	"T/A"	"53,1/46,9"	"78/69"	147	stress_45	"POPTR_0016s09190.1"	615	"	"A/T"	"50,0/50,0"	"15/15"	30
controllo_3	"POPTR_0009s01470.1"	456	"	"G/A"	"53,2/46,0"	"66/57"	124	stress_12bis	"POPTR_0009s01470.1"	456	"	"G/A"	"62,3/37,7"	"33/20"	53
controllo_3	"POPTR_0009s01470.1"	456	"	"G/A"	"53,2/46,0"	"66/57"	124	stress_42	"POPTR_0009s01470.1"	456	"	"G/A"	"60,0/40,0"	"9/6"	15
controllo_3	"POPTR_0009s01470.1"	456	"	"G/A"	"53,2/46,0"	"66/57"	124	stress_45	"POPTR_0009s01470.1"	456	"	"G/A"	"72,2/27,8"	"26/10"	36
controllo_3	"POPTR_0006s14400.1"	218	"	"G/A"	"53,2/46,6"	"862/755"	1619	stress_12bis	"POPTR_0006s14400.1"	218	"	"G/A"	"59,0/40,8"	"243/168"	412
controllo_3	"POPTR_0006s14400.1"	218	"	"G/A"	"53,2/46,6"	"862/755"	1619	stress_42	"POPTR_0006s14400.1"	218	"	"A/G"	"73,9/25,6"	"445/154"	602
controllo_3	"POPTR_0006s14400.1"	218	"	"G/A"	"53,2/46,6"	"862/755"	1619	stress_45	"POPTR_0006s14400.1"	218	"	"A/G"	"77,6/22,3"	"801/230"	1032
controllo_3	"POPTR_0014s17070.1"	585	"	"G/A"	"53,2/46,7"	"916/804"	1721	stress_12bis	"POPTR_0014s17070.1"	585	"	"A/G"	"52,5/47,5"	"282/255"	537
controllo_3	"POPTR_0014s17070.1"	585	"	"G/A"	"53,2/46,7"	"916/804"	1721	stress_42	"POPTR_0014s17070.1"	585	"	"A/G"	"55,7/44,3"	"103/82"	185
controllo_3	"POPTR_0014s17070.1"	585	"	"G/A"	"53,2/46,7"	"916/804"	1721	stress_45	"POPTR_0014s17070.1"	585	"	"A/G"	"56,7/43,3"	"97/74"	171
controllo_3	"POPTR_0005s11860.1"	458	"	"A/G"	"53,2/46,8"	"59/52"	111	stress_12bis	"POPTR_0005s11860.1"	458	"	"A/G"	"62,1/37,9"	"18/11"	29
controllo_3	"POPTR_0005s11860.1"	458	"	"A/G"	"53,2/46,8"	"59/52"	111	stress_45	"POPTR_0005s11860.1"	458	"	"A/G"	"50,0/50,0"	"11/11"	22
controllo_3	"POPTR_0017s14470.1"	492	"	"T/G"	"53,2/46,8"	"33/29"	62	stress_45	"POPTR_0017s14470.1"	492	"	"G/T"	"59,7/40,3"	"71/48"	119
controllo_3	"POPTR_0006s14400.1"	621	"	"A/G"	"53,2/46,8"	"667/586"	1253	stress_12bis	"POPTR_0006s14400.1"	621	"	"A/G"	"53,7/46,3"	"165/142"	307
controllo_3	"POPTR_0006s14400.1"	621	"	"A/G"	"53,2/46,8"	"667/586"	1253	stress_42	"POPTR_0006s14400.1"	621	"	"G/A"	"78,6/21,4"	"426/116"	542
controllo_3	"POPTR_0006s14400.1"	621	"	"A/G"	"53,2/46,8"	"667/586"	1253	stress_45	"POPTR_0006s14400.1"	621	"	"G/A"	"79,9/20,1"	"631/159"	790
controllo_3	"POPTR_0006s00470.1"	1065	"	"G/A"	"53,2/46,8"	"83/73"	156	stress_12bis	"POPTR_0006s00470.1"	1065	"	"G/A"	"53,1/46,9"	"26/23"	49
controllo_3	"POPTR_0006s00470.1"	1065	"	"G/A"	"53,2/46,8"	"83/73"	156	stress_42	"POPTR_0006s00470.1"	1065	"	"G/A"	"63,2/36,8"	"12/7"	19
controllo_3	"POPTR_0006s00470.1"	1065	"	"G/A"	"53,2/46,8"	"83/73"	156	stress_45	"POPTR_0006s00470.1"	1065	"	"G/A"	"67,6/32,4"	"25/12"	37
controllo_3	"POPTR_0003s09830.1"	384	"	"G/A"	"53,2/46,8"	"371/327"	698	stress_12bis	"POPTR_0003s09830.1"	384	"	"G/A"	"62,3/37,7"	"96/58"	154
controllo_3	"POPTR_0003s09830.1"	384	"	"G/A"	"53,2/46,8"	"371/327"	698	stress_42	"POPTR_0003s09830.1"	384	"	"G/A"	"61,0/39,0"	"25/16"	41
controllo_3	"POPTR_0003s09830.1"	384	"	"G/A"	"53,2/46,8"	"371/327"	698	stress_45	"POPTR_0003s09830.1"	384	"	"G/A"	"53,8/46,2"	"28/24"	52
controllo_3	"POPTR_0019s08090.1"	30	"	"C/T"	"53,2/46,8"	"58/51"	109	stress_12bis	"POPTR_0019s08090.1"	30	"	"C/T"	"62,5/37,5"	"15/9"	24
controllo_3	"POPTR_0019s08090.1"	30	"	"C/T"	"53,2/46,8"	"58/51"	109	stress_42	"POPTR_0019s08090.1"	30	"	"C/T"	"67,9/32,1"	"19/9"	28
controllo_3	"POPTR_0019s08090.1"	30	"	"C/T"	"53,2/46,8"	"58/51"	109	stress_45	"POPTR_0019s08090.1"	30	"	"C/T"	"64,1/35,9"	"25/14"	39
controllo_3	"POPTR_0019s11720.1"	429	"	"C/A"	"53,2/46,8"	"165/145"	310	stress_12bis	"POPTR_0019s11720.1"	429	"	"A/C"	"52,9/47,1"	"36/32"	68
controllo_3	"POPTR_0019s11720.1"	429	"	"C/A"	"53,2/46,8"	"165/145"	310	stress_42	"POPTR_0019s11720.1"	429	"	"A/C"	"52,2/47,8"	"12/11"	23
controllo_3	"POPTR_0019s11720.1"	429	"	"C/A"	"53,2/46,8"	"165/145"	310	stress_45	"POPTR_0019s11720.1"	429	"	"C/A"	"54,3/45,7"	"19/16"	35
controllo_3	"POPTR_0013s07050.1"	711	"	"A/G"	"53,2/46,8"	"58/51"	109	stress_12bis	"POPTR_0013s07050.1"	711	"	"G/A"	"74,3/25,7"	"26/9"	35
controllo_3	"POPTR_0013s07050.1"	711	"	"A/G"	"53,2/46,8"	"58/51"	109	stress_42	"POPTR_0013s07050.1"	711	"	"G/A"	"69,2/30,8"	"27/12"	39
controllo_3	"POPTR_0013s07050.1"	711	"	"A/G"	"53,2/46,8"	"58/51"	109	stress_45	"POPTR_0013s07050.1"	711	"	"G/A"	"68,2/29,5"	"30/13"	44
controllo_3	"POPTR_0013s07050.1"	1369	"	"A/T"	"53,2/46,8"	"74/65"	139	stress_12bis	"POPTR_0013s07050.1"	1369	"	"T/A"	"63,0/37,0"	"29/17"	46
controllo_3	"POPTR_0013s07050.1"	1369	"	"A/T"	"53,2/46,8"	"74/65"	139	stress_42	"POPTR_0013s07050.1"	1369	"	"T/A"	"59,2/39,5"	"45/30"	76
controllo_3	"POPTR_0013s07050.1"	1369	"	"A/T"	"53,2/46,8"	"74/65"	139	stress_45	"POPTR_0013s07050.1"	1369	"	"A/T"	"54,7/45,3"	"35/29"	64
controllo_3	"POPTR_0014s02550.1"	1482	"	"T/C"	"53,2/46,8"	"101/89"	190	stress_12bis	"POPTR_0014s02550.1"	1482	"	"C/T"	"55,6/44,4"	"35/28"	63
controllo_3	"POPTR_0014s02550.1"	1482	"	"T/C"	"53,2/46,8"	"101/89"	190	stress_42	"POPTR_0014s02550.1"	1482	"	"C/T"	"50,0/50,0"	"35/35"	70
controllo_3	"POPTR_0014s02550.1"	1482	"	"T/C"	"53,2/46,8"	"101/89"	190	stress_45	"POPTR_0014s02550.1"	1482	"	"C/T"	"54,0/46,0"	"75/64"	139
controllo_3	"POPTR_0004s16920.1"	627	"	"T/C"	"53,2/46,8"	"1033/910"	1943	stress_12bis	"POPTR_0004s16920.1"	627	"	"T/C"	"50,7/49,3"	"304/296"	600
controllo_3	"POPTR_0004s16920.1"	627	"	"T/C"	"53,2/46,8"	"1033/910"	1943	stress_42	"POPTR_0004s16920.1"	627	"	"C/T"	"51,6/48,4"	"32/30"	62
controllo_3	"POPTR_0004s16920.1"	627	"	"T/C"	"53,2/46,8"	"1033/910"	1943	stress_45	"POPTR_0004s16920.1"	627	"	"C/T"	"70,8/29,2"	"46/19"	65
controllo_3	"POPTR_0004s15900.1"	278	"	"T/C"	"53,2/46,8"	"58/51"	109	stress_42	"POPTR_0004s15900.1"	278	"	"T/C"	"73,3/26,7"	"11/4"	15
controllo_3	"POPTR_0004s15900.1"	278	"	"T/C"	"53,2/46,8"	"58/51"	109	stress_45	"POPTR_0004s15900.1"	278	"	"T/C"	"68,8/31,2"	"11/5"	16
controllo_3	"POPTR_0004s04860.1"	927	"	"T/C"	"53,2/46,8"	"190/167"	357	stress_12bis	"POPTR_0004s04860.1"	927	"	"T/C"	"59,1/40,9"	"52/36"	88
controllo_3	"POPTR_0004s04860.1"	927	"	"T/C"	"53,2/46,8"	"190/167"	357	stress_42	"POPTR_0004s04860.1"	927	"	"C/T"	"67,6/32,4"	"23/11"	34
controllo_3	"POPTR_0004s04860.1"	927	"	"T/C"	"53,2/46,8"	"190/167"	357	stress_45	"POPTR_0004s04860.1"	927	"	"C/T"	"52,3/47,7"	"23/21"	44
controllo_3	"POPTR_0004s17020.1"	864	"	"T/A"	"53,2/46,8"	"59/52"	111	stress_12bis	"POPTR_0004s17020.1"	864	"	"A/T"	"50,9/49,1"	"29/28"	57
controllo_3	"POPTR_0004s17020.1"	864	"	"T/A"	"53,2/46,8"	"59/52"	111	stress_42	"POPTR_0004s17020.1"	864	"	"T/A"	"54,8/45,2"	"34/28"	62
controllo_3	"POPTR_0004s17020.1"	864	"	"T/A"	"53,2/46,8"	"59/52"	111	stress_45	"POPTR_0004s17020.1"	864	"	"T/A"	"52,3/47,7"	"46/42"	88
controllo_3	"POPTR_0009s11480.1"	675	"	"T/C"	"53,2/46,8"	"125/110"	235	stress_12bis	"POPTR_0009s11480.1"	675	"	"T/C"	"51,0/49,0"	"53/51"	104
controllo_3	"POPTR_0009s11480.1"	675	"	"T/C"	"53,2/46,8"	"125/110"	235	stress_42	"POPTR_0009s11480.1"	675	"	"T/C"	"63,2/36,8"	"12/7"	19
controllo_3	"POPTR_0009s11480.1"	675	"	"T/C"	"53,2/46,8"	"125/110"	235	stress_45	"POPTR_0009s11480.1"	675	"	"T/C"	"58,1/41,9"	"18/13"	31
controllo_3	"POPTR_0009s06690.1"	903	"	"A/C"	"53,2/46,8"	"116/102"	218	stress_12bis	"POPTR_0009s06690.1"	903	"	"A/C"	"50,0/50,0"	"33/33"	66
controllo_3	"POPTR_0009s06690.1"	903	"	"A/C"	"53,2/46,8"	"116/102"	218	stress_42	"POPTR_0009s06690.1"	903	"	"A/C"	"55,8/44,2"	"67/53"	120
controllo_3	"POPTR_0009s06690.1"	903	"	"A/C"	"53,2/46,8"	"116/102"	218	stress_45	"POPTR_0009s06690.1"	903	"	"A/C"	"56,7/43,3"	"119/91"	210
controllo_3	"POPTR_0009s02070.1"	369	"	"T/C"	"53,2/46,8"	"59/52"	111	stress_12bis	"POPTR_0009s02070.1"	369	"	"T/C"	"52,4/47,6"	"11/10"	21
controllo_3	"POPTR_0009s02070.1"	369	"	"T/C"	"53,2/46,8"	"59/52"	111	stress_42	"POPTR_0009s02070.1"	369	"	"T/C"	"53,6/46,4"	"15/13"	28
controllo_3	"POPTR_0009s02070.1"	369	"	"T/C"	"53,2/46,8"	"59/52"	111	stress_45	"POPTR_0009s02070.1"	369	"	"T/C"	"59,3/40,7"	"16/11"	27
controllo_3	"POPTR_0009s05790.1"	224	"	"C/T"	"53,2/46,8"	"58/51"	109	stress_12bis	"POPTR_0009s05790.1"	224	"	"C/T"	"50,0/50,0"	"12/12"	24
controllo_3	"POPTR_0009s12150.1"	189	"	"G/A"	"53,2/46,8"	"58/51"	109	stress_12bis	"POPTR_0009s12150.1"	189	"	"A/G"	"53,3/46,7"	"16/14"	30
controllo_3	"POPTR_0009s12150.1"	189	"	"G/A"	"53,2/46,8"	"58/51"	109	stress_42	"POPTR_0009s12150.1"	189	"	"A/G"	"52,6/47,4"	"20/18"	38
controllo_3	"POPTR_0009s12150.1"	189	"	"G/A"	"53,2/46,8"	"58/51"	109	stress_45	"POPTR_0009s12150.1"	189	"	"A/G"	"60,3/39,7"	"35/23"	58
controllo_3	"POPTR_0012s09570.1"	877	"	"C/A"	"53,2/46,8"	"253/223"	476	stress_12bis	"POPTR_0012s09570.1"	877	"	"C/A"	"56,5/43,5"	"48/37"	85
controllo_3	"POPTR_0012s09570.1"	877	"	"C/A"	"53,2/46,8"	"253/223"	476	stress_42	"POPTR_0012s09570.1"	877	"	"C/A"	"52,6/47,4"	"80/72"	152
controllo_3	"POPTR_0012s09570.1"	877	"	"C/A"	"53,2/46,8"	"253/223"	476	stress_45	"POPTR_0012s09570.1"	877	"	"A/C"	"51,8/47,6"	"88/81"	170
controllo_3	"POPTR_0011s11390.1"	924	"	"C/T"	"53,2/46,8"	"723/636"	1359	stress_12bis	"POPTR_0011s11390.1"	924	"	"C/T"	"57,3/42,5"	"259/192"	452
controllo_3	"POPTR_0011s11390.1"	924	"	"C/T"	"53,2/46,8"	"723/636"	1359	stress_42	"POPTR_0011s11390.1"	924	"	"T/C"	"58,2/40,9"	"64/45"	110
controllo_3	"POPTR_0011s11390.1"	924	"	"C/T"	"53,2/46,8"	"723/636"	1359	stress_45	"POPTR_0011s11390.1"	924	"	"T/C"	"54,2/45,8"	"58/49"	107
controllo_3	"POPTR_0001s45410.1"	810	"	"G/A"	"53,2/46,8"	"66/58"	124	stress_12bis	"POPTR_0001s45410.1"	810	"	"G/A"	"58,0/42,0"	"29/21"	50
controllo_3	"POPTR_0001s45410.1"	810	"	"G/A"	"53,2/46,8"	"66/58"	124	stress_42	"POPTR_0001s45410.1"	810	"	"A/G"	"72,7/27,3"	"8/3"	11
controllo_3	"POPTR_0001s45410.1"	810	"	"G/A"	"53,2/46,8"	"66/58"	124	stress_45	"POPTR_0001s45410.1"	810	"	"A/G"	"62,5/37,5"	"15/9"	24
controllo_3	"POPTR_0001s35230.1"	42	"	"A/C"	"53,2/46,8"	"412/362"	774	stress_12bis	"POPTR_0001s35230.1"	42	"	"A/C"	"52,8/47,2"	"113/101"	214
controllo_3	"POPTR_0001s35230.1"	42	"	"A/C"	"53,2/46,8"	"412/362"	774	stress_42	"POPTR_0001s35230.1"	42	"	"A/C"	"52,8/47,2"	"56/50"	106
controllo_3	"POPTR_0001s35230.1"	42	"	"A/C"	"53,2/46,8"	"412/362"	774	stress_45	"POPTR_0001s35230.1"	42	"	"A/C"	"50,4/49,6"	"68/67"	135
controllo_3	"POPTR_0001s24450.1"	1278	"	"T/A"	"53,2/46,8"	"74/65"	139	stress_12bis	"POPTR_0001s24450.1"	1278	"	"T/A"	"51,1/48,9"	"24/23"	47
controllo_3	"POPTR_0001s24450.1"	1278	"	"T/A"	"53,2/46,8"	"74/65"	139	stress_42	"POPTR_0001s24450.1"	1278	"	"A/T"	"63,2/36,8"	"12/7"	19
controllo_3	"POPTR_0001s24450.1"	1278	"	"T/A"	"53,2/46,8"	"74/65"	139	stress_45	"POPTR_0001s24450.1"	1278	"	"A/T"	"52,6/47,4"	"20/18"	38
controllo_3	"POPTR_0001s36050.1"	229	"	"G/A"	"53,2/46,8"	"58/51"	109	stress_12bis	"POPTR_0001s36050.1"	229	"	"G/A"	"59,5/40,5"	"22/15"	37
controllo_3	"POPTR_0001s36050.1"	229	"	"G/A"	"53,2/46,8"	"58/51"	109	stress_42	"POPTR_0001s36050.1"	229	"	"A/G"	"52,1/47,9"	"38/35"	73
controllo_3	"POPTR_0001s36050.1"	229	"	"G/A"	"53,2/46,8"	"58/51"	109	stress_45	"POPTR_0001s36050.1"	229	"	"G/A"	"57,1/42,9"	"52/39"	91
controllo_3	"POPTR_0001s18460.1"	448	"	"A/G"	"53,2/46,8"	"115/101"	216	stress_12bis	"POPTR_0001s18460.1"	448	"	"A/G"	"57,8/42,2"	"37/27"	64
controllo_3	"POPTR_0001s18460.1"	448	"	"A/G"	"53,2/46,8"	"115/101"	216	stress_42	"POPTR_0001s18460.1"	448	"	"G/A"	"53,3/46,7"	"8/7"	15
controllo_3	"POPTR_0001s18460.1"	448	"	"A/G"	"53,2/46,8"	"115/101"	216	stress_45	"POPTR_0001s18460.1"	448	"	"A/G"	"60,0/40,0"	"12/8"	20
controllo_3	"POPTR_0001s15140.1"	609	"	"T/A"	"53,2/46,8"	"91/80"	171	stress_12bis	"POPTR_0001s15140.1"	609	"	"T/A"	"72,0/28,0"	"18/7"	25
controllo_3	"POPTR_0001s15140.1"	609	"	"T/A"	"53,2/46,8"	"91/80"	171	stress_42	"POPTR_0001s15140.1"	609	"	"T/A"	"73,9/26,1"	"17/6"	23
controllo_3	"POPTR_0001s15140.1"	609	"	"T/A"	"53,2/46,8"	"91/80"	171	stress_45	"POPTR_0001s15140.1"	609	"	"T/A"	"71,4/28,6"	"15/6"	21
controllo_3	"POPTR_0010s10330.1"	103	"	"T/C"	"53,2/46,8"	"59/52"	111	stress_12bis	"POPTR_0010s10330.1"	103	"	"T/C"	"55,3/44,7"	"21/17"	38
controllo_3	"POPTR_0010s10330.1"	103	"	"T/C"	"53,2/46,8"	"59/52"	111	stress_42	"POPTR_0010s10330.1"	103	"	"T/C"	"66,7/33,3"	"10/5"	15
controllo_3	"POPTR_0010s10330.1"	103	"	"T/C"	"53,2/46,8"	"59/52"	111	stress_45	"POPTR_0010s10330.1"	103	"	"C/T"	"55,0/45,0"	"11/9"	20
controllo_3	"POPTR_0010s22560.1"	384	"	"C/G"	"53,2/46,8"	"58/51"	109	stress_12bis	"POPTR_0010s22560.1"	384	"	"C/G"	"59,2/40,8"	"29/20"	49
controllo_3	"POPTR_0010s22560.1"	384	"	"C/G"	"53,2/46,8"	"58/51"	109	stress_42	"POPTR_0010s22560.1"	384	"	"C/G"	"65,2/34,8"	"30/16"	46
controllo_3	"POPTR_0010s22560.1"	384	"	"C/G"	"53,2/46,8"	"58/51"	109	stress_45	"POPTR_0010s22560.1"	384	"	"C/G"	"51,2/48,8"	"42/40"	82
controllo_3	"POPTR_0007s04180.1"	273	"	"T/C"	"53,2/46,8"	"59/52"	111	stress_12bis	"POPTR_0007s04180.1"	273	"	"T/C"	"62,7/37,3"	"32/19"	51
controllo_3	"POPTR_0007s04180.1"	273	"	"T/C"	"53,2/46,8"	"59/52"	111	stress_42	"POPTR_0007s04180.1"	273	"	"T/C"	"60,0/40,0"	"9/6"	15
controllo_3	"POPTR_0007s04180.1"	273	"	"T/C"	"53,2/46,8"	"59/52"	111	stress_45	"POPTR_0007s04180.1"	273	"	"T/C"	"65,5/34,5"	"19/10"	29
controllo_3	"POPTR_0002s15840.1"	416	"	"G/A"	"53,2/46,8"	"58/51"	109	stress_12bis	"POPTR_0002s15840.1"	416	"	"A/G"	"54,1/45,9"	"20/17"	37
controllo_3	"POPTR_0002s15840.1"	416	"	"G/A"	"53,2/46,8"	"58/51"	109	stress_42	"POPTR_0002s15840.1"	416	"	"A/G"	"50,0/50,0"	"11/11"	22
controllo_3	"POPTR_0002s15840.1"	416	"	"G/A"	"53,2/46,8"	"58/51"	109	stress_45	"POPTR_0002s15840.1"	416	"	"G/A"	"64,3/35,7"	"9/5"	14
controllo_3	"POPTR_0008s10050.1"	104	"	"G/C"	"53,2/46,8"	"84/74"	158	stress_12bis	"POPTR_0008s10050.1"	104	"	"G/C"	"50,9/49,1"	"29/28"	57
controllo_3	"POPTR_0008s10050.1"	104	"	"G/C"	"53,2/46,8"	"84/74"	158	stress_42	"POPTR_0008s10050.1"	104	"	"C/G"	"58,3/41,7"	"7/5"	12
controllo_3	"POPTR_0008s10050.1"	104	"	"G/C"	"53,2/46,8"	"84/74"	158	stress_45	"POPTR_0008s10050.1"	104	"	"G/C"	"76,9/23,1"	"10/3"	13
controllo_3	"POPTR_0008s15780.1"	428	"	"C/T"	"53,2/46,8"	"1211/1066"	2278	stress_12bis	"POPTR_0008s15780.1"	428	"	"C/T"	"58,7/41,3"	"477/336"	813
controllo_3	"POPTR_0008s15780.1"	428	"	"C/T"	"53,2/46,8"	"1211/1066"	2278	stress_42	"POPTR_0008s15780.1"	428	"	"C/T"	"53,7/46,3"	"498/429"	927
controllo_3	"POPTR_0008s15780.1"	428	"	"C/T"	"53,2/46,8"	"1211/1066"	2278	stress_45	"POPTR_0008s15780.1"	428	"	"C/T"	"52,6/47,4"	"543/490"	1033
controllo_3	"POPTR_0006s03660.1"	4422	"	"G/A"	"53,3/46,4"	"177/154"	332	stress_12bis	"POPTR_0006s03660.1"	4422	"	"A/G"	"50,0/50,0"	"36/36"	72
controllo_3	"POPTR_0006s03660.1"	4422	"	"G/A"	"53,3/46,4"	"177/154"	332	stress_42	"POPTR_0006s03660.1"	4422	"	"A/G"	"51,1/48,9"	"24/23"	47
controllo_3	"POPTR_0006s03660.1"	4422	"	"G/A"	"53,3/46,4"	"177/154"	332	stress_45	"POPTR_0006s03660.1"	4422	"	"G/A"	"50,6/49,4"	"42/41"	83
controllo_3	"POPTR_0016s11610.1"	648	"	"T/A"	"53,3/46,4"	"170/148"	319	stress_12bis	"POPTR_0016s11610.1"	648	"	"T/A"	"58,8/41,2"	"50/35"	85
controllo_3	"POPTR_0016s11610.1"	648	"	"T/A"	"53,3/46,4"	"170/148"	319	stress_42	"POPTR_0016s11610.1"	648	"	"T/A"	"61,5/38,5"	"24/15"	39
controllo_3	"POPTR_0016s11610.1"	648	"	"T/A"	"53,3/46,4"	"170/148"	319	stress_45	"POPTR_0016s11610.1"	648	"	"T/A"	"55,1/44,9"	"27/22"	49
controllo_3	"POPTR_0014s17070.1"	240	"	"C/T"	"53,3/46,6"	"976/854"	1831	stress_12bis	"POPTR_0014s17070.1"	240	"	"T/C"	"53,5/46,5"	"317/276"	593
controllo_3	"POPTR_0014s17070.1"	240	"	"C/T"	"53,3/46,6"	"976/854"	1831	stress_42	"POPTR_0014s17070.1"	240	"	"T/C"	"51,4/48,6"	"91/86"	177
controllo_3	"POPTR_0014s17070.1"	240	"	"C/T"	"53,3/46,6"	"976/854"	1831	stress_45	"POPTR_0014s17070.1"	240	"	"T/C"	"54,6/45,4"	"118/98"	216
controllo_3	"POPTR_0004s01220.1"	387	"	"G/A"	"53,3/46,6"	"342/299"	642	stress_12bis	"POPTR_0004s01220.1"	387	"	"G/A"	"58,0/42,0"	"51/37"	88
controllo_3	"POPTR_0004s01220.1"	387	"	"G/A"	"53,3/46,6"	"342/299"	642	stress_45	"POPTR_0004s01220.1"	387	"	"A/G"	"57,1/42,9"	"8/6"	14
controllo_3	"POPTR_0004s08380.1"	426	"	"A/G"	"53,3/46,6"	"845/738"	1584	stress_12bis	"POPTR_0004s08380.1"	426	"	"A/G"	"50,7/49,1"	"227/220"	448
controllo_3	"POPTR_0004s08380.1"	426	"	"A/G"	"53,3/46,6"	"845/738"	1584	stress_42	"POPTR_0004s08380.1"	426	"	"A/G"	"60,7/39,3"	"37/24"	61
controllo_3	"POPTR_0004s08380.1"	426	"	"A/G"	"53,3/46,6"	"845/738"	1584	stress_45	"POPTR_0004s08380.1"	426	"	"A/G"	"54,1/45,9"	"40/34"	74
controllo_3	"POPTR_0002s08410.1"	705	"	"G/A"	"53,3/46,6"	"1142/998"	2143	stress_12bis	"POPTR_0002s08410.1"	705	"	"A/G"	"49,8/49,8"	"326/326"	654
controllo_3	"POPTR_0002s08410.1"	705	"	"G/A"	"53,3/46,6"	"1142/998"	2143	stress_42	"POPTR_0002s08410.1"	705	"	"G/A"	"61,6/38,0"	"151/93"	245
controllo_3	"POPTR_0002s08410.1"	705	"	"G/A"	"53,3/46,6"	"1142/998"	2143	stress_45	"POPTR_0002s08410.1"	705	"	"G/A"	"50,7/49,3"	"138/134"	272
controllo_3	"POPTR_0005s26220.1"	77	"	"A/G"	"53,3/46,7"	"32/28"	60	stress_42	"POPTR_0005s26220.1"	77	"	"G/A"	"63,9/36,1"	"92/52"	144
controllo_3	"POPTR_0005s26220.1"	77	"	"A/G"	"53,3/46,7"	"32/28"	60	stress_45	"POPTR_0005s26220.1"	77	"	"G/A"	"60,6/39,4"	"66/43"	109
controllo_3	"POPTR_0005s05450.1"	78	"	"A/G"	"53,3/46,7"	"131/115"	246	stress_12bis	"POPTR_0005s05450.1"	78	"	"G/A"	"52,2/47,8"	"24/22"	46
controllo_3	"POPTR_0005s05450.1"	78	"	"A/G"	"53,3/46,7"	"131/115"	246	stress_45	"POPTR_0005s05450.1"	78	"	"A/G"	"50,0/50,0"	"9/9"	18
controllo_3	"POPTR_0005s06460.1"	585	"	"T/A"	"53,3/46,7"	"64/56"	120	stress_12bis	"POPTR_0005s06460.1"	585	"	"A/T"	"52,9/47,1"	"27/24"	51
controllo_3	"POPTR_0005s06460.1"	585	"	"T/A"	"53,3/46,7"	"64/56"	120	stress_42	"POPTR_0005s06460.1"	585	"	"A/T"	"61,8/38,2"	"21/13"	34
controllo_3	"POPTR_0005s06460.1"	585	"	"T/A"	"53,3/46,7"	"64/56"	120	stress_45	"POPTR_0005s06460.1"	585	"	"A/T"	"63,6/36,4"	"14/8"	22
controllo_3	"POPTR_0005s22780.1"	37	"	"T/C"	"53,3/46,7"	"105/92"	197	stress_12bis	"POPTR_0005s22780.1"	37	"	"C/T"	"53,8/46,2"	"71/61"	132
controllo_3	"POPTR_0005s22780.1"	37	"	"T/C"	"53,3/46,7"	"105/92"	197	stress_42	"POPTR_0005s22780.1"	37	"	"T/C"	"52,4/47,6"	"22/20"	42
controllo_3	"POPTR_0005s22780.1"	37	"	"T/C"	"53,3/46,7"	"105/92"	197	stress_45	"POPTR_0005s22780.1"	37	"	"C/T"	"58,3/41,7"	"21/15"	36
controllo_3	"POPTR_0006s00470.1"	1272	"	"A/G"	"53,3/46,7"	"72/63"	135	stress_12bis	"POPTR_0006s00470.1"	1272	"	"A/G"	"57,1/42,9"	"16/12"	28
controllo_3	"POPTR_0006s00470.1"	1272	"	"A/G"	"53,3/46,7"	"72/63"	135	stress_42	"POPTR_0006s00470.1"	1272	"	"A/G"	"60,0/40,0"	"6/4"	10
controllo_3	"POPTR_0006s00470.1"	1272	"	"A/G"	"53,3/46,7"	"72/63"	135	stress_45	"POPTR_0006s00470.1"	1272	"	"A/G"	"55,9/44,1"	"19/15"	34
controllo_3	"POPTR_0006s04960.1"	818	"	"C/A"	"53,3/46,7"	"112/98"	210	stress_12bis	"POPTR_0006s04960.1"	818	"	"C/A"	"51,2/48,8"	"21/20"	41
controllo_3	"POPTR_0006s04960.1"	818	"	"C/A"	"53,3/46,7"	"112/98"	210	stress_45	"POPTR_0006s04960.1"	818	"	"C/A"	"76,9/23,1"	"10/3"	13
controllo_3	"POPTR_0006s03660.1"	1612	"	"A/C"	"53,3/46,7"	"81/71"	152	stress_12bis	"POPTR_0006s03660.1"	1612	"	"A/C"	"58,3/41,7"	"21/15"	36
controllo_3	"POPTR_0006s03660.1"	1612	"	"A/C"	"53,3/46,7"	"81/71"	152	stress_45	"POPTR_0006s03660.1"	1612	"	"A/C"	"63,6/36,4"	"14/8"	22
controllo_3	"POPTR_0006s03660.1"	3684	"	"C/T"	"53,3/46,7"	"90/79"	169	stress_12bis	"POPTR_0006s03660.1"	3684	"	"T/C"	"51,0/49,0"	"25/24"	49
controllo_3	"POPTR_0006s03660.1"	3684	"	"C/T"	"53,3/46,7"	"90/79"	169	stress_42	"POPTR_0006s03660.1"	3684	"	"T/C"	"53,8/46,2"	"7/6"	13
controllo_3	"POPTR_0006s03660.1"	3684	"	"C/T"	"53,3/46,7"	"90/79"	169	stress_45	"POPTR_0006s03660.1"	3684	"	"C/T"	"55,3/44,7"	"21/17"	38
controllo_3	"POPTR_0006s08710.1"	576	"	"C/T"	"53,3/46,7"	"122/107"	229	stress_12bis	"POPTR_0006s08710.1"	576	"	"C/T"	"55,2/44,8"	"53/43"	96
controllo_3	"POPTR_0006s08710.1"	576	"	"C/T"	"53,3/46,7"	"122/107"	229	stress_42	"POPTR_0006s08710.1"	576	"	"C/T"	"61,4/38,6"	"27/17"	44
controllo_3	"POPTR_0006s08710.1"	576	"	"C/T"	"53,3/46,7"	"122/107"	229	stress_45	"POPTR_0006s08710.1"	576	"	"C/T"	"53,3/45,0"	"32/27"	60
controllo_3	"POPTR_0021s00380.1"	1074	"	"C/T"	"53,3/46,7"	"170/149"	319	stress_12bis	"POPTR_0021s00380.1"	1074	"	"C/T"	"52,0/48,0"	"64/59"	123
controllo_3	"POPTR_0021s00380.1"	1074	"	"C/T"	"53,3/46,7"	"170/149"	319	stress_42	"POPTR_0021s00380.1"	1074	"	"T/C"	"55,0/45,0"	"11/9"	20
controllo_3	"POPTR_0021s00380.1"	1074	"	"C/T"	"53,3/46,7"	"170/149"	319	stress_45	"POPTR_0021s00380.1"	1074	"	"C/T"	"57,9/42,1"	"11/8"	19
controllo_3	"POPTR_0018s03110.1"	634	"	"C/A"	"53,3/46,7"	"65/57"	122	stress_12bis	"POPTR_0018s03110.1"	634	"	"C/A"	"57,5/42,5"	"23/17"	40
controllo_3	"POPTR_0018s03110.1"	634	"	"C/A"	"53,3/46,7"	"65/57"	122	stress_42	"POPTR_0018s03110.1"	634	"	"C/A"	"52,9/47,1"	"9/8"	17
controllo_3	"POPTR_0018s03110.1"	634	"	"C/A"	"53,3/46,7"	"65/57"	122	stress_45	"POPTR_0018s03110.1"	634	"	"C/A"	"55,0/45,0"	"11/9"	20
controllo_3	"POPTR_0018s11600.1"	1572	"	"C/T"	"53,3/46,7"	"72/63"	135	stress_12bis	"POPTR_0018s11600.1"	1572	"	"T/C"	"59,6/40,4"	"34/23"	57
controllo_3	"POPTR_0018s11600.1"	1572	"	"C/T"	"53,3/46,7"	"72/63"	135	stress_42	"POPTR_0018s11600.1"	1572	"	"C/T"	"52,6/47,4"	"20/18"	38
controllo_3	"POPTR_0018s11600.1"	1572	"	"C/T"	"53,3/46,7"	"72/63"	135	stress_45	"POPTR_0018s11600.1"	1572	"	"T/C"	"58,1/41,9"	"25/18"	43
controllo_3	"POPTR_0018s09730.1"	1002	"	"T/C"	"53,3/46,7"	"57/50"	107	stress_12bis	"POPTR_0018s09730.1"	1002	"	"T/C"	"57,1/42,9"	"12/9"	21
controllo_3	"POPTR_0018s09730.1"	1002	"	"T/C"	"53,3/46,7"	"57/50"	107	stress_42	"POPTR_0018s09730.1"	1002	"	"T/C"	"61,5/38,5"	"104/65"	169
controllo_3	"POPTR_0018s09730.1"	1002	"	"T/C"	"53,3/46,7"	"57/50"	107	stress_45	"POPTR_0018s09730.1"	1002	"	"T/C"	"58,4/41,6"	"143/102"	245
controllo_3	"POPTR_0003s13880.1"	129	"	"G/A"	"53,3/46,7"	"98/86"	184	stress_12bis	"POPTR_0003s13880.1"	129	"	"A/G"	"51,4/48,6"	"36/34"	70
controllo_3	"POPTR_0003s13880.1"	129	"	"G/A"	"53,3/46,7"	"98/86"	184	stress_42	"POPTR_0003s13880.1"	129	"	"A/G"	"54,0/46,0"	"116/99"	215
controllo_3	"POPTR_0003s13880.1"	129	"	"G/A"	"53,3/46,7"	"98/86"	184	stress_45	"POPTR_0003s13880.1"	129	"	"A/G"	"56,4/43,6"	"146/113"	259
controllo_3	"POPTR_0003s13880.1"	414	"	"T/C"	"53,3/46,7"	"56/49"	105	stress_12bis	"POPTR_0003s13880.1"	414	"	"C/T"	"54,5/45,5"	"24/20"	44
controllo_3	"POPTR_0003s13880.1"	414	"	"T/C"	"53,3/46,7"	"56/49"	105	stress_42	"POPTR_0003s13880.1"	414	"	"T/C"	"60,6/39,4"	"80/52"	132
controllo_3	"POPTR_0003s13880.1"	414	"	"T/C"	"53,3/46,7"	"56/49"	105	stress_45	"POPTR_0003s13880.1"	414	"	"T/C"	"52,1/47,3"	"76/69"	146
controllo_3	"POPTR_0003s14220.1"	1662	"	"T/C"	"53,3/46,7"	"65/57"	122	stress_12bis	"POPTR_0003s14220.1"	1662	"	"C/T"	"52,9/47,1"	"9/8"	17
controllo_3	"POPTR_0003s08140.1"	688	"	"C/G"	"53,3/46,7"	"8/7"	15	stress_42	"POPTR_0003s08140.1"	688	"	"G/C"	"62,9/37,1"	"217/128"	345
controllo_3	"POPTR_0003s08140.1"	688	"	"C/G"	"53,3/46,7"	"8/7"	15	stress_45	"POPTR_0003s08140.1"	688	"	"G/C"	"59,7/40,3"	"250/169"	419
controllo_3	"POPTR_0003s20840.1"	1392	"	"G/A"	"53,3/46,7"	"49/43"	92	stress_12bis	"POPTR_0003s20840.1"	1392	"	"G/A"	"55,6/44,4"	"60/48"	108
controllo_3	"POPTR_0013s13220.1"	288	"	"T/C"	"53,3/46,7"	"104/91"	195	stress_12bis	"POPTR_0013s13220.1"	288	"	"T/C"	"53,3/46,7"	"40/35"	75
controllo_3	"POPTR_0013s13220.1"	288	"	"T/C"	"53,3/46,7"	"104/91"	195	stress_42	"POPTR_0013s13220.1"	288	"	"T/C"	"61,0/39,0"	"47/30"	77
controllo_3	"POPTR_0013s13220.1"	288	"	"T/C"	"53,3/46,7"	"104/91"	195	stress_45	"POPTR_0013s13220.1"	288	"	"T/C"	"50,7/49,3"	"73/71"	144
controllo_3	"POPTR_0013s05790.1"	460	"	"T/A"	"53,3/46,7"	"40/35"	75	stress_42	"POPTR_0013s05790.1"	460	"	"T/A"	"52,7/47,3"	"69/62"	131
controllo_3	"POPTR_0014s10260.1"	408	"	"T/C"	"53,3/46,7"	"112/98"	210	stress_12bis	"POPTR_0014s10260.1"	408	"	"C/T"	"55,3/44,7"	"26/21"	47
controllo_3	"POPTR_0014s10260.1"	408	"	"T/C"	"53,3/46,7"	"112/98"	210	stress_42	"POPTR_0014s10260.1"	408	"	"T/C"	"63,6/36,4"	"14/8"	22
controllo_3	"POPTR_0014s10260.1"	408	"	"T/C"	"53,3/46,7"	"112/98"	210	stress_45	"POPTR_0014s10260.1"	408	"	"T/C"	"52,6/47,4"	"20/18"	38
controllo_3	"POPTR_0004s16920.1"	582	"	"G/A"	"53,3/46,7"	"373/327"	700	stress_12bis	"POPTR_0004s16920.1"	582	"	"G/A"	"58,5/41,5"	"134/95"	229
controllo_3	"POPTR_0004s16920.1"	582	"	"G/A"	"53,3/46,7"	"373/327"	700	stress_42	"POPTR_0004s16920.1"	582	"	"G/A"	"57,7/42,3"	"15/11"	26
controllo_3	"POPTR_0004s16920.1"	582	"	"G/A"	"53,3/46,7"	"373/327"	700	stress_45	"POPTR_0004s16920.1"	582	"	"G/A"	"52,8/47,2"	"19/17"	36
controllo_3	"POPTR_0004s14960.1"	2992	"	"G/A"	"53,3/46,7"	"89/78"	167	stress_12bis	"POPTR_0004s14960.1"	2992	"	"G/A"	"64,6/35,4"	"31/17"	48
controllo_3	"POPTR_0004s14960.1"	2992	"	"G/A"	"53,3/46,7"	"89/78"	167	stress_42	"POPTR_0004s14960.1"	2992	"	"G/A"	"72,7/27,3"	"16/6"	22
controllo_3	"POPTR_0004s14960.1"	2992	"	"G/A"	"53,3/46,7"	"89/78"	167	stress_45	"POPTR_0004s14960.1"	2992	"	"G/A"	"61,5/38,5"	"16/10"	26
controllo_3	"POPTR_0004s04860.1"	205	"	"A/G"	"53,3/46,7"	"106/93"	199	stress_12bis	"POPTR_0004s04860.1"	205	"	"A/G"	"65,3/34,7"	"32/17"	49
controllo_3	"POPTR_0004s04860.1"	205	"	"A/G"	"53,3/46,7"	"106/93"	199	stress_45	"POPTR_0004s04860.1"	205	"	"A/G"	"56,5/43,5"	"13/10"	23
controllo_3	"POPTR_0004s22810.1"	100	"	"G/T"	"53,3/46,7"	"3439/3010"	6451	stress_12bis	"POPTR_0004s22810.1"	100	"	"G/T"	"51,2/48,8"	"861/821"	1682
controllo_3	"POPTR_0004s22810.1"	100	"	"G/T"	"53,3/46,7"	"3439/3010"	6451	stress_42	"POPTR_0004s22810.1"	100	"	"G/T"	"60,2/39,8"	"297/196"	493
controllo_3	"POPTR_0004s22810.1"	100	"	"G/T"	"53,3/46,7"	"3439/3010"	6451	stress_45	"POPTR_0004s22810.1"	100	"	"G/T"	"62,3/37,7"	"455/275"	730
controllo_3	"POPTR_0004s20830.1"	1732	"	"A/G"	"53,3/46,7"	"57/50"	107	stress_12bis	"POPTR_0004s20830.1"	1732	"	"G/A"	"59,3/40,7"	"48/33"	81
controllo_3	"POPTR_0004s20830.1"	1732	"	"A/G"	"53,3/46,7"	"57/50"	107	stress_42	"POPTR_0004s20830.1"	1732	"	"A/G"	"61,1/38,9"	"44/28"	72
controllo_3	"POPTR_0004s20830.1"	1732	"	"A/G"	"53,3/46,7"	"57/50"	107	stress_45	"POPTR_0004s20830.1"	1732	"	"A/G"	"60,0/40,0"	"30/20"	50
controllo_3	"POPTR_0009s05850.1"	108	"	"G/A"	"53,3/46,7"	"64/56"	120	stress_12bis	"POPTR_0009s05850.1"	108	"	"G/A"	"68,2/31,8"	"15/7"	22
controllo_3	"POPTR_0009s05850.1"	108	"	"G/A"	"53,3/46,7"	"64/56"	120	stress_42	"POPTR_0009s05850.1"	108	"	"G/A"	"56,5/43,5"	"13/10"	23
controllo_3	"POPTR_0009s05850.1"	108	"	"G/A"	"53,3/46,7"	"64/56"	120	stress_45	"POPTR_0009s05850.1"	108	"	"G/A"	"57,0/43,0"	"49/37"	86
controllo_3	"POPTR_0012s09290.1"	315	"	"T/C"	"53,3/46,7"	"65/57"	122	stress_12bis	"POPTR_0012s09290.1"	315	"	"C/T"	"80,0/20,0"	"28/7"	35
controllo_3	"POPTR_0012s09290.1"	315	"	"T/C"	"53,3/46,7"	"65/57"	122	stress_42	"POPTR_0012s09290.1"	315	"	"C/T"	"82,6/17,4"	"19/4"	23
controllo_3	"POPTR_0011s05670.1"	654	"	"G/A"	"53,3/46,7"	"121/106"	227	stress_12bis	"POPTR_0011s05670.1"	654	"	"A/G"	"51,4/48,6"	"36/34"	70
controllo_3	"POPTR_0011s05670.1"	654	"	"G/A"	"53,3/46,7"	"121/106"	227	stress_42	"POPTR_0011s05670.1"	654	"	"G/A"	"63,0/37,0"	"17/10"	27
controllo_3	"POPTR_0011s05670.1"	654	"	"G/A"	"53,3/46,7"	"121/106"	227	stress_45	"POPTR_0011s05670.1"	654	"	"G/A"	"56,8/43,2"	"25/19"	44
controllo_3	"POPTR_0011s07530.1"	69	"	"C/T"	"53,3/46,7"	"73/64"	137	stress_12bis	"POPTR_0011s07530.1"	69	"	"C/T"	"57,1/42,9"	"20/15"	35
controllo_3	"POPTR_0011s07530.1"	69	"	"C/T"	"53,3/46,7"	"73/64"	137	stress_42	"POPTR_0011s07530.1"	69	"	"T/C"	"56,2/43,8"	"9/7"	16
controllo_3	"POPTR_0011s07530.1"	69	"	"C/T"	"53,3/46,7"	"73/64"	137	stress_45	"POPTR_0011s07530.1"	69	"	"C/T"	"65,0/35,0"	"13/7"	20
controllo_3	"POPTR_0001s02500.1"	289	"	"C/G"	"53,3/46,7"	"130/114"	244	stress_12bis	"POPTR_0001s02500.1"	289	"	"C/G"	"65,9/34,1"	"29/15"	44
controllo_3	"POPTR_0001s02500.1"	289	"	"C/G"	"53,3/46,7"	"130/114"	244	stress_45	"POPTR_0001s02500.1"	289	"	"C/G"	"54,5/45,5"	"6/5"	11
controllo_3	"POPTR_0001s02570.1"	738	"	"G/T"	"53,3/46,7"	"64/56"	120	stress_12bis	"POPTR_0001s02570.1"	738	"	"G/T"	"58,8/41,2"	"10/7"	17
controllo_3	"POPTR_0001s02570.1"	738	"	"G/T"	"53,3/46,7"	"64/56"	120	stress_45	"POPTR_0001s02570.1"	738	"	"T/G"	"66,7/33,3"	"8/4"	12
controllo_3	"POPTR_0001s47020.1"	1125	"	"A/G"	"53,3/46,7"	"96/84"	180	stress_12bis	"POPTR_0001s47020.1"	1125	"	"A/G"	"54,4/45,6"	"37/31"	68
controllo_3	"POPTR_0001s47020.1"	1125	"	"A/G"	"53,3/46,7"	"96/84"	180	stress_42	"POPTR_0001s47020.1"	1125	"	"A/G"	"52,9/47,1"	"18/16"	34
controllo_3	"POPTR_0001s47020.1"	1125	"	"A/G"	"53,3/46,7"	"96/84"	180	stress_45	"POPTR_0001s47020.1"	1125	"	"A/G"	"54,3/45,7"	"50/42"	92
controllo_3	"POPTR_0010s19860.1"	659	"	"T/C"	"53,3/46,7"	"56/49"	105	stress_12bis	"POPTR_0010s19860.1"	659	"	"T/C"	"56,7/43,3"	"17/13"	30
controllo_3	"POPTR_0010s19860.1"	659	"	"T/C"	"53,3/46,7"	"56/49"	105	stress_42	"POPTR_0010s19860.1"	659	"	"C/T"	"52,8/47,2"	"28/25"	53
controllo_3	"POPTR_0010s19860.1"	659	"	"T/C"	"53,3/46,7"	"56/49"	105	stress_45	"POPTR_0010s19860.1"	659	"	"T/C"	"50,0/49,1"	"55/54"	110
controllo_3	"POPTR_0007s10140.1"	333	"	"A/C"	"53,3/46,7"	"65/57"	122	stress_12bis	"POPTR_0007s10140.1"	333	"	"A/C"	"66,7/33,3"	"8/4"	12
controllo_3	"POPTR_0007s10140.1"	333	"	"A/C"	"53,3/46,7"	"65/57"	122	stress_42	"POPTR_0007s10140.1"	333	"	"A/C"	"71,4/28,6"	"10/4"	14
controllo_3	"POPTR_0007s10140.1"	333	"	"A/C"	"53,3/46,7"	"65/57"	122	stress_45	"POPTR_0007s10140.1"	333	"	"A/C"	"66,7/33,3"	"12/6"	18
controllo_3	"POPTR_0007s15300.1"	1164	"	"G/T"	"53,3/46,7"	"24/21"	45	stress_42	"POPTR_0007s15300.1"	1164	"	"G/T"	"64,3/35,7"	"74/41"	115
controllo_3	"POPTR_0007s14280.1"	1203	"	"T/A"	"53,3/46,7"	"57/50"	107	stress_12bis	"POPTR_0007s14280.1"	1203	"	"T/A"	"60,7/39,3"	"17/11"	28
controllo_3	"POPTR_0007s14280.1"	1203	"	"T/A"	"53,3/46,7"	"57/50"	107	stress_42	"POPTR_0007s14280.1"	1203	"	"A/T"	"50,0/50,0"	"15/15"	30
controllo_3	"POPTR_0007s14280.1"	1203	"	"T/A"	"53,3/46,7"	"57/50"	107	stress_45	"POPTR_0007s14280.1"	1203	"	"T/A"	"62,8/37,2"	"27/16"	43
controllo_3	"POPTR_0008s05480.1"	111	"	"C/T"	"53,3/46,7"	"137/120"	257	stress_12bis	"POPTR_0008s05480.1"	111	"	"C/T"	"52,0/48,0"	"52/48"	100
controllo_3	"POPTR_0008s05480.1"	111	"	"C/T"	"53,3/46,7"	"137/120"	257	stress_42	"POPTR_0008s05480.1"	111	"	"T/C"	"56,4/43,6"	"31/24"	55
controllo_3	"POPTR_0008s05480.1"	111	"	"C/T"	"53,3/46,7"	"137/120"	257	stress_45	"POPTR_0008s05480.1"	111	"	"T/C"	"53,1/46,9"	"78/69"	147
controllo_3	"POPTR_0010s11780.1"	582	"	"T/C"	"53,4/44,4"	"71/59"	133	stress_12bis	"POPTR_0010s11780.1"	582	"	"T/C"	"68,8/28,1"	"22/9"	32
controllo_3	"POPTR_0010s11780.1"	582	"	"T/C"	"53,4/44,4"	"71/59"	133	stress_42	"POPTR_0010s11780.1"	582	"	"C/T"	"50,7/49,3"	"36/35"	71
controllo_3	"POPTR_0010s11780.1"	582	"	"T/C"	"53,4/44,4"	"71/59"	133	stress_45	"POPTR_0010s11780.1"	582	"	"T/C"	"56,4/42,6"	"53/40"	94
controllo_3	"POPTR_0008s05870.1"	1422	"	"T/C"	"53,4/45,5"	"142/121"	266	stress_12bis	"POPTR_0008s05870.1"	1422	"	"T/C"	"55,4/43,5"	"51/40"	92
controllo_3	"POPTR_0008s05870.1"	1422	"	"T/C"	"53,4/45,5"	"142/121"	266	stress_42	"POPTR_0008s05870.1"	1422	"	"T/C"	"60,0/40,0"	"12/8"	20
controllo_3	"POPTR_0008s05870.1"	1422	"	"T/C"	"53,4/45,5"	"142/121"	266	stress_45	"POPTR_0008s05870.1"	1422	"	"C/T"	"50,0/50,0"	"16/16"	32
controllo_3	"POPTR_0006s28990.1"	384	"	"C/T"	"53,4/46,1"	"102/88"	191	stress_12bis	"POPTR_0006s28990.1"	384	"	"C/T"	"56,5/43,5"	"13/10"	23
controllo_3	"POPTR_0006s28990.1"	384	"	"C/T"	"53,4/46,1"	"102/88"	191	stress_42	"POPTR_0006s28990.1"	384	"	"C/T"	"67,8/32,2"	"40/19"	59
controllo_3	"POPTR_0006s28990.1"	384	"	"C/T"	"53,4/46,1"	"102/88"	191	stress_45	"POPTR_0006s28990.1"	384	"	"C/T"	"60,3/39,7"	"47/31"	78
controllo_3	"POPTR_0002s04790.1"	637	"	"T/G"	"53,4/46,1"	"102/88"	191	stress_12bis	"POPTR_0002s04790.1"	637	"	"G/T"	"51,0/49,0"	"25/24"	49
controllo_3	"POPTR_0002s04790.1"	637	"	"T/G"	"53,4/46,1"	"102/88"	191	stress_42	"POPTR_0002s04790.1"	637	"	"G/T"	"60,0/40,0"	"12/8"	20
controllo_3	"POPTR_0002s04790.1"	637	"	"T/G"	"53,4/46,1"	"102/88"	191	stress_45	"POPTR_0002s04790.1"	637	"	"T/G"	"60,0/40,0"	"9/6"	15
controllo_3	"POPTR_0006s22950.1"	332	"	"G/C"	"53,4/46,2"	"111/96"	208	stress_12bis	"POPTR_0006s22950.1"	332	"	"G/C"	"62,7/35,3"	"32/18"	51
controllo_3	"POPTR_0006s22950.1"	332	"	"G/C"	"53,4/46,2"	"111/96"	208	stress_42	"POPTR_0006s22950.1"	332	"	"C/G"	"62,5/37,5"	"10/6"	16
controllo_3	"POPTR_0006s22950.1"	332	"	"G/C"	"53,4/46,2"	"111/96"	208	stress_45	"POPTR_0006s22950.1"	332	"	"C/G"	"59,1/40,9"	"13/9"	22
controllo_3	"POPTR_0002s08010.1"	1312	"	"C/A"	"53,4/46,2"	"141/122"	264	stress_12bis	"POPTR_0002s08010.1"	1312	"	"C/A"	"52,4/47,6"	"22/20"	42
controllo_3	"POPTR_0002s08010.1"	1312	"	"C/A"	"53,4/46,2"	"141/122"	264	stress_42	"POPTR_0002s08010.1"	1312	"	"C/A"	"63,6/36,4"	"7/4"	11
controllo_3	"POPTR_0002s08010.1"	1312	"	"C/A"	"53,4/46,2"	"141/122"	264	stress_45	"POPTR_0002s08010.1"	1312	"	"C/A"	"54,2/45,8"	"13/11"	24
controllo_3	"POPTR_0006s28990.1"	1383	"	"A/G"	"53,4/46,6"	"132/115"	247	stress_12bis	"POPTR_0006s28990.1"	1383	"	"G/A"	"56,2/43,8"	"27/21"	48
controllo_3	"POPTR_0006s28990.1"	1383	"	"A/G"	"53,4/46,6"	"132/115"	247	stress_42	"POPTR_0006s28990.1"	1383	"	"A/G"	"53,5/45,3"	"46/39"	86
controllo_3	"POPTR_0006s28990.1"	1383	"	"A/G"	"53,4/46,6"	"132/115"	247	stress_45	"POPTR_0006s28990.1"	1383	"	"A/G"	"57,0/43,0"	"53/40"	93
controllo_3	"POPTR_0006s28990.1"	2478	"	"A/C"	"53,4/46,6"	"175/153"	328	stress_12bis	"POPTR_0006s28990.1"	2478	"	"A/C"	"58,2/41,8"	"39/28"	67
controllo_3	"POPTR_0006s28990.1"	2478	"	"A/C"	"53,4/46,6"	"175/153"	328	stress_42	"POPTR_0006s28990.1"	2478	"	"A/C"	"60,8/39,2"	"96/62"	158
controllo_3	"POPTR_0006s28990.1"	2478	"	"A/C"	"53,4/46,6"	"175/153"	328	stress_45	"POPTR_0006s28990.1"	2478	"	"A/C"	"61,2/38,8"	"98/62"	160
controllo_3	"POPTR_0006s00470.1"	489	"	"C/A"	"53,4/46,6"	"55/48"	103	stress_12bis	"POPTR_0006s00470.1"	489	"	"C/A"	"52,4/47,6"	"11/10"	21
controllo_3	"POPTR_0006s00470.1"	489	"	"C/A"	"53,4/46,6"	"55/48"	103	stress_42	"POPTR_0006s00470.1"	489	"	"C/A"	"61,5/38,5"	"8/5"	13
controllo_3	"POPTR_0006s00470.1"	489	"	"C/A"	"53,4/46,6"	"55/48"	103	stress_45	"POPTR_0006s00470.1"	489	"	"C/A"	"62,5/37,5"	"20/12"	32
controllo_3	"POPTR_0006s27030.1"	174	"	"G/A"	"53,4/46,6"	"625/545"	1170	stress_12bis	"POPTR_0006s27030.1"	174	"	"G/A"	"52,5/47,5"	"190/172"	362
controllo_3	"POPTR_0006s27030.1"	174	"	"G/A"	"53,4/46,6"	"625/545"	1170	stress_42	"POPTR_0006s27030.1"	174	"	"G/A"	"52,6/47,4"	"71/64"	135
controllo_3	"POPTR_0006s27030.1"	174	"	"G/A"	"53,4/46,6"	"625/545"	1170	stress_45	"POPTR_0006s27030.1"	174	"	"A/G"	"52,0/48,0"	"52/48"	100
controllo_3	"POPTR_0018s08790.1"	1497	"	"T/C"	"53,4/46,6"	"79/69"	148	stress_12bis	"POPTR_0018s08790.1"	1497	"	"T/C"	"53,7/46,3"	"22/19"	41
controllo_3	"POPTR_0018s08790.1"	1497	"	"T/C"	"53,4/46,6"	"79/69"	148	stress_42	"POPTR_0018s08790.1"	1497	"	"C/T"	"55,0/45,0"	"22/18"	40
controllo_3	"POPTR_0018s08790.1"	1497	"	"T/C"	"53,4/46,6"	"79/69"	148	stress_45	"POPTR_0018s08790.1"	1497	"	"T/C"	"56,8/43,2"	"42/32"	74
controllo_3	"POPTR_0583s00200.1"	21	"	"C/T"	"53,4/46,6"	"79/69"	148	stress_12bis	"POPTR_0583s00200.1"	21	"	"T/C"	"52,4/47,6"	"11/10"	21
controllo_3	"POPTR_0583s00200.1"	21	"	"C/T"	"53,4/46,6"	"79/69"	148	stress_42	"POPTR_0583s00200.1"	21	"	"C/T"	"53,6/46,4"	"15/13"	28
controllo_3	"POPTR_0583s00200.1"	21	"	"C/T"	"53,4/46,6"	"79/69"	148	stress_45	"POPTR_0583s00200.1"	21	"	"C/T"	"50,0/50,0"	"19/19"	38
controllo_3	"POPTR_0003s14220.1"	1661	"	"C/A"	"53,4/46,6"	"62/54"	116	stress_12bis	"POPTR_0003s14220.1"	1661	"	"A/C"	"52,9/47,1"	"9/8"	17
controllo_3	"POPTR_0019s14860.1"	1121	"	"A/T"	"53,4/46,6"	"62/54"	116	stress_12bis	"POPTR_0019s14860.1"	1121	"	"A/T"	"54,2/45,8"	"26/22"	48
controllo_3	"POPTR_0019s14860.1"	1121	"	"A/T"	"53,4/46,6"	"62/54"	116	stress_42	"POPTR_0019s14860.1"	1121	"	"A/T"	"57,1/42,9"	"12/9"	21
controllo_3	"POPTR_0019s14860.1"	1121	"	"A/T"	"53,4/46,6"	"62/54"	116	stress_45	"POPTR_0019s14860.1"	1121	"	"A/T"	"66,7/33,3"	"10/5"	15
controllo_3	"POPTR_0013s04210.1"	812	"	"G/T"	"53,4/46,6"	"63/55"	118	stress_12bis	"POPTR_0013s04210.1"	812	"	"G/T"	"63,2/36,8"	"24/14"	38
controllo_3	"POPTR_0013s04210.1"	812	"	"G/T"	"53,4/46,6"	"63/55"	118	stress_45	"POPTR_0013s04210.1"	812	"	"T/G"	"52,6/47,4"	"20/18"	38
controllo_3	"POPTR_0014s10260.1"	1362	"	"A/G"	"53,4/46,6"	"135/118"	253	stress_12bis	"POPTR_0014s10260.1"	1362	"	"G/A"	"56,0/44,0"	"42/33"	75
controllo_3	"POPTR_0014s10260.1"	1362	"	"A/G"	"53,4/46,6"	"135/118"	253	stress_42	"POPTR_0014s10260.1"	1362	"	"A/G"	"60,4/39,6"	"32/21"	53
controllo_3	"POPTR_0014s10260.1"	1362	"	"A/G"	"53,4/46,6"	"135/118"	253	stress_45	"POPTR_0014s10260.1"	1362	"	"A/G"	"54,9/45,1"	"50/41"	91
controllo_3	"POPTR_0014s11040.1"	63	"	"T/C"	"53,4/46,6"	"93/81"	174	stress_12bis	"POPTR_0014s11040.1"	63	"	"T/C"	"52,8/47,2"	"28/25"	53
controllo_3	"POPTR_0014s11040.1"	63	"	"T/C"	"53,4/46,6"	"93/81"	174	stress_42	"POPTR_0014s11040.1"	63	"	"T/C"	"51,4/48,6"	"36/34"	70
controllo_3	"POPTR_0014s11040.1"	63	"	"T/C"	"53,4/46,6"	"93/81"	174	stress_45	"POPTR_0014s11040.1"	63	"	"C/T"	"52,1/47,9"	"61/56"	117
controllo_3	"POPTR_0004s03160.1"	270	"	"C/T"	"53,4/46,6"	"457/399"	856	stress_12bis	"POPTR_0004s03160.1"	270	"	"T/C"	"59,7/40,3"	"117/79"	196
controllo_3	"POPTR_0004s03160.1"	270	"	"C/T"	"53,4/46,6"	"457/399"	856	stress_42	"POPTR_0004s03160.1"	270	"	"T/C"	"56,5/43,5"	"13/10"	23
controllo_3	"POPTR_0004s03160.1"	270	"	"C/T"	"53,4/46,6"	"457/399"	856	stress_45	"POPTR_0004s03160.1"	270	"	"T/C"	"63,3/36,7"	"19/11"	30
controllo_3	"POPTR_0011s07530.1"	262	"	"G/A"	"53,4/46,6"	"118/103"	221	stress_12bis	"POPTR_0011s07530.1"	262	"	"G/A"	"50,8/49,2"	"31/30"	61
controllo_3	"POPTR_0011s07530.1"	262	"	"G/A"	"53,4/46,6"	"118/103"	221	stress_42	"POPTR_0011s07530.1"	262	"	"A/G"	"56,2/43,8"	"9/7"	16
controllo_3	"POPTR_0011s07530.1"	262	"	"G/A"	"53,4/46,6"	"118/103"	221	stress_45	"POPTR_0011s07530.1"	262	"	"A/G"	"63,6/36,4"	"14/8"	22
controllo_3	"POPTR_0001s40700.1"	123	"	"T/C"	"53,4/46,6"	"151/132"	283	stress_12bis	"POPTR_0001s40700.1"	123	"	"T/C"	"64,8/35,2"	"57/31"	88
controllo_3	"POPTR_0001s40700.1"	123	"	"T/C"	"53,4/46,6"	"151/132"	283	stress_42	"POPTR_0001s40700.1"	123	"	"T/C"	"57,8/42,2"	"26/19"	45
controllo_3	"POPTR_0001s40700.1"	123	"	"T/C"	"53,4/46,6"	"151/132"	283	stress_45	"POPTR_0001s40700.1"	123	"	"T/C"	"57,7/42,3"	"41/30"	71
controllo_3	"POPTR_0001s34410.1"	269	"	"C/A"	"53,4/46,6"	"101/88"	189	stress_12bis	"POPTR_0001s34410.1"	269	"	"A/C"	"51,2/48,8"	"21/20"	41
controllo_3	"POPTR_0001s34410.1"	269	"	"C/A"	"53,4/46,6"	"101/88"	189	stress_42	"POPTR_0001s34410.1"	269	"	"C/A"	"54,8/45,2"	"23/19"	42
controllo_3	"POPTR_0001s34410.1"	269	"	"C/A"	"53,4/46,6"	"101/88"	189	stress_45	"POPTR_0001s34410.1"	269	"	"C/A"	"74,5/25,5"	"35/12"	47
controllo_3	"POPTR_0001s44140.1"	285	"	"A/G"	"53,4/46,6"	"70/61"	131	stress_12bis	"POPTR_0001s44140.1"	285	"	"A/G"	"61,9/38,1"	"26/16"	42
controllo_3	"POPTR_0001s44140.1"	285	"	"A/G"	"53,4/46,6"	"70/61"	131	stress_42	"POPTR_0001s44140.1"	285	"	"A/G"	"54,1/45,9"	"20/17"	37
controllo_3	"POPTR_0001s44140.1"	285	"	"A/G"	"53,4/46,6"	"70/61"	131	stress_45	"POPTR_0001s44140.1"	285	"	"A/G"	"60,0/40,0"	"18/12"	30
controllo_3	"POPTR_0007s10980.1"	211	"	"C/A"	"53,4/46,6"	"109/95"	204	stress_12bis	"POPTR_0007s10980.1"	211	"	"C/A"	"62,7/37,3"	"42/25"	67
controllo_3	"POPTR_0007s10980.1"	211	"	"C/A"	"53,4/46,6"	"109/95"	204	stress_42	"POPTR_0007s10980.1"	211	"	"C/A"	"72,7/27,3"	"8/3"	11
controllo_3	"POPTR_0007s10980.1"	211	"	"C/A"	"53,4/46,6"	"109/95"	204	stress_45	"POPTR_0007s10980.1"	211	"	"A/C"	"48,0/48,0"	"12/12"	25
controllo_3	"POPTR_0002s16410.1"	1015	"	"A/G"	"53,4/46,6"	"55/48"	103	stress_12bis	"POPTR_0002s16410.1"	1015	"	"G/A"	"60,5/39,5"	"23/15"	38
controllo_3	"POPTR_0002s16410.1"	1015	"	"A/G"	"53,4/46,6"	"55/48"	103	stress_42	"POPTR_0002s16410.1"	1015	"	"G/A"	"58,1/41,9"	"18/13"	31
controllo_3	"POPTR_0002s16410.1"	1015	"	"A/G"	"53,4/46,6"	"55/48"	103	stress_45	"POPTR_0002s16410.1"	1015	"	"A/G"	"64,3/35,7"	"18/10"	28
controllo_3	"POPTR_0002s14730.1"	653	"	"T/A"	"53,4/46,6"	"326/285"	611	stress_12bis	"POPTR_0002s14730.1"	653	"	"A/T"	"51,6/48,4"	"82/77"	159
controllo_3	"POPTR_0002s14730.1"	653	"	"T/A"	"53,4/46,6"	"326/285"	611	stress_42	"POPTR_0002s14730.1"	653	"	"T/A"	"52,2/47,8"	"12/11"	23
controllo_3	"POPTR_0002s14730.1"	653	"	"T/A"	"53,4/46,6"	"326/285"	611	stress_45	"POPTR_0002s14730.1"	653	"	"T/A"	"55,8/44,2"	"29/23"	52
controllo_3	"POPTR_0002s13920.1"	459	"	"G/A"	"53,4/46,6"	"55/48"	103	stress_12bis	"POPTR_0002s13920.1"	459	"	"G/A"	"72,0/28,0"	"18/7"	25
controllo_3	"POPTR_0002s13920.1"	459	"	"G/A"	"53,4/46,6"	"55/48"	103	stress_45	"POPTR_0002s13920.1"	459	"	"A/G"	"57,1/42,9"	"16/12"	28
controllo_3	"POPTR_0008s17190.1"	279	"	"A/G"	"53,4/46,6"	"71/62"	133	stress_12bis	"POPTR_0008s17190.1"	279	"	"A/G"	"50,9/49,1"	"28/27"	55
controllo_3	"POPTR_0008s17190.1"	279	"	"A/G"	"53,4/46,6"	"71/62"	133	stress_42	"POPTR_0008s17190.1"	279	"	"A/G"	"58,3/41,7"	"7/5"	12
controllo_3	"POPTR_0008s17190.1"	279	"	"A/G"	"53,4/46,6"	"71/62"	133	stress_45	"POPTR_0008s17190.1"	279	"	"A/G"	"64,7/35,3"	"11/6"	17
controllo_3	"POPTR_0008s10050.1"	315	"	"T/C"	"53,4/46,6"	"134/117"	251	stress_12bis	"POPTR_0008s10050.1"	315	"	"C/T"	"52,4/47,6"	"43/39"	82
controllo_3	"POPTR_0008s10050.1"	315	"	"T/C"	"53,4/46,6"	"134/117"	251	stress_42	"POPTR_0008s10050.1"	315	"	"T/C"	"57,1/42,9"	"16/12"	28
controllo_3	"POPTR_0008s10050.1"	315	"	"T/C"	"53,4/46,6"	"134/117"	251	stress_45	"POPTR_0008s10050.1"	315	"	"T/C"	"57,9/42,1"	"11/8"	19
controllo_3	"POPTR_0008s15290.1"	408	"	"C/G"	"53,4/46,6"	"55/48"	103	stress_12bis	"POPTR_0008s15290.1"	408	"	"G/C"	"51,0/49,0"	"26/25"	51
controllo_3	"POPTR_0008s15290.1"	408	"	"C/G"	"53,4/46,6"	"55/48"	103	stress_42	"POPTR_0008s15290.1"	408	"	"C/G"	"54,5/45,5"	"12/10"	22
controllo_3	"POPTR_0008s15290.1"	408	"	"C/G"	"53,4/46,6"	"55/48"	103	stress_45	"POPTR_0008s15290.1"	408	"	"C/G"	"60,9/39,1"	"42/27"	69
controllo_3	"POPTR_0016s10780.1"	459	"	"C/T"	"53,4/46,6"	"262/229"	491	stress_12bis	"POPTR_0016s10780.1"	459	"	"C/T"	"75,6/23,1"	"59/18"	78
controllo_3	"POPTR_0016s10780.1"	459	"	"C/T"	"53,4/46,6"	"262/229"	491	stress_45	"POPTR_0016s10780.1"	459	"	"C/T"	"68,0/32,0"	"17/8"	25
controllo_3	"POPTR_0016s12100.1"	1245	"	"C/T"	"53,4/46,6"	"55/48"	103	stress_12bis	"POPTR_0016s12100.1"	1245	"	"C/T"	"72,7/27,3"	"8/3"	11
controllo_3	"POPTR_0008s19960.1"	842	"	"T/C"	"53,5/45,1"	"76/64"	142	stress_12bis	"POPTR_0008s19960.1"	842	"	"T/C"	"57,6/39,4"	"19/13"	33
controllo_3	"POPTR_0001s25670.1"	153	"	"C/T"	"53,5/46,1"	"583/503"	1090	stress_12bis	"POPTR_0001s25670.1"	153	"	"T/C"	"51,4/48,2"	"113/106"	220
controllo_3	"POPTR_0001s25670.1"	153	"	"C/T"	"53,5/46,1"	"583/503"	1090	stress_42	"POPTR_0001s25670.1"	153	"	"C/T"	"51,4/48,6"	"55/52"	107
controllo_3	"POPTR_0001s25670.1"	153	"	"C/T"	"53,5/46,1"	"583/503"	1090	stress_45	"POPTR_0001s25670.1"	153	"	"C/T"	"55,1/44,9"	"38/31"	69
controllo_3	"POPTR_0005s11710.1"	72	"	"G/T"	"53,5/46,5"	"68/59"	127	stress_12bis	"POPTR_0005s11710.1"	72	"	"G/T"	"55,6/44,4"	"15/12"	27
controllo_3	"POPTR_0005s11710.1"	72	"	"G/T"	"53,5/46,5"	"68/59"	127	stress_42	"POPTR_0005s11710.1"	72	"	"T/G"	"81,0/19,0"	"17/4"	21
controllo_3	"POPTR_0005s11710.1"	72	"	"G/T"	"53,5/46,5"	"68/59"	127	stress_45	"POPTR_0005s11710.1"	72	"	"T/G"	"72,0/28,0"	"18/7"	25
controllo_3	"POPTR_0005s11300.1"	123	"	"A/G"	"53,5/46,5"	"61/53"	114	stress_12bis	"POPTR_0005s11300.1"	123	"	"G/A"	"61,1/38,9"	"22/14"	36
controllo_3	"POPTR_0005s11300.1"	123	"	"A/G"	"53,5/46,5"	"61/53"	114	stress_42	"POPTR_0005s11300.1"	123	"	"A/G"	"61,1/38,9"	"22/14"	36
controllo_3	"POPTR_0005s11300.1"	123	"	"A/G"	"53,5/46,5"	"61/53"	114	stress_45	"POPTR_0005s11300.1"	123	"	"A/G"	"69,0/31,0"	"58/26"	84
controllo_3	"POPTR_0005s08740.1"	220	"	"A/G"	"53,5/46,5"	"76/66"	142	stress_12bis	"POPTR_0005s08740.1"	220	"	"G/A"	"58,3/41,7"	"14/10"	24
controllo_3	"POPTR_0005s08740.1"	220	"	"A/G"	"53,5/46,5"	"76/66"	142	stress_45	"POPTR_0005s08740.1"	220	"	"A/G"	"78,6/21,4"	"11/3"	14
controllo_3	"POPTR_0017s08610.1"	879	"	"T/C"	"53,5/46,5"	"61/53"	114	stress_12bis	"POPTR_0017s08610.1"	879	"	"T/C"	"57,1/42,9"	"8/6"	14
controllo_3	"POPTR_0017s08610.1"	879	"	"T/C"	"53,5/46,5"	"61/53"	114	stress_42	"POPTR_0017s08610.1"	879	"	"T/C"	"73,6/26,4"	"106/38"	144
controllo_3	"POPTR_0017s08610.1"	879	"	"T/C"	"53,5/46,5"	"61/53"	114	stress_45	"POPTR_0017s08610.1"	879	"	"T/C"	"66,4/33,6"	"148/75"	223
controllo_3	"POPTR_0017s12590.1"	996	"	"T/C"	"53,5/46,5"	"76/66"	142	stress_12bis	"POPTR_0017s12590.1"	996	"	"T/C"	"58,1/41,9"	"18/13"	31
controllo_3	"POPTR_0006s06740.1"	846	"	"A/C"	"53,5/46,5"	"137/119"	256	stress_12bis	"POPTR_0006s06740.1"	846	"	"A/C"	"59,1/40,9"	"13/9"	22
controllo_3	"POPTR_0006s22950.1"	489	"	"T/C"	"53,5/46,5"	"115/100"	215	stress_12bis	"POPTR_0006s22950.1"	489	"	"T/C"	"53,7/46,3"	"22/19"	41
controllo_3	"POPTR_0006s22950.1"	489	"	"T/C"	"53,5/46,5"	"115/100"	215	stress_42	"POPTR_0006s22950.1"	489	"	"C/T"	"53,8/46,2"	"7/6"	13
controllo_3	"POPTR_0006s22950.1"	489	"	"T/C"	"53,5/46,5"	"115/100"	215	stress_45	"POPTR_0006s22950.1"	489	"	"C/T"	"57,9/42,1"	"11/8"	19
controllo_3	"POPTR_0006s04960.1"	897	"	"C/G"	"53,5/46,5"	"83/72"	155	stress_12bis	"POPTR_0006s04960.1"	897	"	"G/C"	"51,4/48,6"	"18/17"	35
controllo_3	"POPTR_0006s04960.1"	897	"	"C/G"	"53,5/46,5"	"83/72"	155	stress_42	"POPTR_0006s04960.1"	897	"	"G/C"	"60,0/40,0"	"6/4"	10
controllo_3	"POPTR_0006s04960.1"	897	"	"C/G"	"53,5/46,5"	"83/72"	155	stress_45	"POPTR_0006s04960.1"	897	"	"G/C"	"66,7/33,3"	"8/4"	12
controllo_3	"POPTR_0018s11820.1"	819	"	"A/G"	"53,5/46,5"	"176/153"	329	stress_12bis	"POPTR_0018s11820.1"	819	"	"G/A"	"52,6/47,4"	"51/46"	97
controllo_3	"POPTR_0018s11820.1"	819	"	"A/G"	"53,5/46,5"	"176/153"	329	stress_42	"POPTR_0018s11820.1"	819	"	"G/A"	"60,0/40,0"	"9/6"	15
controllo_3	"POPTR_0018s11820.1"	819	"	"A/G"	"53,5/46,5"	"176/153"	329	stress_45	"POPTR_0018s11820.1"	819	"	"A/G"	"54,5/45,5"	"12/10"	22
controllo_3	"POPTR_0003s13880.1"	167	"	"A/G"	"53,5/46,5"	"91/79"	170	stress_12bis	"POPTR_0003s13880.1"	167	"	"G/A"	"50,9/49,1"	"29/28"	57
controllo_3	"POPTR_0003s13880.1"	167	"	"A/G"	"53,5/46,5"	"91/79"	170	stress_42	"POPTR_0003s13880.1"	167	"	"G/A"	"61,1/38,9"	"121/77"	198
controllo_3	"POPTR_0003s13880.1"	167	"	"A/G"	"53,5/46,5"	"91/79"	170	stress_45	"POPTR_0003s13880.1"	167	"	"G/A"	"60,4/39,6"	"154/101"	255
controllo_3	"POPTR_0003s08070.1"	385	"	"G/T"	"53,5/46,5"	"69/60"	129	stress_12bis	"POPTR_0003s08070.1"	385	"	"G/T"	"58,8/41,2"	"30/21"	51
controllo_3	"POPTR_0003s08070.1"	385	"	"G/T"	"53,5/46,5"	"69/60"	129	stress_42	"POPTR_0003s08070.1"	385	"	"G/T"	"75,0/20,8"	"18/5"	24
controllo_3	"POPTR_0003s08070.1"	385	"	"G/T"	"53,5/46,5"	"69/60"	129	stress_45	"POPTR_0003s08070.1"	385	"	"G/T"	"73,2/26,8"	"30/11"	41
controllo_3	"POPTR_0004s01660.1"	1110	"	"A/G"	"53,5/46,5"	"107/93"	200	stress_12bis	"POPTR_0004s01660.1"	1110	"	"A/G"	"53,0/47,0"	"44/39"	83
controllo_3	"POPTR_0004s01660.1"	1110	"	"A/G"	"53,5/46,5"	"107/93"	200	stress_42	"POPTR_0004s01660.1"	1110	"	"A/G"	"63,0/37,0"	"17/10"	27
controllo_3	"POPTR_0004s01660.1"	1110	"	"A/G"	"53,5/46,5"	"107/93"	200	stress_45	"POPTR_0004s01660.1"	1110	"	"G/A"	"59,6/40,4"	"34/23"	57
controllo_3	"POPTR_0009s13460.1"	99	"	"C/T"	"53,5/46,5"	"69/60"	129	stress_12bis	"POPTR_0009s13460.1"	99	"	"C/T"	"50,0/50,0"	"20/20"	40
controllo_3	"POPTR_0009s13460.1"	99	"	"C/T"	"53,5/46,5"	"69/60"	129	stress_42	"POPTR_0009s13460.1"	99	"	"C/T"	"51,2/48,8"	"21/20"	41
controllo_3	"POPTR_0009s13460.1"	99	"	"C/T"	"53,5/46,5"	"69/60"	129	stress_45	"POPTR_0009s13460.1"	99	"	"T/C"	"50,4/49,6"	"65/64"	129
controllo_3	"POPTR_0009s05240.1"	1059	"	"T/C"	"53,5/46,5"	"483/419"	902	stress_12bis	"POPTR_0009s05240.1"	1059	"	"C/T"	"54,5/45,5"	"128/107"	235
controllo_3	"POPTR_0009s05240.1"	1059	"	"T/C"	"53,5/46,5"	"483/419"	902	stress_42	"POPTR_0009s05240.1"	1059	"	"C/T"	"73,3/26,7"	"85/31"	116
controllo_3	"POPTR_0009s05240.1"	1059	"	"T/C"	"53,5/46,5"	"483/419"	902	stress_45	"POPTR_0009s05240.1"	1059	"	"C/T"	"68,9/31,1"	"82/37"	119
controllo_3	"POPTR_0012s07040.1"	435	"	"C/G"	"53,5/46,5"	"178/155"	333	stress_12bis	"POPTR_0012s07040.1"	435	"	"C/G"	"50,6/49,4"	"45/44"	89
controllo_3	"POPTR_0012s07040.1"	435	"	"C/G"	"53,5/46,5"	"178/155"	333	stress_42	"POPTR_0012s07040.1"	435	"	"C/G"	"55,6/44,4"	"15/12"	27
controllo_3	"POPTR_0012s07040.1"	435	"	"C/G"	"53,5/46,5"	"178/155"	333	stress_45	"POPTR_0012s07040.1"	435	"	"C/G"	"60,0/40,0"	"12/8"	20
controllo_3	"POPTR_0011s05250.1"	1428	"	"T/G"	"53,5/46,5"	"38/33"	71	stress_45	"POPTR_0011s05250.1"	1428	"	"G/T"	"59,8/40,2"	"67/45"	112
controllo_3	"POPTR_0015s04140.1"	2055	"	"C/G"	"53,5/46,5"	"54/47"	101	stress_12bis	"POPTR_0015s04140.1"	2055	"	"C/G"	"54,5/45,5"	"12/10"	22
controllo_3	"POPTR_0015s04140.1"	2055	"	"C/G"	"53,5/46,5"	"54/47"	101	stress_42	"POPTR_0015s04140.1"	2055	"	"G/C"	"74,0/26,0"	"74/26"	100
controllo_3	"POPTR_0015s04140.1"	2055	"	"C/G"	"53,5/46,5"	"54/47"	101	stress_45	"POPTR_0015s04140.1"	2055	"	"G/C"	"65,5/34,5"	"55/29"	84
controllo_3	"POPTR_0001s26970.1"	876	"	"T/C"	"53,5/46,5"	"99/86"	185	stress_12bis	"POPTR_0001s26970.1"	876	"	"C/T"	"57,4/42,6"	"39/29"	68
controllo_3	"POPTR_0001s26970.1"	876	"	"T/C"	"53,5/46,5"	"99/86"	185	stress_42	"POPTR_0001s26970.1"	876	"	"C/T"	"58,8/41,2"	"10/7"	17
controllo_3	"POPTR_0001s26970.1"	876	"	"T/C"	"53,5/46,5"	"99/86"	185	stress_45	"POPTR_0001s26970.1"	876	"	"T/C"	"60,7/39,3"	"17/11"	28
controllo_3	"POPTR_0001s47210.1"	295	"	"A/G"	"53,5/46,5"	"174/151"	325	stress_12bis	"POPTR_0001s47210.1"	295	"	"A/G"	"75,5/24,5"	"40/13"	53
controllo_3	"POPTR_0010s12050.1"	73	"	"G/C"	"53,5/46,5"	"182/158"	340	stress_12bis	"POPTR_0010s12050.1"	73	"	"G/C"	"52,5/47,5"	"52/47"	99
controllo_3	"POPTR_0010s12050.1"	73	"	"G/C"	"53,5/46,5"	"182/158"	340	stress_42	"POPTR_0010s12050.1"	73	"	"G/C"	"70,4/29,6"	"19/8"	27
controllo_3	"POPTR_0010s12050.1"	73	"	"G/C"	"53,5/46,5"	"182/158"	340	stress_45	"POPTR_0010s12050.1"	73	"	"G/C"	"69,2/30,8"	"18/8"	26
controllo_3	"POPTR_0010s03010.1"	114	"	"C/A"	"53,5/46,5"	"68/59"	127	stress_12bis	"POPTR_0010s03010.1"	114	"	"C/A"	"57,6/42,4"	"19/14"	33
controllo_3	"POPTR_0010s03010.1"	114	"	"C/A"	"53,5/46,5"	"68/59"	127	stress_45	"POPTR_0010s03010.1"	114	"	"A/C"	"50,0/50,0"	"5/5"	10
controllo_3	"POPTR_0007s12070.1"	892	"	"A/G"	"53,5/46,5"	"543/472"	1015	stress_12bis	"POPTR_0007s12070.1"	892	"	"A/G"	"54,8/45,2"	"246/203"	449
controllo_3	"POPTR_0007s12070.1"	892	"	"A/G"	"53,5/46,5"	"543/472"	1015	stress_42	"POPTR_0007s12070.1"	892	"	"G/A"	"53,9/46,1"	"62/53"	115
controllo_3	"POPTR_0007s12070.1"	892	"	"A/G"	"53,5/46,5"	"543/472"	1015	stress_45	"POPTR_0007s12070.1"	892	"	"G/A"	"59,6/40,4"	"62/42"	104
controllo_3	"POPTR_0007s09630.1"	80	"	"T/C"	"53,5/46,5"	"190/165"	355	stress_12bis	"POPTR_0007s09630.1"	80	"	"T/C"	"51,1/48,9"	"48/46"	94
controllo_3	"POPTR_0007s09630.1"	80	"	"T/C"	"53,5/46,5"	"190/165"	355	stress_45	"POPTR_0007s09630.1"	80	"	"T/C"	"53,8/46,2"	"14/12"	26
controllo_3	"POPTR_0002s04790.1"	849	"	"C/T"	"53,5/46,5"	"115/100"	215	stress_12bis	"POPTR_0002s04790.1"	849	"	"T/C"	"55,9/44,1"	"33/26"	59
controllo_3	"POPTR_0002s04790.1"	849	"	"C/T"	"53,5/46,5"	"115/100"	215	stress_42	"POPTR_0002s04790.1"	849	"	"C/T"	"56,5/43,5"	"13/10"	23
controllo_3	"POPTR_0002s04790.1"	849	"	"C/T"	"53,5/46,5"	"115/100"	215	stress_45	"POPTR_0002s04790.1"	849	"	"C/T"	"76,5/23,5"	"13/4"	17
controllo_3	"POPTR_0002s14730.1"	165	"	"A/C"	"53,5/46,5"	"198/172"	370	stress_12bis	"POPTR_0002s14730.1"	165	"	"A/C"	"57,7/42,3"	"45/33"	78
controllo_3	"POPTR_0002s14730.1"	165	"	"A/C"	"53,5/46,5"	"198/172"	370	stress_45	"POPTR_0002s14730.1"	165	"	"C/A"	"52,4/47,6"	"11/10"	21
controllo_3	"POPTR_0008s19960.1"	813	"	"G/C"	"53,5/46,5"	"92/80"	172	stress_12bis	"POPTR_0008s19960.1"	813	"	"C/G"	"53,1/46,9"	"17/15"	32
controllo_3	"POPTR_0008s19960.1"	813	"	"G/C"	"53,5/46,5"	"92/80"	172	stress_42	"POPTR_0008s19960.1"	813	"	"C/G"	"70,0/30,0"	"7/3"	10
controllo_3	"POPTR_0008s16670.1"	648	"	"C/T"	"53,5/46,5"	"85/74"	159	stress_12bis	"POPTR_0008s16670.1"	648	"	"C/T"	"57,4/42,6"	"27/20"	47
controllo_3	"POPTR_0008s16670.1"	648	"	"C/T"	"53,5/46,5"	"85/74"	159	stress_42	"POPTR_0008s16670.1"	648	"	"T/C"	"58,1/41,9"	"61/44"	105
controllo_3	"POPTR_0008s16670.1"	648	"	"C/T"	"53,5/46,5"	"85/74"	159	stress_45	"POPTR_0008s16670.1"	648	"	"T/C"	"56,8/43,2"	"79/60"	139
controllo_3	"POPTR_0025s00560.1"	1491	"	"T/C"	"53,5/46,5"	"54/47"	101	stress_12bis	"POPTR_0025s00560.1"	1491	"	"C/T"	"65,7/34,3"	"23/12"	35
controllo_3	"POPTR_0025s00560.1"	1491	"	"T/C"	"53,5/46,5"	"54/47"	101	stress_42	"POPTR_0025s00560.1"	1491	"	"C/T"	"50,0/50,0"	"21/21"	42
controllo_3	"POPTR_0025s00560.1"	1491	"	"T/C"	"53,5/46,5"	"54/47"	101	stress_45	"POPTR_0025s00560.1"	1491	"	"C/T"	"49,0/49,0"	"24/24"	49
controllo_3	"POPTR_0006s12910.1"	132	"	"A/T"	"53,6/45,0"	"243/204"	453	stress_12bis	"POPTR_0006s12910.1"	132	"	"A/T"	"49,6/49,6"	"65/65"	131
controllo_3	"POPTR_0006s12910.1"	132	"	"A/T"	"53,6/45,0"	"243/204"	453	stress_42	"POPTR_0006s12910.1"	132	"	"A/T"	"58,5/41,5"	"31/22"	53
controllo_3	"POPTR_0006s12910.1"	132	"	"A/T"	"53,6/45,0"	"243/204"	453	stress_45	"POPTR_0006s12910.1"	132	"	"T/A"	"50,7/48,6"	"70/67"	138
controllo_3	"POPTR_0005s26220.1"	159	"	"A/G"	"53,6/45,5"	"59/50"	110	stress_12bis	"POPTR_0005s26220.1"	159	"	"A/G"	"73,9/26,1"	"68/24"	92
controllo_3	"POPTR_0005s26220.1"	159	"	"A/G"	"53,6/45,5"	"59/50"	110	stress_42	"POPTR_0005s26220.1"	159	"	"A/G"	"64,6/35,4"	"146/80"	226
controllo_3	"POPTR_0005s26220.1"	159	"	"A/G"	"53,6/45,5"	"59/50"	110	stress_45	"POPTR_0005s26220.1"	159	"	"A/G"	"69,0/31,0"	"116/52"	168
controllo_3	"POPTR_0017s05700.1"	696	"	"C/A"	"53,6/45,7"	"74/63"	138	stress_12bis	"POPTR_0017s05700.1"	696	"	"C/A"	"52,6/47,4"	"20/18"	38
controllo_3	"POPTR_0017s05700.1"	696	"	"C/A"	"53,6/45,7"	"74/63"	138	stress_42	"POPTR_0017s05700.1"	696	"	"C/A"	"61,3/38,7"	"19/12"	31
controllo_3	"POPTR_0017s05700.1"	696	"	"C/A"	"53,6/45,7"	"74/63"	138	stress_45	"POPTR_0017s05700.1"	696	"	"C/A"	"73,3/26,7"	"22/8"	30
controllo_3	"POPTR_0003s12160.1"	924	"	"T/C"	"53,6/45,7"	"244/208"	455	stress_12bis	"POPTR_0003s12160.1"	924	"	"C/T"	"53,8/46,2"	"70/60"	130
controllo_3	"POPTR_0003s12160.1"	924	"	"T/C"	"53,6/45,7"	"244/208"	455	stress_42	"POPTR_0003s12160.1"	924	"	"T/C"	"51,4/48,6"	"19/18"	37
controllo_3	"POPTR_0003s12160.1"	924	"	"T/C"	"53,6/45,7"	"244/208"	455	stress_45	"POPTR_0003s12160.1"	924	"	"T/C"	"53,6/46,4"	"37/32"	69
controllo_3	"POPTR_0005s11500.1"	702	"	"C/T"	"53,6/46,3"	"504/436"	941	stress_12bis	"POPTR_0005s11500.1"	702	"	"C/T"	"53,3/46,7"	"160/140"	300
controllo_3	"POPTR_0005s11500.1"	702	"	"C/T"	"53,6/46,3"	"504/436"	941	stress_42	"POPTR_0005s11500.1"	702	"	"T/C"	"56,8/43,2"	"42/32"	74
controllo_3	"POPTR_0005s11500.1"	702	"	"C/T"	"53,6/46,3"	"504/436"	941	stress_45	"POPTR_0005s11500.1"	702	"	"T/C"	"53,7/46,3"	"65/56"	121
controllo_3	"POPTR_0005s20560.1"	300	"	"A/C"	"53,6/46,4"	"75/65"	140	stress_12bis	"POPTR_0005s20560.1"	300	"	"C/A"	"53,4/46,6"	"31/27"	58
controllo_3	"POPTR_0005s20560.1"	300	"	"A/C"	"53,6/46,4"	"75/65"	140	stress_42	"POPTR_0005s20560.1"	300	"	"A/C"	"58,3/41,7"	"7/5"	12
controllo_3	"POPTR_0005s26700.1"	566	"	"T/G"	"53,6/46,4"	"149/129"	278	stress_12bis	"POPTR_0005s26700.1"	566	"	"T/G"	"52,4/47,6"	"44/40"	84
controllo_3	"POPTR_0005s26700.1"	566	"	"T/G"	"53,6/46,4"	"149/129"	278	stress_42	"POPTR_0005s26700.1"	566	"	"T/G"	"78,3/21,7"	"18/5"	23
controllo_3	"POPTR_0005s26700.1"	566	"	"T/G"	"53,6/46,4"	"149/129"	278	stress_45	"POPTR_0005s26700.1"	566	"	"T/G"	"68,8/31,2"	"11/5"	16
controllo_3	"POPTR_0017s05700.1"	684	"	"C/T"	"53,6/46,4"	"105/91"	196	stress_12bis	"POPTR_0017s05700.1"	684	"	"C/T"	"58,0/42,0"	"29/21"	50
controllo_3	"POPTR_0017s05700.1"	684	"	"C/T"	"53,6/46,4"	"105/91"	196	stress_42	"POPTR_0017s05700.1"	684	"	"C/T"	"59,0/41,0"	"23/16"	39
controllo_3	"POPTR_0017s05700.1"	684	"	"C/T"	"53,6/46,4"	"105/91"	196	stress_45	"POPTR_0017s05700.1"	684	"	"C/T"	"63,3/36,7"	"31/18"	49
controllo_3	"POPTR_0006s13310.1"	804	"	"T/C"	"53,6/46,4"	"316/274"	590	stress_12bis	"POPTR_0006s13310.1"	804	"	"T/C"	"65,7/34,3"	"337/176"	513
controllo_3	"POPTR_0006s13310.1"	804	"	"T/C"	"53,6/46,4"	"316/274"	590	stress_42	"POPTR_0006s13310.1"	804	"	"T/C"	"58,9/40,4"	"178/122"	302
controllo_3	"POPTR_0006s13310.1"	804	"	"T/C"	"53,6/46,4"	"316/274"	590	stress_45	"POPTR_0006s13310.1"	804	"	"T/C"	"54,3/45,5"	"321/269"	591
controllo_3	"POPTR_0006s11570.1"	907	"	"T/A"	"53,6/46,4"	"103/89"	192	stress_12bis	"POPTR_0006s11570.1"	907	"	"T/A"	"54,8/45,2"	"40/33"	73
controllo_3	"POPTR_0006s11570.1"	907	"	"T/A"	"53,6/46,4"	"103/89"	192	stress_42	"POPTR_0006s11570.1"	907	"	"A/T"	"50,0/50,0"	"31/31"	62
controllo_3	"POPTR_0006s11570.1"	907	"	"T/A"	"53,6/46,4"	"103/89"	192	stress_45	"POPTR_0006s11570.1"	907	"	"T/A"	"58,5/41,5"	"55/39"	94
controllo_3	"POPTR_0003s19210.1"	103	"	"T/C"	"53,6/46,4"	"111/96"	207	stress_12bis	"POPTR_0003s19210.1"	103	"	"T/C"	"55,3/44,7"	"26/21"	47
controllo_3	"POPTR_0003s19210.1"	103	"	"T/C"	"53,6/46,4"	"111/96"	207	stress_42	"POPTR_0003s19210.1"	103	"	"C/T"	"64,3/35,7"	"9/5"	14
controllo_3	"POPTR_0003s19210.1"	103	"	"T/C"	"53,6/46,4"	"111/96"	207	stress_45	"POPTR_0003s19210.1"	103	"	"C/T"	"72,0/28,0"	"18/7"	25
controllo_3	"POPTR_0003s11300.1"	660	"	"C/T"	"53,6/46,4"	"113/98"	211	stress_12bis	"POPTR_0003s11300.1"	660	"	"C/T"	"64,9/35,1"	"48/26"	74
controllo_3	"POPTR_0003s11300.1"	660	"	"C/T"	"53,6/46,4"	"113/98"	211	stress_45	"POPTR_0003s11300.1"	660	"	"T/C"	"57,1/42,9"	"8/6"	14
controllo_3	"POPTR_0019s08240.1"	559	"	"G/A"	"53,6/46,4"	"82/71"	153	stress_12bis	"POPTR_0019s08240.1"	559	"	"G/A"	"63,6/36,4"	"21/12"	33
controllo_3	"POPTR_0013s07050.1"	639	"	"C/A"	"53,6/46,4"	"75/65"	140	stress_12bis	"POPTR_0013s07050.1"	639	"	"C/A"	"72,7/27,3"	"24/9"	33
controllo_3	"POPTR_0013s07050.1"	639	"	"C/A"	"53,6/46,4"	"75/65"	140	stress_42	"POPTR_0013s07050.1"	639	"	"C/A"	"70,2/29,8"	"33/14"	47
controllo_3	"POPTR_0013s07050.1"	639	"	"C/A"	"53,6/46,4"	"75/65"	140	stress_45	"POPTR_0013s07050.1"	639	"	"C/A"	"58,1/41,9"	"36/26"	62
controllo_3	"POPTR_0013s07050.1"	939	"	"G/C"	"53,6/46,4"	"75/65"	140	stress_12bis	"POPTR_0013s07050.1"	939	"	"G/C"	"65,8/34,2"	"25/13"	38
controllo_3	"POPTR_0013s07050.1"	939	"	"G/C"	"53,6/46,4"	"75/65"	140	stress_42	"POPTR_0013s07050.1"	939	"	"G/C"	"51,4/48,6"	"18/17"	35
controllo_3	"POPTR_0013s07050.1"	939	"	"G/C"	"53,6/46,4"	"75/65"	140	stress_45	"POPTR_0013s07050.1"	939	"	"G/C"	"64,0/34,7"	"48/26"	75
controllo_3	"POPTR_0013s04210.1"	50	"	"C/T"	"53,6/46,4"	"60/52"	112	stress_12bis	"POPTR_0013s04210.1"	50	"	"T/C"	"53,3/46,7"	"24/21"	45
controllo_3	"POPTR_0013s04210.1"	50	"	"C/T"	"53,6/46,4"	"60/52"	112	stress_42	"POPTR_0013s04210.1"	50	"	"T/C"	"70,0/30,0"	"7/3"	10
controllo_3	"POPTR_0013s04210.1"	50	"	"C/T"	"53,6/46,4"	"60/52"	112	stress_45	"POPTR_0013s04210.1"	50	"	"C/T"	"61,5/38,5"	"16/10"	26
controllo_3	"POPTR_0014s17400.1"	375	"	"C/A"	"53,6/46,4"	"1202/1041"	2243	stress_12bis	"POPTR_0014s17400.1"	375	"	"C/A"	"57,7/42,3"	"354/259"	613
controllo_3	"POPTR_0014s17400.1"	375	"	"C/A"	"53,6/46,4"	"1202/1041"	2243	stress_42	"POPTR_0014s17400.1"	375	"	"C/A"	"59,6/40,4"	"158/107"	265
controllo_3	"POPTR_0014s17400.1"	375	"	"C/A"	"53,6/46,4"	"1202/1041"	2243	stress_45	"POPTR_0014s17400.1"	375	"	"C/A"	"59,6/40,4"	"208/141"	349
controllo_3	"POPTR_0014s01970.1"	1063	"	"A/G"	"53,6/46,4"	"45/39"	84	stress_42	"POPTR_0014s01970.1"	1063	"	"G/A"	"53,8/46,2"	"70/60"	130
controllo_3	"POPTR_0014s01970.1"	1063	"	"A/G"	"53,6/46,4"	"45/39"	84	stress_45	"POPTR_0014s01970.1"	1063	"	"G/A"	"51,6/48,4"	"64/60"	124
controllo_3	"POPTR_0004s08380.1"	642	"	"G/A"	"53,6/46,4"	"1249/1081"	2332	stress_12bis	"POPTR_0004s08380.1"	642	"	"G/A"	"53,3/46,6"	"318/278"	597
controllo_3	"POPTR_0004s08380.1"	642	"	"G/A"	"53,6/46,4"	"1249/1081"	2332	stress_42	"POPTR_0004s08380.1"	642	"	"G/A"	"51,2/48,8"	"43/41"	84
controllo_3	"POPTR_0004s08380.1"	642	"	"G/A"	"53,6/46,4"	"1249/1081"	2332	stress_45	"POPTR_0004s08380.1"	642	"	"A/G"	"54,7/45,3"	"52/43"	95
controllo_3	"POPTR_0009s07030.1"	93	"	"C/T"	"53,6/46,4"	"59/51"	110	stress_12bis	"POPTR_0009s07030.1"	93	"	"C/T"	"53,8/46,2"	"21/18"	39
controllo_3	"POPTR_0009s07030.1"	93	"	"C/T"	"53,6/46,4"	"59/51"	110	stress_45	"POPTR_0009s07030.1"	93	"	"C/T"	"77,8/22,2"	"14/4"	18
controllo_3	"POPTR_0009s09710.1"	375	"	"A/G"	"53,6/46,4"	"171/148"	319	stress_12bis	"POPTR_0009s09710.1"	375	"	"A/G"	"50,0/50,0"	"109/109"	218
controllo_3	"POPTR_0009s09710.1"	375	"	"A/G"	"53,6/46,4"	"171/148"	319	stress_42	"POPTR_0009s09710.1"	375	"	"A/G"	"69,2/30,8"	"36/16"	52
controllo_3	"POPTR_0009s09710.1"	375	"	"A/G"	"53,6/46,4"	"171/148"	319	stress_45	"POPTR_0009s09710.1"	375	"	"A/G"	"62,1/37,9"	"36/22"	58
controllo_3	"POPTR_0009s06690.1"	232	"	"T/G"	"53,6/46,4"	"60/52"	112	stress_12bis	"POPTR_0009s06690.1"	232	"	"T/G"	"68,2/31,8"	"30/14"	44
controllo_3	"POPTR_0009s06690.1"	232	"	"T/G"	"53,6/46,4"	"60/52"	112	stress_42	"POPTR_0009s06690.1"	232	"	"G/T"	"54,3/45,7"	"25/21"	46
controllo_3	"POPTR_0009s06690.1"	232	"	"T/G"	"53,6/46,4"	"60/52"	112	stress_45	"POPTR_0009s06690.1"	232	"	"T/G"	"54,4/45,6"	"68/57"	125
controllo_3	"POPTR_0009s08520.1"	114	"	"A/G"	"53,6/46,4"	"310/268"	578	stress_12bis	"POPTR_0009s08520.1"	114	"	"A/G"	"58,2/41,8"	"152/109"	261
controllo_3	"POPTR_0009s08520.1"	114	"	"A/G"	"53,6/46,4"	"310/268"	578	stress_42	"POPTR_0009s08520.1"	114	"	"G/A"	"60,0/40,0"	"9/6"	15
controllo_3	"POPTR_0009s08520.1"	114	"	"A/G"	"53,6/46,4"	"310/268"	578	stress_45	"POPTR_0009s08520.1"	114	"	"A/G"	"63,0/37,0"	"17/10"	27
controllo_3	"POPTR_0012s01430.1"	439	"	"G/A"	"53,6/46,4"	"59/51"	110	stress_12bis	"POPTR_0012s01430.1"	439	"	"G/A"	"58,1/41,9"	"25/18"	43
controllo_3	"POPTR_0012s01430.1"	439	"	"G/A"	"53,6/46,4"	"59/51"	110	stress_42	"POPTR_0012s01430.1"	439	"	"G/A"	"53,8/46,2"	"7/6"	13
controllo_3	"POPTR_0012s01430.1"	439	"	"G/A"	"53,6/46,4"	"59/51"	110	stress_45	"POPTR_0012s01430.1"	439	"	"G/A"	"66,7/33,3"	"10/5"	15
controllo_3	"POPTR_0012s09570.1"	126	"	"C/T"	"53,6/46,4"	"181/157"	338	stress_12bis	"POPTR_0012s09570.1"	126	"	"C/T"	"54,7/45,3"	"29/24"	53
controllo_3	"POPTR_0012s09570.1"	126	"	"C/T"	"53,6/46,4"	"181/157"	338	stress_42	"POPTR_0012s09570.1"	126	"	"T/C"	"51,8/48,2"	"29/27"	56
controllo_3	"POPTR_0012s09570.1"	126	"	"C/T"	"53,6/46,4"	"181/157"	338	stress_45	"POPTR_0012s09570.1"	126	"	"T/C"	"50,5/49,5"	"52/51"	103
controllo_3	"POPTR_0011s07530.1"	283	"	"C/A"	"53,6/46,4"	"111/96"	207	stress_12bis	"POPTR_0011s07530.1"	283	"	"C/A"	"64,9/35,1"	"37/20"	57
controllo_3	"POPTR_0011s07530.1"	283	"	"C/A"	"53,6/46,4"	"111/96"	207	stress_42	"POPTR_0011s07530.1"	283	"	"C/A"	"76,2/23,8"	"16/5"	21
controllo_3	"POPTR_0011s07530.1"	283	"	"C/A"	"53,6/46,4"	"111/96"	207	stress_45	"POPTR_0011s07530.1"	283	"	"C/A"	"61,1/38,9"	"11/7"	18
controllo_3	"POPTR_0015s10920.1"	889	"	"C/T"	"53,6/46,4"	"82/71"	153	stress_12bis	"POPTR_0015s10920.1"	889	"	"C/T"	"57,7/40,4"	"30/21"	52
controllo_3	"POPTR_0015s10920.1"	889	"	"C/T"	"53,6/46,4"	"82/71"	153	stress_42	"POPTR_0015s10920.1"	889	"	"C/T"	"54,5/40,9"	"12/9"	22
controllo_3	"POPTR_0015s10920.1"	889	"	"C/T"	"53,6/46,4"	"82/71"	153	stress_45	"POPTR_0015s10920.1"	889	"	"T/C"	"60,0/40,0"	"21/14"	35
controllo_3	"POPTR_0001s12960.1"	99	"	"T/C"	"53,6/46,4"	"60/52"	112	stress_12bis	"POPTR_0001s12960.1"	99	"	"T/C"	"58,3/41,7"	"7/5"	12
controllo_3	"POPTR_0001s12960.1"	99	"	"T/C"	"53,6/46,4"	"60/52"	112	stress_42	"POPTR_0001s12960.1"	99	"	"C/T"	"56,1/43,9"	"32/25"	57
controllo_3	"POPTR_0001s12960.1"	99	"	"T/C"	"53,6/46,4"	"60/52"	112	stress_45	"POPTR_0001s12960.1"	99	"	"T/C"	"52,6/47,4"	"50/45"	95
controllo_3	"POPTR_0001s07850.1"	1434	"	"C/T"	"53,6/46,4"	"89/77"	166	stress_12bis	"POPTR_0001s07850.1"	1434	"	"C/T"	"55,9/44,1"	"19/15"	34
controllo_3	"POPTR_0001s07850.1"	1434	"	"C/T"	"53,6/46,4"	"89/77"	166	stress_42	"POPTR_0001s07850.1"	1434	"	"C/T"	"57,4/42,6"	"31/23"	54
controllo_3	"POPTR_0001s07850.1"	1434	"	"C/T"	"53,6/46,4"	"89/77"	166	stress_45	"POPTR_0001s07850.1"	1434	"	"C/T"	"56,4/43,6"	"31/24"	55
controllo_3	"POPTR_0001s02770.1"	171	"	"T/A"	"53,6/46,4"	"75/65"	140	stress_12bis	"POPTR_0001s02770.1"	171	"	"T/A"	"60,0/40,0"	"15/10"	25
controllo_3	"POPTR_0010s13990.1"	170	"	"G/A"	"53,6/46,4"	"59/51"	110	stress_12bis	"POPTR_0010s13990.1"	170	"	"G/A"	"84,6/15,4"	"11/2"	13
controllo_3	"POPTR_0010s13990.1"	170	"	"G/A"	"53,6/46,4"	"59/51"	110	stress_42	"POPTR_0010s13990.1"	170	"	"G/A"	"84,2/15,8"	"16/3"	19
controllo_3	"POPTR_0010s13990.1"	170	"	"G/A"	"53,6/46,4"	"59/51"	110	stress_45	"POPTR_0010s13990.1"	170	"	"G/A"	"83,6/16,4"	"46/9"	55
controllo_3	"POPTR_0010s17400.1"	445	"	"T/C"	"53,6/46,4"	"67/58"	125	stress_12bis	"POPTR_0010s17400.1"	445	"	"T/C"	"73,2/26,8"	"30/11"	41
controllo_3	"POPTR_0010s17400.1"	445	"	"T/C"	"53,6/46,4"	"67/58"	125	stress_42	"POPTR_0010s17400.1"	445	"	"T/C"	"60,0/40,0"	"9/6"	15
controllo_3	"POPTR_0010s17400.1"	445	"	"T/C"	"53,6/46,4"	"67/58"	125	stress_45	"POPTR_0010s17400.1"	445	"	"T/C"	"64,7/35,3"	"11/6"	17
controllo_3	"POPTR_0010s16880.1"	24	"	"A/C"	"53,6/46,4"	"67/58"	125	stress_12bis	"POPTR_0010s16880.1"	24	"	"A/C"	"75,0/25,0"	"15/5"	20
controllo_3	"POPTR_0002s03020.1"	201	"	"G/A"	"53,6/46,4"	"232/201"	433	stress_12bis	"POPTR_0002s03020.1"	201	"	"A/G"	"56,0/44,0"	"51/40"	91
controllo_3	"POPTR_0002s03020.1"	201	"	"G/A"	"53,6/46,4"	"232/201"	433	stress_42	"POPTR_0002s03020.1"	201	"	"G/A"	"77,7/22,3"	"143/41"	184
controllo_3	"POPTR_0002s03020.1"	201	"	"G/A"	"53,6/46,4"	"232/201"	433	stress_45	"POPTR_0002s03020.1"	201	"	"G/A"	"78,3/21,7"	"260/72"	332
controllo_3	"POPTR_0002s02310.1"	273	"	"C/T"	"53,6/46,4"	"96/83"	179	stress_12bis	"POPTR_0002s02310.1"	273	"	"C/T"	"59,6/40,4"	"31/21"	52
controllo_3	"POPTR_0002s02310.1"	273	"	"C/T"	"53,6/46,4"	"96/83"	179	stress_42	"POPTR_0002s02310.1"	273	"	"T/C"	"56,5/43,5"	"35/27"	62
controllo_3	"POPTR_0002s02310.1"	273	"	"C/T"	"53,6/46,4"	"96/83"	179	stress_45	"POPTR_0002s02310.1"	273	"	"C/T"	"52,2/47,8"	"24/22"	46
controllo_3	"POPTR_0008s03160.1"	892	"	"G/T"	"53,6/46,4"	"165/143"	308	stress_12bis	"POPTR_0008s03160.1"	892	"	"G/T"	"56,2/43,8"	"72/56"	128
controllo_3	"POPTR_0008s03160.1"	892	"	"G/T"	"53,6/46,4"	"165/143"	308	stress_42	"POPTR_0008s03160.1"	892	"	"G/T"	"57,4/42,6"	"27/20"	47
controllo_3	"POPTR_0008s03160.1"	892	"	"G/T"	"53,6/46,4"	"165/143"	308	stress_45	"POPTR_0008s03160.1"	892	"	"G/T"	"75,0/25,0"	"48/16"	64
controllo_3	"POPTR_0016s07220.1"	285	"	"T/C"	"53,6/46,4"	"112/97"	209	stress_12bis	"POPTR_0016s07220.1"	285	"	"C/T"	"60,8/39,2"	"31/20"	51
controllo_3	"POPTR_0016s07220.1"	285	"	"T/C"	"53,6/46,4"	"112/97"	209	stress_42	"POPTR_0016s07220.1"	285	"	"C/T"	"52,6/47,4"	"10/9"	19
controllo_3	"POPTR_0016s07220.1"	285	"	"T/C"	"53,6/46,4"	"112/97"	209	stress_45	"POPTR_0016s07220.1"	285	"	"C/T"	"73,1/26,9"	"19/7"	26
controllo_3	"POPTR_0006s22950.1"	597	"	"C/T"	"53,7/45,6"	"79/67"	147	stress_12bis	"POPTR_0006s22950.1"	597	"	"T/C"	"55,3/44,7"	"26/21"	47
controllo_3	"POPTR_0006s22950.1"	597	"	"C/T"	"53,7/45,6"	"79/67"	147	stress_42	"POPTR_0006s22950.1"	597	"	"T/C"	"53,3/46,7"	"8/7"	15
controllo_3	"POPTR_0006s22950.1"	597	"	"C/T"	"53,7/45,6"	"79/67"	147	stress_45	"POPTR_0006s22950.1"	597	"	"T/C"	"63,2/36,8"	"12/7"	19
controllo_3	"POPTR_0014s06370.1"	324	"	"A/T"	"53,7/45,8"	"102/87"	190	stress_12bis	"POPTR_0014s06370.1"	324	"	"T/A"	"55,2/44,8"	"37/30"	67
controllo_3	"POPTR_0014s06370.1"	324	"	"A/T"	"53,7/45,8"	"102/87"	190	stress_42	"POPTR_0014s06370.1"	324	"	"T/A"	"54,1/45,9"	"20/17"	37
controllo_3	"POPTR_0014s06370.1"	324	"	"A/T"	"53,7/45,8"	"102/87"	190	stress_45	"POPTR_0014s06370.1"	324	"	"T/A"	"58,0/42,0"	"40/29"	69
controllo_3	"POPTR_0014s06370.1"	86	"	"G/A"	"53,7/45,9"	"165/141"	307	stress_12bis	"POPTR_0014s06370.1"	86	"	"A/G"	"53,2/46,8"	"50/44"	94
controllo_3	"POPTR_0014s06370.1"	86	"	"G/A"	"53,7/45,9"	"165/141"	307	stress_42	"POPTR_0014s06370.1"	86	"	"A/G"	"51,2/48,8"	"22/21"	43
controllo_3	"POPTR_0014s06370.1"	86	"	"G/A"	"53,7/45,9"	"165/141"	307	stress_45	"POPTR_0014s06370.1"	86	"	"G/A"	"53,4/46,6"	"62/54"	116
controllo_3	"POPTR_0008s19160.1"	1284	"	"T/A"	"53,7/45,9"	"123/105"	229	stress_12bis	"POPTR_0008s19160.1"	1284	"	"T/A"	"55,3/44,7"	"42/34"	76
controllo_3	"POPTR_0005s04090.1"	615	"	"G/A"	"53,7/46,3"	"161/139"	300	stress_12bis	"POPTR_0005s04090.1"	615	"	"G/A"	"60,3/39,7"	"35/23"	58
controllo_3	"POPTR_0005s04090.1"	615	"	"G/A"	"53,7/46,3"	"161/139"	300	stress_42	"POPTR_0005s04090.1"	615	"	"G/A"	"82,4/17,6"	"28/6"	34
controllo_3	"POPTR_0005s04090.1"	615	"	"G/A"	"53,7/46,3"	"161/139"	300	stress_45	"POPTR_0005s04090.1"	615	"	"G/A"	"70,0/30,0"	"28/12"	40
controllo_3	"POPTR_0005s20920.1"	441	"	"A/G"	"53,7/46,3"	"232/200"	432	stress_12bis	"POPTR_0005s20920.1"	441	"	"A/G"	"53,4/46,6"	"55/48"	103
controllo_3	"POPTR_0006s24770.1"	753	"	"T/C"	"53,7/46,3"	"88/76"	164	stress_12bis	"POPTR_0006s24770.1"	753	"	"T/C"	"63,3/36,7"	"57/33"	90
controllo_3	"POPTR_0006s24770.1"	753	"	"T/C"	"53,7/46,3"	"88/76"	164	stress_42	"POPTR_0006s24770.1"	753	"	"T/C"	"52,3/47,7"	"34/31"	65
controllo_3	"POPTR_0006s24770.1"	753	"	"T/C"	"53,7/46,3"	"88/76"	164	stress_45	"POPTR_0006s24770.1"	753	"	"C/T"	"50,7/49,3"	"36/35"	71
controllo_3	"POPTR_0006s04960.1"	2361	"	"A/G"	"53,7/46,3"	"130/112"	242	stress_12bis	"POPTR_0006s04960.1"	2361	"	"A/G"	"57,4/42,6"	"27/20"	47
controllo_3	"POPTR_0006s04960.1"	2361	"	"A/G"	"53,7/46,3"	"130/112"	242	stress_45	"POPTR_0006s04960.1"	2361	"	"A/G"	"60,7/39,3"	"17/11"	28
controllo_3	"POPTR_0003s19210.1"	102	"	"G/A"	"53,7/46,3"	"109/94"	203	stress_12bis	"POPTR_0003s19210.1"	102	"	"G/A"	"56,5/43,5"	"26/20"	46
controllo_3	"POPTR_0003s19210.1"	102	"	"G/A"	"53,7/46,3"	"109/94"	203	stress_42	"POPTR_0003s19210.1"	102	"	"A/G"	"64,3/35,7"	"9/5"	14
controllo_3	"POPTR_0003s19210.1"	102	"	"G/A"	"53,7/46,3"	"109/94"	203	stress_45	"POPTR_0003s19210.1"	102	"	"A/G"	"72,0/28,0"	"18/7"	25
controllo_3	"POPTR_0003s13880.1"	496	"	"T/C"	"53,7/46,3"	"51/44"	95	stress_42	"POPTR_0003s13880.1"	496	"	"T/C"	"54,5/45,5"	"78/65"	143
controllo_3	"POPTR_0003s13880.1"	496	"	"T/C"	"53,7/46,3"	"51/44"	95	stress_45	"POPTR_0003s13880.1"	496	"	"T/C"	"50,3/49,7"	"74/73"	147
controllo_3	"POPTR_0003s11300.1"	768	"	"A/T"	"53,7/46,3"	"101/87"	188	stress_12bis	"POPTR_0003s11300.1"	768	"	"A/T"	"66,7/33,3"	"44/22"	66
controllo_3	"POPTR_0003s11300.1"	768	"	"A/T"	"53,7/46,3"	"101/87"	188	stress_45	"POPTR_0003s11300.1"	768	"	"T/A"	"60,0/40,0"	"9/6"	15
controllo_3	"POPTR_0022s00530.1"	154	"	"T/A"	"53,7/46,3"	"66/57"	123	stress_12bis	"POPTR_0022s00530.1"	154	"	"T/A"	"60,9/39,1"	"14/9"	23
controllo_3	"POPTR_0022s00530.1"	154	"	"T/A"	"53,7/46,3"	"66/57"	123	stress_45	"POPTR_0022s00530.1"	154	"	"T/A"	"51,6/48,4"	"16/15"	31
controllo_3	"POPTR_0013s12130.1"	175	"	"C/T"	"53,7/46,3"	"88/76"	164	stress_12bis	"POPTR_0013s12130.1"	175	"	"T/C"	"71,0/29,0"	"22/9"	31
controllo_3	"POPTR_0013s12130.1"	175	"	"C/T"	"53,7/46,3"	"88/76"	164	stress_45	"POPTR_0013s12130.1"	175	"	"C/T"	"50,0/50,0"	"5/5"	10
controllo_3	"POPTR_0013s09550.1"	300	"	"T/C"	"53,7/46,3"	"110/95"	205	stress_12bis	"POPTR_0013s09550.1"	300	"	"C/T"	"56,9/43,1"	"29/22"	51
controllo_3	"POPTR_0013s09550.1"	300	"	"T/C"	"53,7/46,3"	"110/95"	205	stress_42	"POPTR_0013s09550.1"	300	"	"T/C"	"53,8/46,2"	"7/6"	13
controllo_3	"POPTR_0013s09550.1"	300	"	"T/C"	"53,7/46,3"	"110/95"	205	stress_45	"POPTR_0013s09550.1"	300	"	"C/T"	"63,2/36,8"	"12/7"	19
controllo_3	"POPTR_0013s01080.1"	2217	"	"A/G"	"53,7/46,3"	"65/56"	121	stress_12bis	"POPTR_0013s01080.1"	2217	"	"G/A"	"52,3/47,7"	"23/21"	44
controllo_3	"POPTR_0013s01080.1"	2217	"	"A/G"	"53,7/46,3"	"65/56"	121	stress_42	"POPTR_0013s01080.1"	2217	"	"G/A"	"57,1/42,9"	"24/18"	42
controllo_3	"POPTR_0013s01080.1"	2217	"	"A/G"	"53,7/46,3"	"65/56"	121	stress_45	"POPTR_0013s01080.1"	2217	"	"G/A"	"56,2/43,8"	"18/14"	32
controllo_3	"POPTR_0014s16990.1"	66	"	"G/T"	"53,7/46,3"	"80/69"	149	stress_12bis	"POPTR_0014s16990.1"	66	"	"G/T"	"52,1/47,9"	"25/23"	48
controllo_3	"POPTR_0014s16990.1"	66	"	"G/T"	"53,7/46,3"	"80/69"	149	stress_45	"POPTR_0014s16990.1"	66	"	"G/T"	"60,0/40,0"	"6/4"	10
controllo_3	"POPTR_0004s16920.1"	633	"	"C/T"	"53,7/46,3"	"1171/1010"	2181	stress_12bis	"POPTR_0004s16920.1"	633	"	"C/T"	"52,1/47,9"	"344/316"	660
controllo_3	"POPTR_0004s16920.1"	633	"	"C/T"	"53,7/46,3"	"1171/1010"	2181	stress_42	"POPTR_0004s16920.1"	633	"	"C/T"	"50,0/50,0"	"37/37"	74
controllo_3	"POPTR_0004s16920.1"	633	"	"C/T"	"53,7/46,3"	"1171/1010"	2181	stress_45	"POPTR_0004s16920.1"	633	"	"T/C"	"66,7/33,3"	"50/25"	75
controllo_3	"POPTR_0012s01250.1"	210	"	"G/A"	"53,7/46,3"	"160/138"	298	stress_12bis	"POPTR_0012s01250.1"	210	"	"G/A"	"50,9/49,1"	"29/28"	57
controllo_3	"POPTR_0012s01250.1"	210	"	"G/A"	"53,7/46,3"	"160/138"	298	stress_42	"POPTR_0012s01250.1"	210	"	"G/A"	"53,4/46,6"	"39/34"	73
controllo_3	"POPTR_0012s01250.1"	210	"	"G/A"	"53,7/46,3"	"160/138"	298	stress_45	"POPTR_0012s01250.1"	210	"	"G/A"	"57,4/42,6"	"54/40"	94
controllo_3	"POPTR_0001s40250.1"	390	"	"C/T"	"53,7/46,3"	"22/19"	41	stress_45	"POPTR_0001s40250.1"	390	"	"C/T"	"75,7/24,3"	"84/27"	111
controllo_3	"POPTR_0010s05170.1"	115	"	"G/A"	"53,7/46,3"	"166/143"	309	stress_12bis	"POPTR_0010s05170.1"	115	"	"G/A"	"62,5/37,5"	"10/6"	16
controllo_3	"POPTR_0002s18020.1"	1212	"	"A/G"	"53,7/46,3"	"73/63"	136	stress_12bis	"POPTR_0002s18020.1"	1212	"	"A/G"	"50,0/50,0"	"29/29"	58
controllo_3	"POPTR_0002s18020.1"	1212	"	"A/G"	"53,7/46,3"	"73/63"	136	stress_42	"POPTR_0002s18020.1"	1212	"	"A/G"	"58,9/41,1"	"43/30"	73
controllo_3	"POPTR_0002s18020.1"	1212	"	"A/G"	"53,7/46,3"	"73/63"	136	stress_45	"POPTR_0002s18020.1"	1212	"	"G/A"	"52,9/47,1"	"46/41"	87
controllo_3	"POPTR_0002s18500.1"	597	"	"T/C"	"53,7/46,3"	"108/93"	201	stress_12bis	"POPTR_0002s18500.1"	597	"	"T/C"	"62,9/37,1"	"39/23"	62
controllo_3	"POPTR_0002s18500.1"	597	"	"T/C"	"53,7/46,3"	"108/93"	201	stress_42	"POPTR_0002s18500.1"	597	"	"T/C"	"56,8/43,2"	"147/112"	259
controllo_3	"POPTR_0002s18500.1"	597	"	"T/C"	"53,7/46,3"	"108/93"	201	stress_45	"POPTR_0002s18500.1"	597	"	"T/C"	"57,6/42,4"	"151/111"	262
controllo_3	"POPTR_0002s14120.1"	117	"	"A/G"	"53,7/46,3"	"65/56"	121	stress_12bis	"POPTR_0002s14120.1"	117	"	"G/A"	"58,9/41,1"	"43/30"	73
controllo_3	"POPTR_0002s14120.1"	117	"	"A/G"	"53,7/46,3"	"65/56"	121	stress_42	"POPTR_0002s14120.1"	117	"	"G/A"	"75,9/24,1"	"22/7"	29
controllo_3	"POPTR_0002s14120.1"	117	"	"A/G"	"53,7/46,3"	"65/56"	121	stress_45	"POPTR_0002s14120.1"	117	"	"G/A"	"65,0/35,0"	"13/7"	20
controllo_3	"POPTR_0002s05780.1"	534	"	"A/G"	"53,7/46,3"	"80/69"	149	stress_12bis	"POPTR_0002s05780.1"	534	"	"A/G"	"53,8/46,2"	"7/6"	13
controllo_3	"POPTR_0002s05780.1"	534	"	"A/G"	"53,7/46,3"	"80/69"	149	stress_42	"POPTR_0002s05780.1"	534	"	"G/A"	"68,2/31,8"	"15/7"	22
controllo_3	"POPTR_0002s05780.1"	534	"	"A/G"	"53,7/46,3"	"80/69"	149	stress_45	"POPTR_0002s05780.1"	534	"	"G/A"	"64,7/35,3"	"11/6"	17
controllo_3	"POPTR_0002s01080.1"	788	"	"C/A"	"53,7/46,3"	"530/457"	987	stress_12bis	"POPTR_0002s01080.1"	788	"	"C/A"	"57,8/42,2"	"305/223"	528
controllo_3	"POPTR_0002s01080.1"	788	"	"C/A"	"53,7/46,3"	"530/457"	987	stress_42	"POPTR_0002s01080.1"	788	"	"C/A"	"52,0/48,0"	"116/107"	223
controllo_3	"POPTR_0002s01080.1"	788	"	"C/A"	"53,7/46,3"	"530/457"	987	stress_45	"POPTR_0002s01080.1"	788	"	"C/A"	"60,4/39,6"	"165/108"	273
controllo_3	"POPTR_0008s13780.1"	114	"	"G/A"	"53,7/46,3"	"115/99"	214	stress_12bis	"POPTR_0008s13780.1"	114	"	"G/A"	"71,4/28,6"	"20/8"	28
controllo_3	"POPTR_0008s13780.1"	114	"	"G/A"	"53,7/46,3"	"115/99"	214	stress_42	"POPTR_0008s13780.1"	114	"	"A/G"	"50,0/50,0"	"6/6"	12
controllo_3	"POPTR_0008s13780.1"	114	"	"G/A"	"53,7/46,3"	"115/99"	214	stress_45	"POPTR_0008s13780.1"	114	"	"A/G"	"53,3/46,7"	"8/7"	15
controllo_3	"POPTR_0016s01870.1"	1086	"	"G/T"	"53,7/46,3"	"66/57"	123	stress_12bis	"POPTR_0016s01870.1"	1086	"	"G/T"	"60,0/40,0"	"6/4"	10
controllo_3	"POPTR_0016s01870.1"	1086	"	"G/T"	"53,7/46,3"	"66/57"	123	stress_42	"POPTR_0016s01870.1"	1086	"	"G/T"	"50,0/50,0"	"9/9"	18
controllo_3	"POPTR_0016s01870.1"	1086	"	"G/T"	"53,7/46,3"	"66/57"	123	stress_45	"POPTR_0016s01870.1"	1086	"	"T/G"	"63,0/37,0"	"17/10"	27
controllo_3	"POPTR_0016s00410.1"	1695	"	"C/A"	"53,7/46,3"	"58/50"	108	stress_12bis	"POPTR_0016s00410.1"	1695	"	"C/A"	"56,2/43,8"	"9/7"	16
controllo_3	"POPTR_0006s28990.1"	2830	"	"C/T"	"53,8/45,1"	"136/114"	253	stress_12bis	"POPTR_0006s28990.1"	2830	"	"C/T"	"50,9/49,1"	"27/26"	53
controllo_3	"POPTR_0006s28990.1"	2830	"	"C/T"	"53,8/45,1"	"136/114"	253	stress_42	"POPTR_0006s28990.1"	2830	"	"C/T"	"51,2/48,1"	"66/62"	129
controllo_3	"POPTR_0006s28990.1"	2830	"	"C/T"	"53,8/45,1"	"136/114"	253	stress_45	"POPTR_0006s28990.1"	2830	"	"C/T"	"59,4/40,6"	"98/67"	165
controllo_3	"POPTR_0006s10080.1"	1158	"	"C/T"	"53,8/45,2"	"113/95"	210	stress_12bis	"POPTR_0006s10080.1"	1158	"	"C/T"	"55,7/44,3"	"44/35"	79
controllo_3	"POPTR_0006s10080.1"	1158	"	"C/T"	"53,8/45,2"	"113/95"	210	stress_42	"POPTR_0006s10080.1"	1158	"	"T/C"	"51,4/48,6"	"57/54"	111
controllo_3	"POPTR_0006s10080.1"	1158	"	"C/T"	"53,8/45,2"	"113/95"	210	stress_45	"POPTR_0006s10080.1"	1158	"	"T/C"	"53,4/46,6"	"103/90"	193
controllo_3	"POPTR_0009s02070.1"	375	"	"A/T"	"53,8/45,5"	"78/66"	145	stress_12bis	"POPTR_0009s02070.1"	375	"	"T/A"	"53,3/46,7"	"16/14"	30
controllo_3	"POPTR_0009s02070.1"	375	"	"A/T"	"53,8/45,5"	"78/66"	145	stress_42	"POPTR_0009s02070.1"	375	"	"A/T"	"52,9/47,1"	"18/16"	34
controllo_3	"POPTR_0009s02070.1"	375	"	"A/T"	"53,8/45,5"	"78/66"	145	stress_45	"POPTR_0009s02070.1"	375	"	"A/T"	"57,5/42,5"	"23/17"	40
controllo_3	"POPTR_0008s18230.1"	118	"	"C/A"	"53,8/45,9"	"422/360"	784	stress_12bis	"POPTR_0008s18230.1"	118	"	"A/C"	"51,9/48,1"	"126/117"	243
controllo_3	"POPTR_0008s18230.1"	118	"	"C/A"	"53,8/45,9"	"422/360"	784	stress_42	"POPTR_0008s18230.1"	118	"	"C/A"	"52,5/47,5"	"64/58"	122
controllo_3	"POPTR_0008s18230.1"	118	"	"C/A"	"53,8/45,9"	"422/360"	784	stress_45	"POPTR_0008s18230.1"	118	"	"C/A"	"52,5/47,5"	"42/38"	80
controllo_3	"POPTR_0019s14100.1"	296	"	"G/C"	"53,8/46,1"	"609/522"	1132	stress_12bis	"POPTR_0019s14100.1"	296	"	"G/C"	"54,7/45,3"	"185/153"	338
controllo_3	"POPTR_0019s14100.1"	296	"	"G/C"	"53,8/46,1"	"609/522"	1132	stress_42	"POPTR_0019s14100.1"	296	"	"C/G"	"52,5/47,5"	"74/67"	141
controllo_3	"POPTR_0019s14100.1"	296	"	"G/C"	"53,8/46,1"	"609/522"	1132	stress_45	"POPTR_0019s14100.1"	296	"	"C/G"	"51,2/48,8"	"83/79"	162
controllo_3	"POPTR_0014s02410.1"	1074	"	"C/G"	"53,8/46,1"	"572/490"	1064	stress_12bis	"POPTR_0014s02410.1"	1074	"	"C/G"	"54,7/45,3"	"76/63"	139
controllo_3	"POPTR_0014s02410.1"	1074	"	"C/G"	"53,8/46,1"	"572/490"	1064	stress_42	"POPTR_0014s02410.1"	1074	"	"G/C"	"54,0/45,7"	"149/126"	276
controllo_3	"POPTR_0014s02410.1"	1074	"	"C/G"	"53,8/46,1"	"572/490"	1064	stress_45	"POPTR_0014s02410.1"	1074	"	"C/G"	"52,0/48,0"	"218/201"	419
controllo_3	"POPTR_0004s16920.1"	328	"	"A/G"	"53,8/46,1"	"1905/1632"	3539	stress_12bis	"POPTR_0004s16920.1"	328	"	"A/G"	"54,4/45,6"	"587/492"	1079
controllo_3	"POPTR_0004s16920.1"	328	"	"A/G"	"53,8/46,1"	"1905/1632"	3539	stress_42	"POPTR_0004s16920.1"	328	"	"G/A"	"57,8/42,2"	"59/43"	102
controllo_3	"POPTR_0004s16920.1"	328	"	"A/G"	"53,8/46,1"	"1905/1632"	3539	stress_45	"POPTR_0004s16920.1"	328	"	"G/A"	"64,5/34,9"	"98/53"	152
controllo_3	"POPTR_0002s08410.1"	786	"	"T/C"	"53,8/46,1"	"843/723"	1567	stress_12bis	"POPTR_0002s08410.1"	786	"	"T/C"	"50,7/49,1"	"223/216"	440
controllo_3	"POPTR_0002s08410.1"	786	"	"T/C"	"53,8/46,1"	"843/723"	1567	stress_42	"POPTR_0002s08410.1"	786	"	"C/T"	"58,2/41,2"	"96/68"	165
controllo_3	"POPTR_0002s08410.1"	786	"	"T/C"	"53,8/46,1"	"843/723"	1567	stress_45	"POPTR_0002s08410.1"	786	"	"T/C"	"54,5/45,5"	"102/85"	187
controllo_3	"POPTR_0005s06420.1"	178	"	"G/A"	"53,8/46,2"	"107/92"	199	stress_12bis	"POPTR_0005s06420.1"	178	"	"G/A"	"76,0/24,0"	"38/12"	50
controllo_3	"POPTR_0005s06420.1"	178	"	"G/A"	"53,8/46,2"	"107/92"	199	stress_42	"POPTR_0005s06420.1"	178	"	"A/G"	"53,3/46,7"	"8/7"	15
controllo_3	"POPTR_0005s06420.1"	178	"	"G/A"	"53,8/46,2"	"107/92"	199	stress_45	"POPTR_0005s06420.1"	178	"	"A/G"	"54,5/45,5"	"6/5"	11
controllo_3	"POPTR_0005s00240.1"	1636	"	"C/A"	"53,8/46,2"	"78/67"	145	stress_12bis	"POPTR_0005s00240.1"	1636	"	"A/C"	"51,6/48,4"	"33/31"	64
controllo_3	"POPTR_0005s00240.1"	1636	"	"C/A"	"53,8/46,2"	"78/67"	145	stress_42	"POPTR_0005s00240.1"	1636	"	"C/A"	"54,2/45,8"	"13/11"	24
controllo_3	"POPTR_0005s00240.1"	1636	"	"C/A"	"53,8/46,2"	"78/67"	145	stress_45	"POPTR_0005s00240.1"	1636	"	"A/C"	"50,0/50,0"	"17/17"	34
controllo_3	"POPTR_0005s20240.1"	664	"	"G/A"	"53,8/46,2"	"56/48"	104	stress_12bis	"POPTR_0005s20240.1"	664	"	"G/A"	"56,0/44,0"	"14/11"	25
controllo_3	"POPTR_0005s20240.1"	664	"	"G/A"	"53,8/46,2"	"56/48"	104	stress_42	"POPTR_0005s20240.1"	664	"	"G/A"	"59,3/40,7"	"16/11"	27
controllo_3	"POPTR_0005s20240.1"	664	"	"G/A"	"53,8/46,2"	"56/48"	104	stress_45	"POPTR_0005s20240.1"	664	"	"G/A"	"68,6/31,4"	"24/11"	35
controllo_3	"POPTR_0005s15660.1"	195	"	"A/T"	"53,8/46,2"	"9220/7921"	17152	stress_12bis	"POPTR_0005s15660.1"	195	"	"A/T"	"55,6/44,3"	"2442/1945"	4391
controllo_3	"POPTR_0005s15660.1"	195	"	"A/T"	"53,8/46,2"	"9220/7921"	17152	stress_42	"POPTR_0005s15660.1"	195	"	"A/T"	"59,2/40,8"	"760/523"	1283
controllo_3	"POPTR_0005s15660.1"	195	"	"A/T"	"53,8/46,2"	"9220/7921"	17152	stress_45	"POPTR_0005s15660.1"	195	"	"A/T"	"60,7/39,2"	"648/419"	1068
controllo_3	"POPTR_0006s04960.1"	3873	"	"G/A"	"53,8/46,2"	"231/198"	429	stress_12bis	"POPTR_0006s04960.1"	3873	"	"G/A"	"52,1/47,9"	"38/35"	73
controllo_3	"POPTR_0006s04960.1"	3873	"	"G/A"	"53,8/46,2"	"231/198"	429	stress_42	"POPTR_0006s04960.1"	3873	"	"A/G"	"61,1/38,9"	"22/14"	36
controllo_3	"POPTR_0006s04960.1"	3873	"	"G/A"	"53,8/46,2"	"231/198"	429	stress_45	"POPTR_0006s04960.1"	3873	"	"G/A"	"51,9/48,1"	"27/25"	52
controllo_3	"POPTR_0006s03660.1"	951	"	"T/A"	"53,8/46,2"	"63/54"	117	stress_12bis	"POPTR_0006s03660.1"	951	"	"T/A"	"64,0/36,0"	"16/9"	25
controllo_3	"POPTR_0006s03660.1"	951	"	"T/A"	"53,8/46,2"	"63/54"	117	stress_45	"POPTR_0006s03660.1"	951	"	"A/T"	"56,2/43,8"	"9/7"	16
controllo_3	"POPTR_0006s03660.1"	1707	"	"A/G"	"53,8/46,2"	"64/55"	119	stress_12bis	"POPTR_0006s03660.1"	1707	"	"G/A"	"52,4/47,6"	"11/10"	21
controllo_3	"POPTR_0006s03660.1"	1707	"	"A/G"	"53,8/46,2"	"64/55"	119	stress_45	"POPTR_0006s03660.1"	1707	"	"G/A"	"52,0/48,0"	"13/12"	25
controllo_3	"POPTR_0006s12910.1"	250	"	"G/C"	"53,8/46,2"	"242/208"	450	stress_12bis	"POPTR_0006s12910.1"	250	"	"C/G"	"52,2/47,8"	"71/65"	136
controllo_3	"POPTR_0006s12910.1"	250	"	"G/C"	"53,8/46,2"	"242/208"	450	stress_42	"POPTR_0006s12910.1"	250	"	"C/G"	"53,6/46,4"	"45/39"	84
controllo_3	"POPTR_0006s12910.1"	250	"	"G/C"	"53,8/46,2"	"242/208"	450	stress_45	"POPTR_0006s12910.1"	250	"	"G/C"	"52,3/47,7"	"79/72"	151
controllo_3	"POPTR_0006s16030.1"	44	"	"G/A"	"53,8/46,2"	"91/78"	169	stress_12bis	"POPTR_0006s16030.1"	44	"	"A/G"	"53,8/46,2"	"7/6"	13
controllo_3	"POPTR_0006s16030.1"	44	"	"G/A"	"53,8/46,2"	"91/78"	169	stress_45	"POPTR_0006s16030.1"	44	"	"G/A"	"58,3/41,7"	"7/5"	12
controllo_3	"POPTR_0006s29130.1"	213	"	"T/C"	"53,8/46,2"	"63/54"	117	stress_12bis	"POPTR_0006s29130.1"	213	"	"C/T"	"60,0/40,0"	"12/8"	20
controllo_3	"POPTR_0006s29130.1"	213	"	"T/C"	"53,8/46,2"	"63/54"	117	stress_42	"POPTR_0006s29130.1"	213	"	"C/T"	"73,3/26,7"	"11/4"	15
controllo_3	"POPTR_0006s29130.1"	213	"	"T/C"	"53,8/46,2"	"63/54"	117	stress_45	"POPTR_0006s29130.1"	213	"	"C/T"	"72,2/27,8"	"13/5"	18
controllo_3	"POPTR_0018s03110.1"	669	"	"G/T"	"53,8/46,2"	"64/55"	119	stress_12bis	"POPTR_0018s03110.1"	669	"	"G/T"	"58,7/41,3"	"27/19"	46
controllo_3	"POPTR_0018s03110.1"	669	"	"G/T"	"53,8/46,2"	"64/55"	119	stress_42	"POPTR_0018s03110.1"	669	"	"G/T"	"55,6/44,4"	"15/12"	27
controllo_3	"POPTR_0018s03110.1"	669	"	"G/T"	"53,8/46,2"	"64/55"	119	stress_45	"POPTR_0018s03110.1"	669	"	"T/G"	"52,4/47,6"	"11/10"	21
controllo_3	"POPTR_0014s13660.1"	18	"	"C/T"	"53,8/46,2"	"134/115"	249	stress_12bis	"POPTR_0014s13660.1"	18	"	"C/T"	"55,6/44,4"	"35/28"	63
controllo_3	"POPTR_0014s13660.1"	18	"	"C/T"	"53,8/46,2"	"134/115"	249	stress_42	"POPTR_0014s13660.1"	18	"	"T/C"	"53,3/46,7"	"8/7"	15
controllo_3	"POPTR_0014s13660.1"	18	"	"C/T"	"53,8/46,2"	"134/115"	249	stress_45	"POPTR_0014s13660.1"	18	"	"T/C"	"55,6/44,4"	"10/8"	18
controllo_3	"POPTR_0014s13660.1"	897	"	"T/C"	"53,8/46,2"	"548/470"	1018	stress_12bis	"POPTR_0014s13660.1"	897	"	"T/C"	"51,4/48,6"	"148/140"	288
controllo_3	"POPTR_0014s13660.1"	897	"	"T/C"	"53,8/46,2"	"548/470"	1018	stress_42	"POPTR_0014s13660.1"	897	"	"C/T"	"57,7/42,3"	"45/33"	78
controllo_3	"POPTR_0014s13660.1"	897	"	"T/C"	"53,8/46,2"	"548/470"	1018	stress_45	"POPTR_0014s13660.1"	897	"	"C/T"	"57,4/42,6"	"58/43"	101
controllo_3	"POPTR_0014s10260.1"	369	"	"T/G"	"53,8/46,2"	"113/97"	210	stress_12bis	"POPTR_0014s10260.1"	369	"	"T/G"	"51,1/48,9"	"24/23"	47
controllo_3	"POPTR_0014s10260.1"	369	"	"T/G"	"53,8/46,2"	"113/97"	210	stress_42	"POPTR_0014s10260.1"	369	"	"G/T"	"68,4/31,6"	"13/6"	19
controllo_3	"POPTR_0014s10260.1"	369	"	"T/G"	"53,8/46,2"	"113/97"	210	stress_45	"POPTR_0014s10260.1"	369	"	"T/G"	"56,8/43,2"	"21/16"	37
controllo_3	"POPTR_0014s17280.1"	738	"	"A/G"	"53,8/46,2"	"85/73"	158	stress_12bis	"POPTR_0014s17280.1"	738	"	"A/G"	"51,9/48,1"	"27/25"	52
controllo_3	"POPTR_0014s17280.1"	738	"	"A/G"	"53,8/46,2"	"85/73"	158	stress_42	"POPTR_0014s17280.1"	738	"	"A/G"	"53,8/46,2"	"35/30"	65
controllo_3	"POPTR_0014s17280.1"	738	"	"A/G"	"53,8/46,2"	"85/73"	158	stress_45	"POPTR_0014s17280.1"	738	"	"A/G"	"69,4/30,6"	"50/22"	72
controllo_3	"POPTR_0004s04860.1"	78	"	"C/T"	"53,8/46,2"	"128/110"	238	stress_12bis	"POPTR_0004s04860.1"	78	"	"C/T"	"55,8/44,2"	"24/19"	43
controllo_3	"POPTR_0004s04860.1"	78	"	"C/T"	"53,8/46,2"	"128/110"	238	stress_42	"POPTR_0004s04860.1"	78	"	"T/C"	"63,6/36,4"	"7/4"	11
controllo_3	"POPTR_0004s04860.1"	78	"	"C/T"	"53,8/46,2"	"128/110"	238	stress_45	"POPTR_0004s04860.1"	78	"	"C/T"	"54,5/45,5"	"12/10"	22
controllo_3	"POPTR_0004s01510.1"	67	"	"T/A"	"53,8/46,2"	"177/152"	329	stress_12bis	"POPTR_0004s01510.1"	67	"	"A/T"	"70,0/30,0"	"7/3"	10
controllo_3	"POPTR_0009s10270.1"	30	"	"T/C"	"53,8/46,2"	"70/60"	130	stress_45	"POPTR_0009s10270.1"	30	"	"C/T"	"60,0/40,0"	"6/4"	10
controllo_3	"POPTR_0009s15140.1"	357	"	"C/T"	"53,8/46,2"	"63/54"	117	stress_12bis	"POPTR_0009s15140.1"	357	"	"T/C"	"61,2/38,8"	"30/19"	49
controllo_3	"POPTR_0009s15140.1"	357	"	"C/T"	"53,8/46,2"	"63/54"	117	stress_42	"POPTR_0009s15140.1"	357	"	"T/C"	"57,9/42,1"	"44/32"	76
controllo_3	"POPTR_0009s15140.1"	357	"	"C/T"	"53,8/46,2"	"63/54"	117	stress_45	"POPTR_0009s15140.1"	357	"	"T/C"	"56,5/43,5"	"48/37"	85
controllo_3	"POPTR_0009s08850.1"	876	"	"T/C"	"53,8/46,2"	"56/48"	104	stress_12bis	"POPTR_0009s08850.1"	876	"	"C/T"	"66,7/33,3"	"8/4"	12
controllo_3	"POPTR_0009s08850.1"	876	"	"T/C"	"53,8/46,2"	"56/48"	104	stress_42	"POPTR_0009s08850.1"	876	"	"T/C"	"51,6/48,4"	"16/15"	31
controllo_3	"POPTR_0009s08850.1"	876	"	"T/C"	"53,8/46,2"	"56/48"	104	stress_45	"POPTR_0009s08850.1"	876	"	"C/T"	"60,6/39,4"	"20/13"	33
controllo_3	"POPTR_0012s09290.1"	300	"	"T/C"	"53,8/46,2"	"71/61"	132	stress_12bis	"POPTR_0012s09290.1"	300	"	"T/C"	"80,8/19,2"	"42/10"	52
controllo_3	"POPTR_0012s09290.1"	300	"	"T/C"	"53,8/46,2"	"71/61"	132	stress_42	"POPTR_0012s09290.1"	300	"	"T/C"	"81,5/18,5"	"22/5"	27
controllo_3	"POPTR_0012s04700.1"	948	"	"C/T"	"53,8/46,2"	"63/54"	117	stress_12bis	"POPTR_0012s04700.1"	948	"	"C/T"	"60,6/39,4"	"20/13"	33
controllo_3	"POPTR_0012s04700.1"	948	"	"C/T"	"53,8/46,2"	"63/54"	117	stress_42	"POPTR_0012s04700.1"	948	"	"C/T"	"57,8/42,2"	"26/19"	45
controllo_3	"POPTR_0012s04700.1"	948	"	"C/T"	"53,8/46,2"	"63/54"	117	stress_45	"POPTR_0012s04700.1"	948	"	"C/T"	"54,4/45,6"	"43/36"	79
controllo_3	"POPTR_0012s08780.1"	274	"	"G/A"	"53,8/46,2"	"98/84"	182	stress_12bis	"POPTR_0012s08780.1"	274	"	"A/G"	"50,0/50,0"	"32/32"	64
controllo_3	"POPTR_0012s08780.1"	274	"	"G/A"	"53,8/46,2"	"98/84"	182	stress_42	"POPTR_0012s08780.1"	274	"	"A/G"	"59,6/40,4"	"28/19"	47
controllo_3	"POPTR_0012s08780.1"	274	"	"G/A"	"53,8/46,2"	"98/84"	182	stress_45	"POPTR_0012s08780.1"	274	"	"A/G"	"68,8/31,2"	"11/5"	16
controllo_3	"POPTR_0015s04140.1"	2012	"	"T/C"	"53,8/46,2"	"64/55"	119	stress_12bis	"POPTR_0015s04140.1"	2012	"	"T/C"	"72,7/27,3"	"16/6"	22
controllo_3	"POPTR_0015s04140.1"	2012	"	"T/C"	"53,8/46,2"	"64/55"	119	stress_42	"POPTR_0015s04140.1"	2012	"	"T/C"	"70,7/29,3"	"70/29"	99
controllo_3	"POPTR_0015s04140.1"	2012	"	"T/C"	"53,8/46,2"	"64/55"	119	stress_45	"POPTR_0015s04140.1"	2012	"	"T/C"	"67,2/32,8"	"78/38"	116
controllo_3	"POPTR_0001s02500.1"	772	"	"C/T"	"53,8/46,2"	"191/164"	355	stress_12bis	"POPTR_0001s02500.1"	772	"	"T/C"	"60,6/39,4"	"40/26"	66
controllo_3	"POPTR_0001s02500.1"	772	"	"C/T"	"53,8/46,2"	"191/164"	355	stress_45	"POPTR_0001s02500.1"	772	"	"C/T"	"57,1/42,9"	"8/6"	14
controllo_3	"POPTR_0001s10650.1"	81	"	"T/C"	"53,8/46,2"	"57/49"	106	stress_12bis	"POPTR_0001s10650.1"	81	"	"T/C"	"54,8/45,2"	"17/14"	31
controllo_3	"POPTR_0001s10650.1"	81	"	"T/C"	"53,8/46,2"	"57/49"	106	stress_42	"POPTR_0001s10650.1"	81	"	"C/T"	"68,2/31,8"	"15/7"	22
controllo_3	"POPTR_0001s26970.1"	61	"	"C/A"	"53,8/46,2"	"86/74"	160	stress_12bis	"POPTR_0001s26970.1"	61	"	"A/C"	"54,5/45,5"	"42/35"	77
controllo_3	"POPTR_0001s26970.1"	61	"	"C/A"	"53,8/46,2"	"86/74"	160	stress_45	"POPTR_0001s26970.1"	61	"	"C/A"	"66,7/33,3"	"12/6"	18
controllo_3	"POPTR_0001s32780.1"	810	"	"T/C"	"53,8/46,2"	"113/97"	210	stress_12bis	"POPTR_0001s32780.1"	810	"	"T/C"	"57,1/42,9"	"16/12"	28
controllo_3	"POPTR_0001s32780.1"	810	"	"T/C"	"53,8/46,2"	"113/97"	210	stress_42	"POPTR_0001s32780.1"	810	"	"C/T"	"52,2/47,8"	"59/54"	113
controllo_3	"POPTR_0001s32780.1"	810	"	"T/C"	"53,8/46,2"	"113/97"	210	stress_45	"POPTR_0001s32780.1"	810	"	"T/C"	"56,8/43,2"	"105/80"	185
controllo_3	"POPTR_0001s24450.1"	50	"	"C/A"	"53,8/46,2"	"78/67"	145	stress_12bis	"POPTR_0001s24450.1"	50	"	"C/A"	"55,6/44,4"	"20/16"	36
controllo_3	"POPTR_0001s24450.1"	50	"	"C/A"	"53,8/46,2"	"78/67"	145	stress_42	"POPTR_0001s24450.1"	50	"	"A/C"	"50,0/50,0"	"8/8"	16
controllo_3	"POPTR_0001s24450.1"	50	"	"C/A"	"53,8/46,2"	"78/67"	145	stress_45	"POPTR_0001s24450.1"	50	"	"C/A"	"61,1/38,9"	"22/14"	36
controllo_3	"POPTR_0001s24450.1"	201	"	"C/T"	"53,8/46,2"	"63/54"	117	stress_12bis	"POPTR_0001s24450.1"	201	"	"C/T"	"50,0/50,0"	"12/12"	24
controllo_3	"POPTR_0001s24450.1"	201	"	"C/T"	"53,8/46,2"	"63/54"	117	stress_45	"POPTR_0001s24450.1"	201	"	"T/C"	"63,6/36,4"	"7/4"	11
controllo_3	"POPTR_0001s06910.1"	873	"	"C/T"	"53,8/46,2"	"63/54"	117	stress_12bis	"POPTR_0001s06910.1"	873	"	"C/T"	"64,3/35,7"	"18/10"	28
controllo_3	"POPTR_0001s06910.1"	873	"	"C/T"	"53,8/46,2"	"63/54"	117	stress_42	"POPTR_0001s06910.1"	873	"	"T/C"	"52,8/47,2"	"19/17"	36
controllo_3	"POPTR_0001s06910.1"	873	"	"C/T"	"53,8/46,2"	"63/54"	117	stress_45	"POPTR_0001s06910.1"	873	"	"T/C"	"59,2/40,8"	"29/20"	49
controllo_3	"POPTR_0002s05780.1"	786	"	"C/T"	"53,8/46,2"	"84/72"	156	stress_12bis	"POPTR_0002s05780.1"	786	"	"C/T"	"64,7/35,3"	"11/6"	17
controllo_3	"POPTR_0002s05780.1"	786	"	"C/T"	"53,8/46,2"	"84/72"	156	stress_42	"POPTR_0002s05780.1"	786	"	"T/C"	"52,9/47,1"	"9/8"	17
controllo_3	"POPTR_0002s05780.1"	786	"	"C/T"	"53,8/46,2"	"84/72"	156	stress_45	"POPTR_0002s05780.1"	786	"	"T/C"	"52,0/48,0"	"13/12"	25
controllo_3	"POPTR_0018s02960.1"	1146	"	"T/C"	"53,9/45,4"	"82/69"	152	stress_12bis	"POPTR_0018s02960.1"	1146	"	"C/T"	"61,1/38,9"	"11/7"	18
controllo_3	"POPTR_0018s02960.1"	1146	"	"T/C"	"53,9/45,4"	"82/69"	152	stress_42	"POPTR_0018s02960.1"	1146	"	"T/C"	"57,7/42,3"	"15/11"	26
controllo_3	"POPTR_0018s02960.1"	1146	"	"T/C"	"53,9/45,4"	"82/69"	152	stress_45	"POPTR_0018s02960.1"	1146	"	"T/C"	"65,0/35,0"	"13/7"	20
controllo_3	"POPTR_0011s14410.1"	646	"	"A/C"	"53,9/45,4"	"159/134"	295	stress_12bis	"POPTR_0011s14410.1"	646	"	"A/C"	"65,0/32,5"	"26/13"	40
controllo_3	"POPTR_0011s14410.1"	646	"	"A/C"	"53,9/45,4"	"159/134"	295	stress_45	"POPTR_0011s14410.1"	646	"	"C/A"	"58,3/41,7"	"7/5"	12
controllo_3	"POPTR_0010s07920.1"	193	"	"G/A"	"53,9/45,4"	"171/144"	317	stress_12bis	"POPTR_0010s07920.1"	193	"	"G/A"	"61,5/38,5"	"56/35"	91
controllo_3	"POPTR_0010s07920.1"	193	"	"G/A"	"53,9/45,4"	"171/144"	317	stress_42	"POPTR_0010s07920.1"	193	"	"G/A"	"56,4/43,6"	"22/17"	39
controllo_3	"POPTR_0010s07920.1"	193	"	"G/A"	"53,9/45,4"	"171/144"	317	stress_45	"POPTR_0010s07920.1"	193	"	"G/A"	"77,8/22,2"	"28/8"	36
controllo_3	"POPTR_0019s05950.1"	363	"	"C/A"	"53,9/45,5"	"179/151"	332	stress_12bis	"POPTR_0019s05950.1"	363	"	"C/A"	"65,6/33,8"	"103/53"	157
controllo_3	"POPTR_0019s05950.1"	363	"	"C/A"	"53,9/45,5"	"179/151"	332	stress_42	"POPTR_0019s05950.1"	363	"	"C/A"	"65,2/34,8"	"15/8"	23
controllo_3	"POPTR_0019s05950.1"	363	"	"C/A"	"53,9/45,5"	"179/151"	332	stress_45	"POPTR_0019s05950.1"	363	"	"C/A"	"59,1/40,9"	"13/9"	22
controllo_3	"POPTR_0002s22600.1"	354	"	"C/T"	"53,9/45,7"	"1011/857"	1874	stress_12bis	"POPTR_0002s22600.1"	354	"	"C/T"	"56,1/43,1"	"263/202"	469
controllo_3	"POPTR_0002s22600.1"	354	"	"C/T"	"53,9/45,7"	"1011/857"	1874	stress_42	"POPTR_0002s22600.1"	354	"	"C/T"	"56,8/43,2"	"71/54"	125
controllo_3	"POPTR_0002s22600.1"	354	"	"C/T"	"53,9/45,7"	"1011/857"	1874	stress_45	"POPTR_0002s22600.1"	354	"	"C/T"	"55,2/44,3"	"107/86"	194
controllo_3	"POPTR_0005s11710.1"	111	"	"T/G"	"53,9/46,1"	"69/59"	128	stress_12bis	"POPTR_0005s11710.1"	111	"	"G/T"	"52,8/47,2"	"19/17"	36
controllo_3	"POPTR_0005s11710.1"	111	"	"T/G"	"53,9/46,1"	"69/59"	128	stress_45	"POPTR_0005s11710.1"	111	"	"T/G"	"65,2/34,8"	"15/8"	23
controllo_3	"POPTR_0005s26700.1"	160	"	"A/G"	"53,9/46,1"	"123/105"	228	stress_12bis	"POPTR_0005s26700.1"	160	"	"A/G"	"56,5/43,5"	"61/47"	108
controllo_3	"POPTR_0005s26700.1"	160	"	"A/G"	"53,9/46,1"	"123/105"	228	stress_42	"POPTR_0005s26700.1"	160	"	"A/G"	"68,4/31,6"	"13/6"	19
controllo_3	"POPTR_0005s26700.1"	160	"	"A/G"	"53,9/46,1"	"123/105"	228	stress_45	"POPTR_0005s26700.1"	160	"	"A/G"	"51,5/48,5"	"17/16"	33
controllo_3	"POPTR_0006s04960.1"	3651	"	"A/G"	"53,9/46,1"	"290/248"	538	stress_12bis	"POPTR_0006s04960.1"	3651	"	"A/G"	"54,8/45,2"	"57/47"	104
controllo_3	"POPTR_0006s04960.1"	3651	"	"A/G"	"53,9/46,1"	"290/248"	538	stress_42	"POPTR_0006s04960.1"	3651	"	"G/A"	"59,3/40,7"	"35/24"	59
controllo_3	"POPTR_0006s04960.1"	3651	"	"A/G"	"53,9/46,1"	"290/248"	538	stress_45	"POPTR_0006s04960.1"	3651	"	"G/A"	"53,2/46,8"	"33/29"	62
controllo_3	"POPTR_0006s03660.1"	690	"	"T/C"	"53,9/46,1"	"55/47"	102	stress_12bis	"POPTR_0006s03660.1"	690	"	"C/T"	"70,0/30,0"	"14/6"	20
controllo_3	"POPTR_0006s03660.1"	690	"	"T/C"	"53,9/46,1"	"55/47"	102	stress_45	"POPTR_0006s03660.1"	690	"	"C/T"	"54,5/45,5"	"6/5"	11
controllo_3	"POPTR_0018s08790.1"	1494	"	"G/A"	"53,9/46,1"	"76/65"	141	stress_12bis	"POPTR_0018s08790.1"	1494	"	"G/A"	"53,8/46,2"	"21/18"	39
controllo_3	"POPTR_0018s08790.1"	1494	"	"G/A"	"53,9/46,1"	"76/65"	141	stress_42	"POPTR_0018s08790.1"	1494	"	"A/G"	"55,0/45,0"	"22/18"	40
controllo_3	"POPTR_0018s08790.1"	1494	"	"G/A"	"53,9/46,1"	"76/65"	141	stress_45	"POPTR_0018s08790.1"	1494	"	"G/A"	"60,0/40,0"	"42/28"	70
controllo_3	"POPTR_0022s00530.1"	786	"	"C/T"	"53,9/46,1"	"104/89"	193	stress_12bis	"POPTR_0022s00530.1"	786	"	"C/T"	"53,8/46,2"	"21/18"	39
controllo_3	"POPTR_0022s00530.1"	786	"	"C/T"	"53,9/46,1"	"104/89"	193	stress_42	"POPTR_0022s00530.1"	786	"	"C/T"	"63,6/36,4"	"14/8"	22
controllo_3	"POPTR_0022s00530.1"	786	"	"C/T"	"53,9/46,1"	"104/89"	193	stress_45	"POPTR_0022s00530.1"	786	"	"T/C"	"52,3/47,7"	"23/21"	44
controllo_3	"POPTR_0013s05790.1"	370	"	"G/T"	"53,9/46,1"	"41/35"	76	stress_42	"POPTR_0013s05790.1"	370	"	"T/G"	"56,0/43,1"	"65/50"	116
controllo_3	"POPTR_0014s11480.1"	117	"	"C/T"	"53,9/46,1"	"62/53"	115	stress_12bis	"POPTR_0014s11480.1"	117	"	"C/T"	"54,8/45,2"	"23/19"	42
controllo_3	"POPTR_0014s11480.1"	117	"	"C/T"	"53,9/46,1"	"62/53"	115	stress_45	"POPTR_0014s11480.1"	117	"	"T/C"	"66,7/33,3"	"10/5"	15
controllo_3	"POPTR_0014s02550.1"	1810	"	"C/T"	"53,9/46,1"	"123/105"	228	stress_12bis	"POPTR_0014s02550.1"	1810	"	"C/T"	"54,0/46,0"	"47/40"	87
controllo_3	"POPTR_0014s02550.1"	1810	"	"C/T"	"53,9/46,1"	"123/105"	228	stress_42	"POPTR_0014s02550.1"	1810	"	"C/T"	"54,4/45,6"	"80/67"	147
controllo_3	"POPTR_0014s02550.1"	1810	"	"C/T"	"53,9/46,1"	"123/105"	228	stress_45	"POPTR_0014s02550.1"	1810	"	"C/T"	"50,6/49,4"	"85/83"	168
controllo_3	"POPTR_0004s22660.1"	180	"	"G/A"	"53,9/46,1"	"69/59"	128	stress_12bis	"POPTR_0004s22660.1"	180	"	"G/A"	"54,5/45,5"	"12/10"	22
controllo_3	"POPTR_0004s22660.1"	180	"	"G/A"	"53,9/46,1"	"69/59"	128	stress_42	"POPTR_0004s22660.1"	180	"	"A/G"	"64,7/35,3"	"11/6"	17
controllo_3	"POPTR_0004s22660.1"	180	"	"G/A"	"53,9/46,1"	"69/59"	128	stress_45	"POPTR_0004s22660.1"	180	"	"A/G"	"52,9/47,1"	"9/8"	17
controllo_3	"POPTR_0009s05850.1"	48	"	"T/C"	"53,9/46,1"	"97/83"	180	stress_12bis	"POPTR_0009s05850.1"	48	"	"C/T"	"54,8/45,2"	"17/14"	31
controllo_3	"POPTR_0009s05850.1"	48	"	"T/C"	"53,9/46,1"	"97/83"	180	stress_42	"POPTR_0009s05850.1"	48	"	"C/T"	"54,5/45,5"	"12/10"	22
controllo_3	"POPTR_0009s05850.1"	48	"	"T/C"	"53,9/46,1"	"97/83"	180	stress_45	"POPTR_0009s05850.1"	48	"	"C/T"	"59,6/40,4"	"56/38"	94
controllo_3	"POPTR_0009s01470.1"	1209	"	"G/A"	"53,9/46,1"	"103/88"	191	stress_12bis	"POPTR_0009s01470.1"	1209	"	"A/G"	"54,7/45,3"	"29/24"	53
controllo_3	"POPTR_0009s01470.1"	1209	"	"G/A"	"53,9/46,1"	"103/88"	191	stress_42	"POPTR_0009s01470.1"	1209	"	"G/A"	"61,9/38,1"	"13/8"	21
controllo_3	"POPTR_0009s01470.1"	1209	"	"G/A"	"53,9/46,1"	"103/88"	191	stress_45	"POPTR_0009s01470.1"	1209	"	"G/A"	"61,4/38,6"	"35/22"	57
controllo_3	"POPTR_0012s07060.1"	204	"	"C/T"	"53,9/46,1"	"205/175"	380	stress_12bis	"POPTR_0012s07060.1"	204	"	"C/T"	"50,5/49,5"	"47/46"	93
controllo_3	"POPTR_0012s07060.1"	204	"	"C/T"	"53,9/46,1"	"205/175"	380	stress_42	"POPTR_0012s07060.1"	204	"	"T/C"	"56,1/43,9"	"23/18"	41
controllo_3	"POPTR_0012s07060.1"	204	"	"C/T"	"53,9/46,1"	"205/175"	380	stress_45	"POPTR_0012s07060.1"	204	"	"T/C"	"51,7/48,3"	"46/43"	89
controllo_3	"POPTR_0011s14150.1"	867	"	"T/G"	"53,9/46,1"	"69/59"	128	stress_12bis	"POPTR_0011s14150.1"	867	"	"T/G"	"60,7/39,3"	"34/22"	56
controllo_3	"POPTR_0011s14150.1"	867	"	"T/G"	"53,9/46,1"	"69/59"	128	stress_42	"POPTR_0011s14150.1"	867	"	"G/T"	"52,9/47,1"	"36/32"	68
controllo_3	"POPTR_0011s14150.1"	867	"	"T/G"	"53,9/46,1"	"69/59"	128	stress_45	"POPTR_0011s14150.1"	867	"	"G/T"	"51,9/48,1"	"54/50"	104
controllo_3	"POPTR_0011s14410.1"	360	"	"G/A"	"53,9/46,1"	"321/274"	595	stress_12bis	"POPTR_0011s14410.1"	360	"	"G/A"	"58,8/41,2"	"77/54"	131
controllo_3	"POPTR_0011s14410.1"	360	"	"G/A"	"53,9/46,1"	"321/274"	595	stress_42	"POPTR_0011s14410.1"	360	"	"G/A"	"57,1/42,9"	"12/9"	21
controllo_3	"POPTR_0011s14410.1"	360	"	"G/A"	"53,9/46,1"	"321/274"	595	stress_45	"POPTR_0011s14410.1"	360	"	"G/A"	"75,0/25,0"	"12/4"	16
controllo_3	"POPTR_0015s06060.1"	369	"	"T/A"	"53,9/46,1"	"152/130"	282	stress_12bis	"POPTR_0015s06060.1"	369	"	"A/T"	"63,9/36,1"	"46/26"	72
controllo_3	"POPTR_0015s06060.1"	369	"	"T/A"	"53,9/46,1"	"152/130"	282	stress_42	"POPTR_0015s06060.1"	369	"	"A/T"	"57,6/42,4"	"72/53"	125
controllo_3	"POPTR_0015s06060.1"	369	"	"T/A"	"53,9/46,1"	"152/130"	282	stress_45	"POPTR_0015s06060.1"	369	"	"A/T"	"56,2/43,8"	"68/53"	121
controllo_3	"POPTR_0015s15500.1"	139	"	"T/G"	"53,9/46,1"	"55/47"	102	stress_12bis	"POPTR_0015s15500.1"	139	"	"T/G"	"66,7/33,3"	"14/7"	21
controllo_3	"POPTR_0015s15500.1"	139	"	"T/G"	"53,9/46,1"	"55/47"	102	stress_42	"POPTR_0015s15500.1"	139	"	"T/G"	"78,0/22,0"	"32/9"	41
controllo_3	"POPTR_0015s15500.1"	139	"	"T/G"	"53,9/46,1"	"55/47"	102	stress_45	"POPTR_0015s15500.1"	139	"	"T/G"	"56,2/43,8"	"36/28"	64
controllo_3	"POPTR_0001s12960.1"	400	"	"A/G"	"53,9/46,1"	"55/47"	102	stress_12bis	"POPTR_0001s12960.1"	400	"	"G/A"	"57,5/42,5"	"23/17"	40
controllo_3	"POPTR_0001s12960.1"	400	"	"A/G"	"53,9/46,1"	"55/47"	102	stress_42	"POPTR_0001s12960.1"	400	"	"G/A"	"64,1/35,9"	"50/28"	78
controllo_3	"POPTR_0001s12960.1"	400	"	"A/G"	"53,9/46,1"	"55/47"	102	stress_45	"POPTR_0001s12960.1"	400	"	"G/A"	"55,1/44,9"	"54/44"	98
controllo_3	"POPTR_0001s14280.1"	306	"	"A/G"	"53,9/46,1"	"62/53"	115	stress_12bis	"POPTR_0001s14280.1"	306	"	"A/G"	"60,0/40,0"	"33/22"	55
controllo_3	"POPTR_0001s14280.1"	306	"	"A/G"	"53,9/46,1"	"62/53"	115	stress_42	"POPTR_0001s14280.1"	306	"	"A/G"	"59,1/40,9"	"91/63"	154
controllo_3	"POPTR_0001s14280.1"	306	"	"A/G"	"53,9/46,1"	"62/53"	115	stress_45	"POPTR_0001s14280.1"	306	"	"A/G"	"53,5/46,5"	"115/100"	215
controllo_3	"POPTR_0001s10930.1"	165	"	"C/A"	"53,9/46,1"	"83/71"	154	stress_12bis	"POPTR_0001s10930.1"	165	"	"C/A"	"56,4/43,6"	"22/17"	39
controllo_3	"POPTR_0001s10930.1"	165	"	"C/A"	"53,9/46,1"	"83/71"	154	stress_42	"POPTR_0001s10930.1"	165	"	"C/A"	"74,1/25,9"	"20/7"	27
controllo_3	"POPTR_0001s10930.1"	165	"	"C/A"	"53,9/46,1"	"83/71"	154	stress_45	"POPTR_0001s10930.1"	165	"	"C/A"	"55,6/44,4"	"25/20"	45
controllo_3	"POPTR_0001s44870.1"	114	"	"T/A"	"53,9/46,1"	"152/130"	282	stress_12bis	"POPTR_0001s44870.1"	114	"	"T/A"	"53,5/46,5"	"23/20"	43
controllo_3	"POPTR_0001s44870.1"	114	"	"T/A"	"53,9/46,1"	"152/130"	282	stress_42	"POPTR_0001s44870.1"	114	"	"T/A"	"74,3/25,7"	"26/9"	35
controllo_3	"POPTR_0001s44870.1"	114	"	"T/A"	"53,9/46,1"	"152/130"	282	stress_45	"POPTR_0001s44870.1"	114	"	"T/A"	"63,8/36,2"	"30/17"	47
controllo_3	"POPTR_0001s02570.1"	961	"	"C/T"	"53,9/46,1"	"76/65"	141	stress_12bis	"POPTR_0001s02570.1"	961	"	"C/T"	"53,6/46,4"	"15/13"	28
controllo_3	"POPTR_0001s02570.1"	961	"	"C/T"	"53,9/46,1"	"76/65"	141	stress_45	"POPTR_0001s02570.1"	961	"	"C/T"	"58,8/41,2"	"10/7"	17
controllo_3	"POPTR_0001s09720.1"	1543	"	"T/A"	"53,9/46,1"	"69/59"	128	stress_12bis	"POPTR_0001s09720.1"	1543	"	"A/T"	"55,6/44,4"	"10/8"	18
controllo_3	"POPTR_0001s09720.1"	1543	"	"T/A"	"53,9/46,1"	"69/59"	128	stress_45	"POPTR_0001s09720.1"	1543	"	"A/T"	"54,5/45,5"	"6/5"	11
controllo_3	"POPTR_0001s11420.1"	468	"	"T/G"	"53,9/46,1"	"62/53"	115	stress_12bis	"POPTR_0001s11420.1"	468	"	"T/G"	"65,7/34,3"	"23/12"	35
controllo_3	"POPTR_0001s11420.1"	468	"	"T/G"	"53,9/46,1"	"62/53"	115	stress_42	"POPTR_0001s11420.1"	468	"	"T/G"	"62,5/37,5"	"10/6"	16
controllo_3	"POPTR_0010s10330.1"	435	"	"G/A"	"53,9/46,1"	"62/53"	115	stress_12bis	"POPTR_0010s10330.1"	435	"	"G/A"	"52,6/47,4"	"30/27"	57
controllo_3	"POPTR_0010s10330.1"	435	"	"G/A"	"53,9/46,1"	"62/53"	115	stress_42	"POPTR_0010s10330.1"	435	"	"A/G"	"64,3/35,7"	"9/5"	14
controllo_3	"POPTR_0010s10330.1"	435	"	"G/A"	"53,9/46,1"	"62/53"	115	stress_45	"POPTR_0010s10330.1"	435	"	"G/A"	"85,0/15,0"	"17/3"	20
controllo_3	"POPTR_0007s06620.1"	954	"	"C/T"	"53,9/46,1"	"96/82"	178	stress_12bis	"POPTR_0007s06620.1"	954	"	"C/T"	"52,8/47,2"	"19/17"	36
controllo_3	"POPTR_0007s06620.1"	954	"	"C/T"	"53,9/46,1"	"96/82"	178	stress_45	"POPTR_0007s06620.1"	954	"	"T/C"	"55,6/44,4"	"10/8"	18
controllo_3	"POPTR_0002s03130.1"	156	"	"T/C"	"53,9/46,1"	"104/89"	193	stress_12bis	"POPTR_0002s03130.1"	156	"	"C/T"	"50,0/50,0"	"40/40"	80
controllo_3	"POPTR_0002s03130.1"	156	"	"T/C"	"53,9/46,1"	"104/89"	193	stress_42	"POPTR_0002s03130.1"	156	"	"T/C"	"56,0/44,0"	"14/11"	25
controllo_3	"POPTR_0002s03130.1"	156	"	"T/C"	"53,9/46,1"	"104/89"	193	stress_45	"POPTR_0002s03130.1"	156	"	"T/C"	"61,1/38,9"	"11/7"	18
controllo_3	"POPTR_0002s03020.1"	544	"	"C/T"	"53,9/46,1"	"267/228"	495	stress_12bis	"POPTR_0002s03020.1"	544	"	"C/T"	"53,0/47,0"	"71/63"	134
controllo_3	"POPTR_0002s03020.1"	544	"	"C/T"	"53,9/46,1"	"267/228"	495	stress_42	"POPTR_0002s03020.1"	544	"	"C/T"	"70,2/29,8"	"151/64"	215
controllo_3	"POPTR_0002s03020.1"	544	"	"C/T"	"53,9/46,1"	"267/228"	495	stress_45	"POPTR_0002s03020.1"	544	"	"C/T"	"74,9/25,1"	"317/106"	423
controllo_3	"POPTR_0002s08920.1"	390	"	"G/A"	"53,9/46,1"	"83/71"	154	stress_12bis	"POPTR_0002s08920.1"	390	"	"G/A"	"54,5/45,5"	"18/15"	33
controllo_3	"POPTR_0016s10780.1"	102	"	"C/T"	"53,9/46,1"	"111/95"	206	stress_12bis	"POPTR_0016s10780.1"	102	"	"T/C"	"59,1/40,9"	"13/9"	22
controllo_3	"POPTR_0016s10780.1"	723	"	"T/C"	"53,9/46,1"	"145/124"	269	stress_42	"POPTR_0016s10780.1"	723	"	"T/C"	"72,7/27,3"	"8/3"	11
controllo_3	"POPTR_0003s20840.1"	675	"	"C/T"	"54,0/44,4"	"34/28"	63	stress_12bis	"POPTR_0003s20840.1"	675	"	"C/T"	"58,8/41,2"	"60/42"	102
controllo_3	"POPTR_0002s16850.1"	439	"	"A/T"	"54,0/45,5"	"107/90"	198	stress_12bis	"POPTR_0002s16850.1"	439	"	"A/T"	"56,9/41,2"	"29/21"	51
controllo_3	"POPTR_0002s16850.1"	439	"	"A/T"	"54,0/45,5"	"107/90"	198	stress_42	"POPTR_0002s16850.1"	439	"	"A/T"	"54,5/45,5"	"12/10"	22
controllo_3	"POPTR_0002s16850.1"	439	"	"A/T"	"54,0/45,5"	"107/90"	198	stress_45	"POPTR_0002s16850.1"	439	"	"T/A"	"65,0/35,0"	"13/7"	20
controllo_3	"POPTR_0005s10440.1"	303	"	"C/T"	"54,0/45,6"	"129/109"	239	stress_12bis	"POPTR_0005s10440.1"	303	"	"C/T"	"50,0/50,0"	"23/23"	46
controllo_3	"POPTR_0005s10440.1"	303	"	"C/T"	"54,0/45,6"	"129/109"	239	stress_42	"POPTR_0005s10440.1"	303	"	"C/T"	"54,5/45,5"	"36/30"	66
controllo_3	"POPTR_0005s10440.1"	303	"	"C/T"	"54,0/45,6"	"129/109"	239	stress_45	"POPTR_0005s10440.1"	303	"	"T/C"	"52,2/47,8"	"47/43"	90
controllo_3	"POPTR_0002s11310.1"	243	"	"T/A"	"54,0/45,7"	"183/155"	339	stress_12bis	"POPTR_0002s11310.1"	243	"	"T/A"	"59,5/40,5"	"69/47"	116
controllo_3	"POPTR_0002s11310.1"	243	"	"T/A"	"54,0/45,7"	"183/155"	339	stress_42	"POPTR_0002s11310.1"	243	"	"T/A"	"65,5/34,5"	"36/19"	55
controllo_3	"POPTR_0002s11310.1"	243	"	"T/A"	"54,0/45,7"	"183/155"	339	stress_45	"POPTR_0002s11310.1"	243	"	"T/A"	"52,6/47,4"	"20/18"	38
controllo_3	"POPTR_0014s13660.1"	208	"	"C/A"	"54,0/45,9"	"428/364"	793	stress_12bis	"POPTR_0014s13660.1"	208	"	"C/A"	"57,5/42,5"	"104/77"	181
controllo_3	"POPTR_0014s13660.1"	208	"	"C/A"	"54,0/45,9"	"428/364"	793	stress_42	"POPTR_0014s13660.1"	208	"	"C/A"	"51,0/49,0"	"26/25"	51
controllo_3	"POPTR_0014s13660.1"	208	"	"C/A"	"54,0/45,9"	"428/364"	793	stress_45	"POPTR_0014s13660.1"	208	"	"A/C"	"51,5/48,5"	"34/32"	66
controllo_3	"POPTR_0005s05450.1"	747	"	"C/T"	"54,0/46,0"	"128/109"	237	stress_12bis	"POPTR_0005s05450.1"	747	"	"T/C"	"52,1/47,9"	"25/23"	48
controllo_3	"POPTR_0005s05450.1"	747	"	"C/T"	"54,0/46,0"	"128/109"	237	stress_42	"POPTR_0005s05450.1"	747	"	"C/T"	"63,2/36,8"	"12/7"	19
controllo_3	"POPTR_0005s05450.1"	747	"	"C/T"	"54,0/46,0"	"128/109"	237	stress_45	"POPTR_0005s05450.1"	747	"	"C/T"	"50,0/50,0"	"10/10"	20
controllo_3	"POPTR_0005s22780.1"	151	"	"C/T"	"54,0/46,0"	"155/132"	287	stress_12bis	"POPTR_0005s22780.1"	151	"	"T/C"	"50,6/49,4"	"89/87"	176
controllo_3	"POPTR_0005s22780.1"	151	"	"C/T"	"54,0/46,0"	"155/132"	287	stress_42	"POPTR_0005s22780.1"	151	"	"T/C"	"52,1/47,9"	"25/23"	48
controllo_3	"POPTR_0005s22780.1"	151	"	"C/T"	"54,0/46,0"	"155/132"	287	stress_45	"POPTR_0005s22780.1"	151	"	"T/C"	"57,1/42,9"	"28/21"	49
controllo_3	"POPTR_0005s05130.1"	909	"	"T/C"	"54,0/46,0"	"67/57"	124	stress_12bis	"POPTR_0005s05130.1"	909	"	"T/C"	"70,8/29,2"	"17/7"	24
controllo_3	"POPTR_0005s05130.1"	909	"	"T/C"	"54,0/46,0"	"67/57"	124	stress_42	"POPTR_0005s05130.1"	909	"	"C/T"	"80,0/20,0"	"8/2"	10
controllo_3	"POPTR_0006s05160.1"	667	"	"A/G"	"54,0/46,0"	"109/93"	202	stress_12bis	"POPTR_0006s05160.1"	667	"	"A/G"	"52,1/47,9"	"38/35"	73
controllo_3	"POPTR_0006s05160.1"	667	"	"A/G"	"54,0/46,0"	"109/93"	202	stress_42	"POPTR_0006s05160.1"	667	"	"G/A"	"52,6/47,4"	"10/9"	19
controllo_3	"POPTR_0006s05160.1"	667	"	"A/G"	"54,0/46,0"	"109/93"	202	stress_45	"POPTR_0006s05160.1"	667	"	"A/G"	"52,6/47,4"	"20/18"	38
controllo_3	"POPTR_0006s22210.1"	174	"	"T/C"	"54,0/46,0"	"74/63"	137	stress_12bis	"POPTR_0006s22210.1"	174	"	"C/T"	"58,5/41,5"	"31/22"	53
controllo_3	"POPTR_0006s22210.1"	174	"	"T/C"	"54,0/46,0"	"74/63"	137	stress_42	"POPTR_0006s22210.1"	174	"	"C/T"	"50,7/49,3"	"37/36"	73
controllo_3	"POPTR_0006s22210.1"	174	"	"T/C"	"54,0/46,0"	"74/63"	137	stress_45	"POPTR_0006s22210.1"	174	"	"T/C"	"62,2/37,8"	"46/28"	74
controllo_3	"POPTR_0006s03660.1"	63	"	"G/A"	"54,0/46,0"	"61/52"	113	stress_12bis	"POPTR_0006s03660.1"	63	"	"A/G"	"51,9/48,1"	"14/13"	27
controllo_3	"POPTR_0006s03660.1"	63	"	"G/A"	"54,0/46,0"	"61/52"	113	stress_45	"POPTR_0006s03660.1"	63	"	"A/G"	"53,3/46,7"	"8/7"	15
controllo_3	"POPTR_0006s03660.1"	1604	"	"A/G"	"54,0/46,0"	"81/69"	150	stress_12bis	"POPTR_0006s03660.1"	1604	"	"A/G"	"59,5/40,5"	"22/15"	37
controllo_3	"POPTR_0006s03660.1"	1604	"	"A/G"	"54,0/46,0"	"81/69"	150	stress_45	"POPTR_0006s03660.1"	1604	"	"A/G"	"63,2/36,8"	"12/7"	19
controllo_3	"POPTR_0018s11600.1"	708	"	"G/A"	"54,0/46,0"	"67/57"	124	stress_12bis	"POPTR_0018s11600.1"	708	"	"A/G"	"57,1/42,9"	"32/24"	56
controllo_3	"POPTR_0018s11600.1"	708	"	"G/A"	"54,0/46,0"	"67/57"	124	stress_42	"POPTR_0018s11600.1"	708	"	"G/A"	"58,6/41,4"	"17/12"	29
controllo_3	"POPTR_0018s11600.1"	708	"	"G/A"	"54,0/46,0"	"67/57"	124	stress_45	"POPTR_0018s11600.1"	708	"	"A/G"	"51,7/48,3"	"15/14"	29
controllo_3	"POPTR_0018s02960.1"	1066	"	"C/T"	"54,0/46,0"	"67/57"	124	stress_12bis	"POPTR_0018s02960.1"	1066	"	"T/C"	"53,3/46,7"	"8/7"	15
controllo_3	"POPTR_0018s02960.1"	1066	"	"C/T"	"54,0/46,0"	"67/57"	124	stress_42	"POPTR_0018s02960.1"	1066	"	"T/C"	"66,7/33,3"	"12/6"	18
controllo_3	"POPTR_0018s02960.1"	1066	"	"C/T"	"54,0/46,0"	"67/57"	124	stress_45	"POPTR_0018s02960.1"	1066	"	"T/C"	"66,7/33,3"	"12/6"	18
controllo_3	"POPTR_0003s10660.1"	579	"	"T/C"	"54,0/46,0"	"61/52"	113	stress_12bis	"POPTR_0003s10660.1"	579	"	"C/T"	"56,2/43,8"	"9/7"	16
controllo_3	"POPTR_0014s17070.1"	576	"	"T/C"	"54,0/46,0"	"1055/898"	1954	stress_12bis	"POPTR_0014s17070.1"	576	"	"C/T"	"50,8/49,1"	"302/292"	595
controllo_3	"POPTR_0014s17070.1"	576	"	"T/C"	"54,0/46,0"	"1055/898"	1954	stress_42	"POPTR_0014s17070.1"	576	"	"C/T"	"54,0/46,0"	"107/91"	198
controllo_3	"POPTR_0014s17070.1"	576	"	"T/C"	"54,0/46,0"	"1055/898"	1954	stress_45	"POPTR_0014s17070.1"	576	"	"C/T"	"57,6/42,4"	"118/87"	205
controllo_3	"POPTR_0014s02550.1"	408	"	"C/T"	"54,0/46,0"	"75/64"	139	stress_12bis	"POPTR_0014s02550.1"	408	"	"C/T"	"50,0/50,0"	"23/23"	46
controllo_3	"POPTR_0014s02550.1"	408	"	"C/T"	"54,0/46,0"	"75/64"	139	stress_42	"POPTR_0014s02550.1"	408	"	"T/C"	"59,3/40,7"	"16/11"	27
controllo_3	"POPTR_0014s02550.1"	408	"	"C/T"	"54,0/46,0"	"75/64"	139	stress_45	"POPTR_0014s02550.1"	408	"	"C/T"	"59,7/40,3"	"46/31"	77
controllo_3	"POPTR_0009s12790.1"	384	"	"T/A"	"54,0/46,0"	"81/69"	150	stress_12bis	"POPTR_0009s12790.1"	384	"	"T/A"	"51,5/48,5"	"17/16"	33
controllo_3	"POPTR_0009s12790.1"	384	"	"T/A"	"54,0/46,0"	"81/69"	150	stress_42	"POPTR_0009s12790.1"	384	"	"T/A"	"52,4/47,6"	"22/20"	42
controllo_3	"POPTR_0009s12790.1"	384	"	"T/A"	"54,0/46,0"	"81/69"	150	stress_45	"POPTR_0009s12790.1"	384	"	"T/A"	"69,4/30,6"	"25/11"	36
controllo_3	"POPTR_0009s10270.1"	81	"	"C/T"	"54,0/46,0"	"75/64"	139	stress_12bis	"POPTR_0009s10270.1"	81	"	"C/T"	"50,0/50,0"	"5/5"	10
controllo_3	"POPTR_0009s10270.1"	81	"	"C/T"	"54,0/46,0"	"75/64"	139	stress_42	"POPTR_0009s10270.1"	81	"	"C/T"	"56,2/43,8"	"9/7"	16
controllo_3	"POPTR_0009s10270.1"	81	"	"C/T"	"54,0/46,0"	"75/64"	139	stress_45	"POPTR_0009s10270.1"	81	"	"C/T"	"50,0/50,0"	"7/7"	14
controllo_3	"POPTR_0001s02500.1"	507	"	"C/G"	"54,0/46,0"	"135/115"	250	stress_12bis	"POPTR_0001s02500.1"	507	"	"G/C"	"54,3/45,7"	"19/16"	35
controllo_3	"POPTR_0001s36560.1"	68	"	"G/T"	"54,0/46,0"	"188/160"	348	stress_12bis	"POPTR_0001s36560.1"	68	"	"G/T"	"53,3/46,7"	"49/43"	92
controllo_3	"POPTR_0001s36560.1"	68	"	"G/T"	"54,0/46,0"	"188/160"	348	stress_45	"POPTR_0001s36560.1"	68	"	"T/G"	"66,7/33,3"	"22/11"	33
controllo_3	"POPTR_0001s08770.1"	1083	"	"A/G"	"54,0/46,0"	"267/227"	494	stress_12bis	"POPTR_0001s08770.1"	1083	"	"A/G"	"51,8/48,2"	"72/67"	139
controllo_3	"POPTR_0001s08770.1"	1083	"	"A/G"	"54,0/46,0"	"267/227"	494	stress_42	"POPTR_0001s08770.1"	1083	"	"A/G"	"54,1/45,9"	"20/17"	37
controllo_3	"POPTR_0001s08770.1"	1083	"	"A/G"	"54,0/46,0"	"267/227"	494	stress_45	"POPTR_0001s08770.1"	1083	"	"A/G"	"56,0/44,0"	"42/33"	75
controllo_3	"POPTR_0010s16060.1"	138	"	"T/C"	"54,0/46,0"	"67/57"	124	stress_45	"POPTR_0010s16060.1"	138	"	"C/T"	"76,5/23,5"	"13/4"	17
controllo_3	"POPTR_0010s07920.1"	98	"	"C/T"	"54,0/46,0"	"143/122"	265	stress_12bis	"POPTR_0010s07920.1"	98	"	"C/T"	"67,2/32,8"	"41/20"	61
controllo_3	"POPTR_0010s07920.1"	98	"	"C/T"	"54,0/46,0"	"143/122"	265	stress_42	"POPTR_0010s07920.1"	98	"	"T/C"	"52,6/47,4"	"10/9"	19
controllo_3	"POPTR_0010s07920.1"	98	"	"C/T"	"54,0/46,0"	"143/122"	265	stress_45	"POPTR_0010s07920.1"	98	"	"C/T"	"59,5/40,5"	"22/15"	37
controllo_3	"POPTR_0002s01320.1"	112	"	"T/A"	"54,0/46,0"	"261/222"	483	stress_12bis	"POPTR_0002s01320.1"	112	"	"T/A"	"51,2/48,8"	"83/79"	162
controllo_3	"POPTR_0002s01320.1"	112	"	"T/A"	"54,0/46,0"	"261/222"	483	stress_42	"POPTR_0002s01320.1"	112	"	"A/T"	"54,5/45,5"	"12/10"	22
controllo_3	"POPTR_0002s01320.1"	112	"	"T/A"	"54,0/46,0"	"261/222"	483	stress_45	"POPTR_0002s01320.1"	112	"	"T/A"	"56,3/43,7"	"40/31"	71
controllo_3	"POPTR_0002s06560.1"	379	"	"A/C"	"54,0/46,0"	"109/93"	202	stress_12bis	"POPTR_0002s06560.1"	379	"	"A/C"	"54,4/45,6"	"43/36"	79
controllo_3	"POPTR_0002s06560.1"	379	"	"A/C"	"54,0/46,0"	"109/93"	202	stress_42	"POPTR_0002s06560.1"	379	"	"A/C"	"51,3/48,7"	"20/19"	39
controllo_3	"POPTR_0002s06560.1"	379	"	"A/C"	"54,0/46,0"	"109/93"	202	stress_45	"POPTR_0002s06560.1"	379	"	"A/C"	"53,6/46,4"	"30/26"	56
controllo_3	"POPTR_0002s09480.1"	373	"	"T/C"	"54,0/46,0"	"34/29"	63	stress_45	"POPTR_0002s09480.1"	373	"	"T/C"	"53,1/46,1"	"68/59"	128
controllo_3	"POPTR_0008s10050.1"	741	"	"C/T"	"54,0/46,0"	"114/97"	211	stress_12bis	"POPTR_0008s10050.1"	741	"	"T/C"	"53,3/46,7"	"32/28"	60
controllo_3	"POPTR_0008s10050.1"	741	"	"C/T"	"54,0/46,0"	"114/97"	211	stress_42	"POPTR_0008s10050.1"	741	"	"T/C"	"58,8/41,2"	"10/7"	17
controllo_3	"POPTR_0008s10050.1"	741	"	"C/T"	"54,0/46,0"	"114/97"	211	stress_45	"POPTR_0008s10050.1"	741	"	"C/T"	"51,6/48,4"	"16/15"	31
controllo_3	"POPTR_0008s16670.1"	219	"	"T/C"	"54,0/46,0"	"61/52"	113	stress_12bis	"POPTR_0008s16670.1"	219	"	"C/T"	"64,6/35,4"	"31/17"	48
controllo_3	"POPTR_0008s16670.1"	219	"	"T/C"	"54,0/46,0"	"61/52"	113	stress_42	"POPTR_0008s16670.1"	219	"	"T/C"	"53,7/46,3"	"44/38"	82
controllo_3	"POPTR_0008s16670.1"	219	"	"T/C"	"54,0/46,0"	"61/52"	113	stress_45	"POPTR_0008s16670.1"	219	"	"T/C"	"56,5/43,5"	"65/50"	115
controllo_3	"POPTR_0016s14100.1"	1125	"	"A/G"	"54,0/46,0"	"74/63"	137	stress_12bis	"POPTR_0016s14100.1"	1125	"	"A/G"	"57,5/42,5"	"46/34"	80
controllo_3	"POPTR_0016s14100.1"	1125	"	"A/G"	"54,0/46,0"	"74/63"	137	stress_42	"POPTR_0016s14100.1"	1125	"	"G/A"	"57,1/42,9"	"12/9"	21
controllo_3	"POPTR_0016s14100.1"	1125	"	"A/G"	"54,0/46,0"	"74/63"	137	stress_45	"POPTR_0016s14100.1"	1125	"	"A/G"	"52,4/47,6"	"11/10"	21
controllo_3	"POPTR_0001s33710.1"	553	"	"G/T"	"54,1/45,4"	"124/104"	229	stress_12bis	"POPTR_0001s33710.1"	553	"	"G/T"	"61,2/38,8"	"30/19"	49
controllo_3	"POPTR_0001s33710.1"	553	"	"G/T"	"54,1/45,4"	"124/104"	229	stress_42	"POPTR_0001s33710.1"	553	"	"T/G"	"68,8/31,2"	"11/5"	16
controllo_3	"POPTR_0001s33710.1"	553	"	"G/T"	"54,1/45,4"	"124/104"	229	stress_45	"POPTR_0001s33710.1"	553	"	"T/G"	"76,9/23,1"	"10/3"	13
controllo_3	"POPTR_0014s08960.1"	27	"	"G/A"	"54,1/45,5"	"113/95"	209	stress_12bis	"POPTR_0014s08960.1"	27	"	"G/A"	"61,0/39,0"	"25/16"	41
controllo_3	"POPTR_0005s11190.1"	111	"	"T/C"	"54,1/45,9"	"92/78"	170	stress_12bis	"POPTR_0005s11190.1"	111	"	"T/C"	"59,3/40,7"	"35/24"	59
controllo_3	"POPTR_0005s11190.1"	111	"	"T/C"	"54,1/45,9"	"92/78"	170	stress_42	"POPTR_0005s11190.1"	111	"	"C/T"	"60,0/40,0"	"30/20"	50
controllo_3	"POPTR_0005s11190.1"	111	"	"T/C"	"54,1/45,9"	"92/78"	170	stress_45	"POPTR_0005s11190.1"	111	"	"T/C"	"55,7/44,3"	"34/27"	61
controllo_3	"POPTR_0005s25850.1"	256	"	"A/T"	"54,1/45,9"	"86/73"	159	stress_12bis	"POPTR_0005s25850.1"	256	"	"A/T"	"58,3/41,7"	"7/5"	12
controllo_3	"POPTR_0005s21360.1"	925	"	"C/G"	"54,1/45,9"	"140/119"	259	stress_12bis	"POPTR_0005s21360.1"	925	"	"C/G"	"55,3/44,7"	"42/34"	76
controllo_3	"POPTR_0005s21360.1"	925	"	"C/G"	"54,1/45,9"	"140/119"	259	stress_42	"POPTR_0005s21360.1"	925	"	"C/G"	"75,0/25,0"	"9/3"	12
controllo_3	"POPTR_0005s21360.1"	925	"	"C/G"	"54,1/45,9"	"140/119"	259	stress_45	"POPTR_0005s21360.1"	925	"	"G/C"	"55,0/45,0"	"11/9"	20
controllo_3	"POPTR_0017s06920.1"	166	"	"C/A"	"54,1/45,9"	"238/202"	440	stress_12bis	"POPTR_0017s06920.1"	166	"	"C/A"	"55,2/44,8"	"91/74"	165
controllo_3	"POPTR_0006s28990.1"	465	"	"T/A"	"54,1/45,9"	"126/107"	233	stress_12bis	"POPTR_0006s28990.1"	465	"	"T/A"	"63,4/36,6"	"26/15"	41
controllo_3	"POPTR_0006s28990.1"	465	"	"T/A"	"54,1/45,9"	"126/107"	233	stress_42	"POPTR_0006s28990.1"	465	"	"A/T"	"64,7/35,3"	"33/18"	51
controllo_3	"POPTR_0006s28990.1"	465	"	"T/A"	"54,1/45,9"	"126/107"	233	stress_45	"POPTR_0006s28990.1"	465	"	"T/A"	"51,1/48,9"	"45/43"	88
controllo_3	"POPTR_0006s28990.1"	2073	"	"T/G"	"54,1/45,9"	"112/95"	207	stress_12bis	"POPTR_0006s28990.1"	2073	"	"G/T"	"61,8/38,2"	"21/13"	34
controllo_3	"POPTR_0006s28990.1"	2073	"	"T/G"	"54,1/45,9"	"112/95"	207	stress_42	"POPTR_0006s28990.1"	2073	"	"T/G"	"58,3/41,7"	"49/35"	84
controllo_3	"POPTR_0006s28990.1"	2073	"	"T/G"	"54,1/45,9"	"112/95"	207	stress_45	"POPTR_0006s28990.1"	2073	"	"G/T"	"56,0/44,0"	"47/37"	84
controllo_3	"POPTR_0006s23770.1"	471	"	"A/G"	"54,1/45,9"	"111/94"	205	stress_12bis	"POPTR_0006s23770.1"	471	"	"A/G"	"53,4/46,6"	"31/27"	58
controllo_3	"POPTR_0006s23770.1"	471	"	"A/G"	"54,1/45,9"	"111/94"	205	stress_42	"POPTR_0006s23770.1"	471	"	"A/G"	"66,7/33,3"	"10/5"	15
controllo_3	"POPTR_0006s23770.1"	471	"	"A/G"	"54,1/45,9"	"111/94"	205	stress_45	"POPTR_0006s23770.1"	471	"	"G/A"	"57,9/42,1"	"11/8"	19
controllo_3	"POPTR_0006s04960.1"	1122	"	"C/A"	"54,1/45,9"	"140/119"	259	stress_12bis	"POPTR_0006s04960.1"	1122	"	"A/C"	"57,1/42,9"	"24/18"	42
controllo_3	"POPTR_0006s04960.1"	1122	"	"C/A"	"54,1/45,9"	"140/119"	259	stress_45	"POPTR_0006s04960.1"	1122	"	"C/A"	"66,7/33,3"	"16/8"	24
controllo_3	"POPTR_0006s04960.1"	3976	"	"G/T"	"54,1/45,9"	"288/244"	532	stress_12bis	"POPTR_0006s04960.1"	3976	"	"G/T"	"53,2/46,8"	"59/52"	111
controllo_3	"POPTR_0006s04960.1"	3976	"	"G/T"	"54,1/45,9"	"288/244"	532	stress_42	"POPTR_0006s04960.1"	3976	"	"T/G"	"55,3/44,7"	"26/21"	47
controllo_3	"POPTR_0006s04960.1"	3976	"	"G/T"	"54,1/45,9"	"288/244"	532	stress_45	"POPTR_0006s04960.1"	3976	"	"G/T"	"56,2/43,8"	"36/28"	64
controllo_3	"POPTR_0006s03660.1"	552	"	"C/T"	"54,1/45,9"	"72/61"	133	stress_12bis	"POPTR_0006s03660.1"	552	"	"C/T"	"59,1/40,9"	"13/9"	22
controllo_3	"POPTR_0006s03660.1"	552	"	"C/T"	"54,1/45,9"	"72/61"	133	stress_45	"POPTR_0006s03660.1"	552	"	"T/C"	"70,0/30,0"	"14/6"	20
controllo_3	"POPTR_0003s13340.1"	348	"	"T/C"	"54,1/45,9"	"59/50"	109	stress_12bis	"POPTR_0003s13340.1"	348	"	"T/C"	"65,0/35,0"	"26/14"	40
controllo_3	"POPTR_0003s13340.1"	348	"	"T/C"	"54,1/45,9"	"59/50"	109	stress_42	"POPTR_0003s13340.1"	348	"	"T/C"	"64,5/35,5"	"20/11"	31
controllo_3	"POPTR_0003s13340.1"	348	"	"T/C"	"54,1/45,9"	"59/50"	109	stress_45	"POPTR_0003s13340.1"	348	"	"T/C"	"55,4/43,1"	"36/28"	65
controllo_3	"POPTR_0003s20890.1"	146	"	"C/A"	"54,1/45,9"	"80/68"	148	stress_12bis	"POPTR_0003s20890.1"	146	"	"A/C"	"56,2/43,8"	"9/7"	16
controllo_3	"POPTR_0003s20450.1"	405	"	"C/T"	"54,1/45,9"	"59/50"	109	stress_12bis	"POPTR_0003s20450.1"	405	"	"C/T"	"64,7/35,3"	"33/18"	51
controllo_3	"POPTR_0003s20450.1"	405	"	"C/T"	"54,1/45,9"	"59/50"	109	stress_42	"POPTR_0003s20450.1"	405	"	"C/T"	"63,6/36,4"	"21/12"	33
controllo_3	"POPTR_0003s20450.1"	405	"	"C/T"	"54,1/45,9"	"59/50"	109	stress_45	"POPTR_0003s20450.1"	405	"	"C/T"	"50,0/50,0"	"10/10"	20
controllo_3	"POPTR_0003s17010.1"	36	"	"C/T"	"54,1/45,9"	"199/169"	368	stress_12bis	"POPTR_0003s17010.1"	36	"	"C/T"	"62,8/37,2"	"81/48"	129
controllo_3	"POPTR_0003s17010.1"	36	"	"C/T"	"54,1/45,9"	"199/169"	368	stress_42	"POPTR_0003s17010.1"	36	"	"C/T"	"72,4/27,6"	"21/8"	29
controllo_3	"POPTR_0003s17010.1"	36	"	"C/T"	"54,1/45,9"	"199/169"	368	stress_45	"POPTR_0003s17010.1"	36	"	"C/T"	"75,0/25,0"	"36/12"	48
controllo_3	"POPTR_0022s00530.1"	366	"	"G/A"	"54,1/45,9"	"85/72"	157	stress_12bis	"POPTR_0022s00530.1"	366	"	"G/A"	"58,3/41,7"	"21/15"	36
controllo_3	"POPTR_0022s00530.1"	366	"	"G/A"	"54,1/45,9"	"85/72"	157	stress_45	"POPTR_0022s00530.1"	366	"	"A/G"	"51,4/48,6"	"19/18"	37
controllo_3	"POPTR_0019s09140.1"	369	"	"T/C"	"54,1/45,9"	"846/718"	1564	stress_12bis	"POPTR_0019s09140.1"	369	"	"C/T"	"52,5/47,5"	"299/271"	570
controllo_3	"POPTR_0019s09140.1"	369	"	"T/C"	"54,1/45,9"	"846/718"	1564	stress_42	"POPTR_0019s09140.1"	369	"	"C/T"	"50,6/49,4"	"87/85"	172
controllo_3	"POPTR_0019s09140.1"	369	"	"T/C"	"54,1/45,9"	"846/718"	1564	stress_45	"POPTR_0019s09140.1"	369	"	"C/T"	"51,6/48,4"	"97/91"	188
controllo_3	"POPTR_0013s12130.1"	180	"	"G/A"	"54,1/45,9"	"73/62"	135	stress_12bis	"POPTR_0013s12130.1"	180	"	"A/G"	"69,6/30,4"	"16/7"	23
controllo_3	"POPTR_0013s07050.1"	567	"	"A/G"	"54,1/45,9"	"72/61"	133	stress_12bis	"POPTR_0013s07050.1"	567	"	"A/G"	"53,3/46,7"	"24/21"	45
controllo_3	"POPTR_0013s07050.1"	567	"	"A/G"	"54,1/45,9"	"72/61"	133	stress_45	"POPTR_0013s07050.1"	567	"	"A/G"	"61,2/38,8"	"30/19"	49
controllo_3	"POPTR_0013s07150.1"	2895	"	"T/C"	"54,1/45,9"	"126/107"	233	stress_12bis	"POPTR_0013s07150.1"	2895	"	"C/T"	"49,2/49,2"	"31/31"	63
controllo_3	"POPTR_0013s07150.1"	2895	"	"T/C"	"54,1/45,9"	"126/107"	233	stress_42	"POPTR_0013s07150.1"	2895	"	"C/T"	"51,4/48,6"	"18/17"	35
controllo_3	"POPTR_0013s07150.1"	2895	"	"T/C"	"54,1/45,9"	"126/107"	233	stress_45	"POPTR_0013s07150.1"	2895	"	"C/T"	"58,1/41,9"	"25/18"	43
controllo_3	"POPTR_0014s17070.1"	513	"	"G/A"	"54,1/45,9"	"1169/993"	2162	stress_12bis	"POPTR_0014s17070.1"	513	"	"A/G"	"56,1/43,9"	"355/278"	633
controllo_3	"POPTR_0014s17070.1"	513	"	"G/A"	"54,1/45,9"	"1169/993"	2162	stress_42	"POPTR_0014s17070.1"	513	"	"A/G"	"64,8/35,2"	"129/70"	199
controllo_3	"POPTR_0014s17070.1"	513	"	"G/A"	"54,1/45,9"	"1169/993"	2162	stress_45	"POPTR_0014s17070.1"	513	"	"A/G"	"54,3/45,7"	"132/111"	243
controllo_3	"POPTR_0014s02550.1"	1611	"	"C/T"	"54,1/45,9"	"98/83"	181	stress_12bis	"POPTR_0014s02550.1"	1611	"	"C/T"	"52,8/47,2"	"28/25"	53
controllo_3	"POPTR_0014s02550.1"	1611	"	"C/T"	"54,1/45,9"	"98/83"	181	stress_42	"POPTR_0014s02550.1"	1611	"	"T/C"	"57,3/42,7"	"47/35"	82
controllo_3	"POPTR_0014s02550.1"	1611	"	"C/T"	"54,1/45,9"	"98/83"	181	stress_45	"POPTR_0014s02550.1"	1611	"	"C/T"	"52,7/47,3"	"58/52"	110
controllo_3	"POPTR_0014s08960.1"	270	"	"A/G"	"54,1/45,9"	"298/253"	551	stress_12bis	"POPTR_0014s08960.1"	270	"	"A/G"	"54,0/46,0"	"68/58"	126
controllo_3	"POPTR_0014s08960.1"	270	"	"A/G"	"54,1/45,9"	"298/253"	551	stress_42	"POPTR_0014s08960.1"	270	"	"A/G"	"56,5/43,5"	"13/10"	23
controllo_3	"POPTR_0014s08960.1"	270	"	"A/G"	"54,1/45,9"	"298/253"	551	stress_45	"POPTR_0014s08960.1"	270	"	"A/G"	"60,0/40,0"	"30/20"	50
controllo_3	"POPTR_0004s24420.1"	129	"	"T/A"	"54,1/45,9"	"59/50"	109	stress_12bis	"POPTR_0004s24420.1"	129	"	"T/A"	"78,4/21,6"	"29/8"	37
controllo_3	"POPTR_0004s24420.1"	129	"	"T/A"	"54,1/45,9"	"59/50"	109	stress_42	"POPTR_0004s24420.1"	129	"	"T/A"	"59,4/40,6"	"41/28"	69
controllo_3	"POPTR_0004s24420.1"	129	"	"T/A"	"54,1/45,9"	"59/50"	109	stress_45	"POPTR_0004s24420.1"	129	"	"T/A"	"65,4/34,6"	"34/18"	52
controllo_3	"POPTR_0009s12420.1"	941	"	"C/G"	"54,1/45,9"	"59/50"	109	stress_12bis	"POPTR_0009s12420.1"	941	"	"C/G"	"65,6/34,4"	"21/11"	32
controllo_3	"POPTR_0009s12420.1"	941	"	"C/G"	"54,1/45,9"	"59/50"	109	stress_42	"POPTR_0009s12420.1"	941	"	"C/G"	"64,4/35,6"	"96/53"	149
controllo_3	"POPTR_0009s12420.1"	941	"	"C/G"	"54,1/45,9"	"59/50"	109	stress_45	"POPTR_0009s12420.1"	941	"	"C/G"	"61,0/39,0"	"86/55"	141
controllo_3	"POPTR_0009s05850.1"	648	"	"C/T"	"54,1/45,9"	"80/68"	148	stress_12bis	"POPTR_0009s05850.1"	648	"	"C/T"	"55,0/45,0"	"11/9"	20
controllo_3	"POPTR_0009s05850.1"	648	"	"C/T"	"54,1/45,9"	"80/68"	148	stress_42	"POPTR_0009s05850.1"	648	"	"T/C"	"58,8/41,2"	"20/14"	34
controllo_3	"POPTR_0009s05850.1"	648	"	"C/T"	"54,1/45,9"	"80/68"	148	stress_45	"POPTR_0009s05850.1"	648	"	"T/C"	"53,7/46,3"	"44/38"	82
controllo_3	"POPTR_0012s00670.1"	57	"	"G/A"	"54,1/45,9"	"79/67"	146	stress_12bis	"POPTR_0012s00670.1"	57	"	"A/G"	"63,6/36,4"	"7/4"	11
controllo_3	"POPTR_0012s00670.1"	57	"	"G/A"	"54,1/45,9"	"79/67"	146	stress_42	"POPTR_0012s00670.1"	57	"	"G/A"	"63,9/36,1"	"23/13"	36
controllo_3	"POPTR_0012s00670.1"	57	"	"G/A"	"54,1/45,9"	"79/67"	146	stress_45	"POPTR_0012s00670.1"	57	"	"A/G"	"56,5/43,5"	"26/20"	46
controllo_3	"POPTR_0011s05670.1"	709	"	"A/G"	"54,1/45,9"	"145/123"	268	stress_12bis	"POPTR_0011s05670.1"	709	"	"G/A"	"51,6/48,4"	"49/46"	95
controllo_3	"POPTR_0011s05670.1"	709	"	"A/G"	"54,1/45,9"	"145/123"	268	stress_42	"POPTR_0011s05670.1"	709	"	"G/A"	"50,8/49,2"	"31/30"	61
controllo_3	"POPTR_0011s05670.1"	709	"	"A/G"	"54,1/45,9"	"145/123"	268	stress_45	"POPTR_0011s05670.1"	709	"	"G/A"	"65,2/34,8"	"45/24"	69
controllo_3	"POPTR_0011s14410.1"	372	"	"A/G"	"54,1/45,9"	"363/308"	671	stress_12bis	"POPTR_0011s14410.1"	372	"	"A/G"	"64,0/36,0"	"89/50"	139
controllo_3	"POPTR_0011s14410.1"	372	"	"A/G"	"54,1/45,9"	"363/308"	671	stress_42	"POPTR_0011s14410.1"	372	"	"G/A"	"54,5/45,5"	"12/10"	22
controllo_3	"POPTR_0011s14410.1"	372	"	"A/G"	"54,1/45,9"	"363/308"	671	stress_45	"POPTR_0011s14410.1"	372	"	"A/G"	"81,0/19,0"	"17/4"	21
controllo_3	"POPTR_0015s09810.1"	224	"	"A/G"	"54,1/45,9"	"72/61"	133	stress_12bis	"POPTR_0015s09810.1"	224	"	"G/A"	"53,7/46,3"	"29/25"	54
controllo_3	"POPTR_0015s09810.1"	224	"	"A/G"	"54,1/45,9"	"72/61"	133	stress_42	"POPTR_0015s09810.1"	224	"	"A/G"	"54,5/45,5"	"6/5"	11
controllo_3	"POPTR_0015s09810.1"	224	"	"A/G"	"54,1/45,9"	"72/61"	133	stress_45	"POPTR_0015s09810.1"	224	"	"A/G"	"64,9/35,1"	"24/13"	37
controllo_3	"POPTR_0015s11940.1"	435	"	"A/T"	"54,1/45,9"	"112/95"	207	stress_12bis	"POPTR_0015s11940.1"	435	"	"T/A"	"52,0/48,0"	"26/24"	50
controllo_3	"POPTR_0015s11940.1"	435	"	"A/T"	"54,1/45,9"	"112/95"	207	stress_42	"POPTR_0015s11940.1"	435	"	"A/T"	"53,6/46,4"	"15/13"	28
controllo_3	"POPTR_0015s11940.1"	435	"	"A/T"	"54,1/45,9"	"112/95"	207	stress_45	"POPTR_0015s11940.1"	435	"	"T/A"	"71,0/29,0"	"22/9"	31
controllo_3	"POPTR_0001s40250.1"	2166	"	"G/A"	"54,1/45,9"	"46/39"	85	stress_45	"POPTR_0001s40250.1"	2166	"	"G/A"	"80,7/19,3"	"146/35"	181
controllo_3	"POPTR_0001s25520.1"	965	"	"G/A"	"54,1/45,9"	"60/51"	111	stress_12bis	"POPTR_0001s25520.1"	965	"	"G/A"	"54,8/45,2"	"17/14"	31
controllo_3	"POPTR_0001s25520.1"	965	"	"G/A"	"54,1/45,9"	"60/51"	111	stress_42	"POPTR_0001s25520.1"	965	"	"A/G"	"54,8/45,2"	"23/19"	42
controllo_3	"POPTR_0001s25520.1"	965	"	"G/A"	"54,1/45,9"	"60/51"	111	stress_45	"POPTR_0001s25520.1"	965	"	"A/G"	"65,7/34,3"	"23/12"	35
controllo_3	"POPTR_0001s36700.1"	660	"	"C/T"	"54,1/45,9"	"72/61"	133	stress_12bis	"POPTR_0001s36700.1"	660	"	"C/T"	"56,1/43,9"	"23/18"	41
controllo_3	"POPTR_0001s36700.1"	660	"	"C/T"	"54,1/45,9"	"72/61"	133	stress_42	"POPTR_0001s36700.1"	660	"	"C/T"	"59,4/40,6"	"19/13"	32
controllo_3	"POPTR_0001s36700.1"	660	"	"C/T"	"54,1/45,9"	"72/61"	133	stress_45	"POPTR_0001s36700.1"	660	"	"C/T"	"55,0/45,0"	"33/27"	60
controllo_3	"POPTR_0010s17400.1"	447	"	"G/A"	"54,1/45,9"	"72/61"	133	stress_12bis	"POPTR_0010s17400.1"	447	"	"G/A"	"71,4/28,6"	"30/12"	42
controllo_3	"POPTR_0010s17400.1"	447	"	"G/A"	"54,1/45,9"	"72/61"	133	stress_42	"POPTR_0010s17400.1"	447	"	"G/A"	"60,0/40,0"	"9/6"	15
controllo_3	"POPTR_0010s17400.1"	447	"	"G/A"	"54,1/45,9"	"72/61"	133	stress_45	"POPTR_0010s17400.1"	447	"	"G/A"	"64,7/35,3"	"11/6"	17
controllo_3	"POPTR_0002s01320.1"	292	"	"C/A"	"54,1/45,9"	"433/368"	801	stress_12bis	"POPTR_0002s01320.1"	292	"	"C/A"	"51,1/48,9"	"113/108"	221
controllo_3	"POPTR_0002s01320.1"	292	"	"C/A"	"54,1/45,9"	"433/368"	801	stress_42	"POPTR_0002s01320.1"	292	"	"C/A"	"53,2/46,8"	"41/36"	77
controllo_3	"POPTR_0002s01320.1"	292	"	"C/A"	"54,1/45,9"	"433/368"	801	stress_45	"POPTR_0002s01320.1"	292	"	"A/C"	"54,9/45,1"	"84/69"	153
controllo_3	"POPTR_0008s10020.1"	1161	"	"T/A"	"54,1/45,9"	"146/124"	270	stress_12bis	"POPTR_0008s10020.1"	1161	"	"A/T"	"52,4/47,6"	"33/30"	63
controllo_3	"POPTR_0008s10020.1"	1161	"	"T/A"	"54,1/45,9"	"146/124"	270	stress_42	"POPTR_0008s10020.1"	1161	"	"A/T"	"61,1/38,9"	"33/21"	54
controllo_3	"POPTR_0008s10020.1"	1161	"	"T/A"	"54,1/45,9"	"146/124"	270	stress_45	"POPTR_0008s10020.1"	1161	"	"A/T"	"62,3/37,7"	"33/20"	53
controllo_3	"POPTR_0008s17390.1"	1094	"	"A/G"	"54,1/45,9"	"60/51"	111	stress_12bis	"POPTR_0008s17390.1"	1094	"	"A/G"	"62,5/37,5"	"15/9"	24
controllo_3	"POPTR_0008s17390.1"	1094	"	"A/G"	"54,1/45,9"	"60/51"	111	stress_45	"POPTR_0008s17390.1"	1094	"	"A/G"	"78,6/21,4"	"11/3"	14
controllo_3	"POPTR_0008s17090.1"	221	"	"T/C"	"54,1/45,9"	"145/123"	268	stress_12bis	"POPTR_0008s17090.1"	221	"	"T/C"	"52,6/47,4"	"41/37"	78
controllo_3	"POPTR_0008s17090.1"	221	"	"T/C"	"54,1/45,9"	"145/123"	268	stress_42	"POPTR_0008s17090.1"	221	"	"T/C"	"64,9/35,1"	"24/13"	37
controllo_3	"POPTR_0008s17090.1"	221	"	"T/C"	"54,1/45,9"	"145/123"	268	stress_45	"POPTR_0008s17090.1"	221	"	"T/C"	"61,1/38,9"	"22/14"	36
controllo_3	"POPTR_0008s06720.1"	339	"	"A/G"	"54,1/45,9"	"928/787"	1716	stress_12bis	"POPTR_0008s06720.1"	339	"	"G/A"	"50,4/49,6"	"247/243"	490
controllo_3	"POPTR_0008s06720.1"	339	"	"A/G"	"54,1/45,9"	"928/787"	1716	stress_42	"POPTR_0008s06720.1"	339	"	"A/G"	"65,4/34,6"	"83/44"	127
controllo_3	"POPTR_0008s06720.1"	339	"	"A/G"	"54,1/45,9"	"928/787"	1716	stress_45	"POPTR_0008s06720.1"	339	"	"A/G"	"75,9/24,1"	"88/28"	116
controllo_3	"POPTR_0016s07220.1"	183	"	"T/C"	"54,1/45,9"	"157/133"	290	stress_12bis	"POPTR_0016s07220.1"	183	"	"T/C"	"54,9/45,1"	"28/23"	51
controllo_3	"POPTR_0016s07220.1"	183	"	"T/C"	"54,1/45,9"	"157/133"	290	stress_42	"POPTR_0016s07220.1"	183	"	"C/T"	"60,0/40,0"	"15/10"	25
controllo_3	"POPTR_0016s07220.1"	183	"	"T/C"	"54,1/45,9"	"157/133"	290	stress_45	"POPTR_0016s07220.1"	183	"	"T/C"	"55,2/44,8"	"16/13"	29
controllo_3	"POPTR_0016s05530.1"	318	"	"T/C"	"54,1/45,9"	"80/68"	148	stress_12bis	"POPTR_0016s05530.1"	318	"	"C/T"	"62,5/37,5"	"30/18"	48
controllo_3	"POPTR_0016s05530.1"	318	"	"T/C"	"54,1/45,9"	"80/68"	148	stress_42	"POPTR_0016s05530.1"	318	"	"C/T"	"54,9/45,1"	"45/37"	82
controllo_3	"POPTR_0016s05530.1"	318	"	"T/C"	"54,1/45,9"	"80/68"	148	stress_45	"POPTR_0016s05530.1"	318	"	"C/T"	"54,9/45,1"	"89/73"	162
controllo_3	"POPTR_0006s03660.1"	1691	"	"T/A"	"54,2/45,1"	"83/69"	153	stress_12bis	"POPTR_0006s03660.1"	1691	"	"T/A"	"58,3/41,7"	"14/10"	24
controllo_3	"POPTR_0006s03660.1"	1691	"	"T/A"	"54,2/45,1"	"83/69"	153	stress_45	"POPTR_0006s03660.1"	1691	"	"T/A"	"62,1/37,9"	"18/11"	29
controllo_3	"POPTR_0006s28350.1"	927	"	"G/A"	"54,2/45,2"	"90/75"	166	stress_42	"POPTR_0006s28350.1"	927	"	"G/A"	"69,2/30,8"	"9/4"	13
controllo_3	"POPTR_0006s28350.1"	927	"	"G/A"	"54,2/45,2"	"90/75"	166	stress_45	"POPTR_0006s28350.1"	927	"	"G/A"	"84,0/16,0"	"21/4"	25
controllo_3	"POPTR_0012s07040.1"	456	"	"G/A"	"54,2/45,2"	"181/151"	334	stress_12bis	"POPTR_0012s07040.1"	456	"	"G/A"	"51,0/48,0"	"50/47"	98
controllo_3	"POPTR_0012s07040.1"	456	"	"G/A"	"54,2/45,2"	"181/151"	334	stress_42	"POPTR_0012s07040.1"	456	"	"G/A"	"56,0/44,0"	"14/11"	25
controllo_3	"POPTR_0012s07040.1"	456	"	"G/A"	"54,2/45,2"	"181/151"	334	stress_45	"POPTR_0012s07040.1"	456	"	"G/A"	"55,9/44,1"	"19/15"	34
controllo_3	"POPTR_0006s10130.1"	531	"	"T/A"	"54,2/45,7"	"623/525"	1149	stress_12bis	"POPTR_0006s10130.1"	531	"	"T/A"	"61,3/38,0"	"92/57"	150
controllo_3	"POPTR_0006s10130.1"	531	"	"T/A"	"54,2/45,7"	"623/525"	1149	stress_42	"POPTR_0006s10130.1"	531	"	"T/A"	"60,5/39,5"	"49/32"	81
controllo_3	"POPTR_0006s10130.1"	531	"	"T/A"	"54,2/45,7"	"623/525"	1149	stress_45	"POPTR_0006s10130.1"	531	"	"T/A"	"55,5/44,5"	"106/85"	191
controllo_3	"POPTR_0008s06720.1"	315	"	"G/A"	"54,2/45,7"	"856/722"	1579	stress_12bis	"POPTR_0008s06720.1"	315	"	"G/A"	"52,1/47,9"	"236/217"	453
controllo_3	"POPTR_0008s06720.1"	315	"	"G/A"	"54,2/45,7"	"856/722"	1579	stress_42	"POPTR_0008s06720.1"	315	"	"G/A"	"73,8/26,2"	"79/28"	107
controllo_3	"POPTR_0008s06720.1"	315	"	"G/A"	"54,2/45,7"	"856/722"	1579	stress_45	"POPTR_0008s06720.1"	315	"	"G/A"	"70,5/29,5"	"86/36"	122
controllo_3	"POPTR_0005s23110.1"	155	"	"T/C"	"54,2/45,8"	"84/71"	155	stress_12bis	"POPTR_0005s23110.1"	155	"	"C/T"	"67,9/32,1"	"36/17"	53
controllo_3	"POPTR_0005s22200.1"	681	"	"T/C"	"54,2/45,8"	"71/60"	131	stress_12bis	"POPTR_0005s22200.1"	681	"	"T/C"	"54,5/45,5"	"18/15"	33
controllo_3	"POPTR_0005s22200.1"	681	"	"T/C"	"54,2/45,8"	"71/60"	131	stress_42	"POPTR_0005s22200.1"	681	"	"T/C"	"52,9/47,1"	"9/8"	17
controllo_3	"POPTR_0005s22200.1"	681	"	"T/C"	"54,2/45,8"	"71/60"	131	stress_45	"POPTR_0005s22200.1"	681	"	"T/C"	"51,9/48,1"	"14/13"	27
controllo_3	"POPTR_0005s26610.1"	1236	"	"C/T"	"54,2/45,8"	"39/33"	72	stress_42	"POPTR_0005s26610.1"	1236	"	"T/C"	"50,8/49,2"	"64/62"	126
controllo_3	"POPTR_0017s12590.1"	591	"	"G/A"	"54,2/45,8"	"77/65"	142	stress_12bis	"POPTR_0017s12590.1"	591	"	"A/G"	"51,2/48,8"	"22/21"	43
controllo_3	"POPTR_0006s13980.1"	189	"	"T/A"	"54,2/45,8"	"161/136"	297	stress_12bis	"POPTR_0006s13980.1"	189	"	"T/A"	"51,7/46,6"	"30/27"	58
controllo_3	"POPTR_0006s13980.1"	189	"	"T/A"	"54,2/45,8"	"161/136"	297	stress_42	"POPTR_0006s13980.1"	189	"	"A/T"	"69,2/30,8"	"9/4"	13
controllo_3	"POPTR_0006s13980.1"	189	"	"T/A"	"54,2/45,8"	"161/136"	297	stress_45	"POPTR_0006s13980.1"	189	"	"A/T"	"75,0/25,0"	"9/3"	12
controllo_3	"POPTR_0006s12910.1"	379	"	"G/A"	"54,2/45,8"	"200/169"	369	stress_12bis	"POPTR_0006s12910.1"	379	"	"G/A"	"51,2/47,7"	"44/41"	86
controllo_3	"POPTR_0006s12910.1"	379	"	"G/A"	"54,2/45,8"	"200/169"	369	stress_42	"POPTR_0006s12910.1"	379	"	"G/A"	"62,9/37,1"	"44/26"	70
controllo_3	"POPTR_0006s12910.1"	379	"	"G/A"	"54,2/45,8"	"200/169"	369	stress_45	"POPTR_0006s12910.1"	379	"	"G/A"	"59,9/40,1"	"82/55"	137
controllo_3	"POPTR_0006s02810.1"	1041	"	"G/A"	"54,2/45,8"	"148/125"	273	stress_12bis	"POPTR_0006s02810.1"	1041	"	"G/A"	"58,6/41,4"	"34/24"	58
controllo_3	"POPTR_0006s02810.1"	1041	"	"G/A"	"54,2/45,8"	"148/125"	273	stress_42	"POPTR_0006s02810.1"	1041	"	"G/A"	"61,9/38,1"	"13/8"	21
controllo_3	"POPTR_0006s02810.1"	1041	"	"G/A"	"54,2/45,8"	"148/125"	273	stress_45	"POPTR_0006s02810.1"	1041	"	"G/A"	"69,2/30,8"	"18/8"	26
controllo_3	"POPTR_0019s05950.1"	100	"	"T/G"	"54,2/45,8"	"276/233"	509	stress_12bis	"POPTR_0019s05950.1"	100	"	"G/T"	"51,9/48,1"	"98/91"	189
controllo_3	"POPTR_0019s05950.1"	100	"	"T/G"	"54,2/45,8"	"276/233"	509	stress_42	"POPTR_0019s05950.1"	100	"	"T/G"	"52,9/47,1"	"18/16"	34
controllo_3	"POPTR_0019s05950.1"	100	"	"T/G"	"54,2/45,8"	"276/233"	509	stress_45	"POPTR_0019s05950.1"	100	"	"G/T"	"63,0/37,0"	"17/10"	27
controllo_3	"POPTR_0013s00930.1"	280	"	"T/C"	"54,2/45,8"	"64/54"	118	stress_12bis	"POPTR_0013s00930.1"	280	"	"C/T"	"55,6/44,4"	"10/8"	18
controllo_3	"POPTR_0013s00930.1"	280	"	"T/C"	"54,2/45,8"	"64/54"	118	stress_42	"POPTR_0013s00930.1"	280	"	"T/C"	"70,0/30,0"	"7/3"	10
controllo_3	"POPTR_0013s07050.1"	151	"	"G/A"	"54,2/45,8"	"77/65"	142	stress_12bis	"POPTR_0013s07050.1"	151	"	"G/A"	"58,3/41,7"	"28/20"	48
controllo_3	"POPTR_0013s07050.1"	151	"	"G/A"	"54,2/45,8"	"77/65"	142	stress_42	"POPTR_0013s07050.1"	151	"	"G/A"	"56,7/43,3"	"17/13"	30
controllo_3	"POPTR_0013s07050.1"	151	"	"G/A"	"54,2/45,8"	"77/65"	142	stress_45	"POPTR_0013s07050.1"	151	"	"G/A"	"66,7/33,3"	"36/18"	54
controllo_3	"POPTR_0013s07150.1"	2778	"	"A/G"	"54,2/45,8"	"130/110"	240	stress_12bis	"POPTR_0013s07150.1"	2778	"	"G/A"	"56,4/43,6"	"31/24"	55
controllo_3	"POPTR_0013s07150.1"	2778	"	"A/G"	"54,2/45,8"	"130/110"	240	stress_42	"POPTR_0013s07150.1"	2778	"	"G/A"	"56,2/43,8"	"18/14"	32
controllo_3	"POPTR_0013s07150.1"	2778	"	"A/G"	"54,2/45,8"	"130/110"	240	stress_45	"POPTR_0013s07150.1"	2778	"	"A/G"	"50,0/50,0"	"20/20"	40
controllo_3	"POPTR_0013s04210.1"	1303	"	"A/C"	"54,2/45,8"	"109/92"	201	stress_12bis	"POPTR_0013s04210.1"	1303	"	"A/C"	"51,0/49,0"	"25/24"	49
controllo_3	"POPTR_0013s04210.1"	1303	"	"A/C"	"54,2/45,8"	"109/92"	201	stress_42	"POPTR_0013s04210.1"	1303	"	"C/A"	"51,7/48,3"	"15/14"	29
controllo_3	"POPTR_0013s04210.1"	1303	"	"A/C"	"54,2/45,8"	"109/92"	201	stress_45	"POPTR_0013s04210.1"	1303	"	"A/C"	"51,0/49,0"	"25/24"	49
controllo_3	"POPTR_0013s01080.1"	870	"	"C/T"	"54,2/45,8"	"65/55"	120	stress_12bis	"POPTR_0013s01080.1"	870	"	"C/T"	"64,2/35,8"	"34/19"	53
controllo_3	"POPTR_0013s01080.1"	870	"	"C/T"	"54,2/45,8"	"65/55"	120	stress_42	"POPTR_0013s01080.1"	870	"	"C/T"	"53,3/46,7"	"8/7"	15
controllo_3	"POPTR_0013s01080.1"	870	"	"C/T"	"54,2/45,8"	"65/55"	120	stress_45	"POPTR_0013s01080.1"	870	"	"C/T"	"50,0/50,0"	"7/7"	14
controllo_3	"POPTR_0014s01970.1"	400	"	"G/T"	"54,2/45,8"	"45/38"	83	stress_42	"POPTR_0014s01970.1"	400	"	"G/T"	"51,8/48,2"	"59/55"	114
controllo_3	"POPTR_0014s01970.1"	400	"	"G/T"	"54,2/45,8"	"45/38"	83	stress_45	"POPTR_0014s01970.1"	400	"	"G/T"	"61,0/39,0"	"86/55"	141
controllo_3	"POPTR_0014s10260.1"	1605	"	"G/C"	"54,2/45,8"	"141/119"	260	stress_12bis	"POPTR_0014s10260.1"	1605	"	"G/C"	"54,4/45,6"	"37/31"	68
controllo_3	"POPTR_0014s10260.1"	1605	"	"G/C"	"54,2/45,8"	"141/119"	260	stress_42	"POPTR_0014s10260.1"	1605	"	"G/C"	"55,6/44,4"	"30/24"	54
controllo_3	"POPTR_0014s10260.1"	1605	"	"G/C"	"54,2/45,8"	"141/119"	260	stress_45	"POPTR_0014s10260.1"	1605	"	"G/C"	"63,3/36,7"	"38/22"	60
controllo_3	"POPTR_0004s01660.1"	276	"	"A/G"	"54,2/45,8"	"65/55"	120	stress_12bis	"POPTR_0004s01660.1"	276	"	"A/G"	"55,2/44,8"	"32/26"	58
controllo_3	"POPTR_0004s01660.1"	276	"	"A/G"	"54,2/45,8"	"65/55"	120	stress_42	"POPTR_0004s01660.1"	276	"	"G/A"	"63,6/36,4"	"7/4"	11
controllo_3	"POPTR_0004s01660.1"	276	"	"A/G"	"54,2/45,8"	"65/55"	120	stress_45	"POPTR_0004s01660.1"	276	"	"A/G"	"68,8/31,2"	"11/5"	16
controllo_3	"POPTR_0004s03160.1"	91	"	"T/A"	"54,2/45,8"	"249/210"	459	stress_12bis	"POPTR_0004s03160.1"	91	"	"A/T"	"59,5/40,5"	"44/30"	74
controllo_3	"POPTR_0004s03160.1"	91	"	"T/A"	"54,2/45,8"	"249/210"	459	stress_42	"POPTR_0004s03160.1"	91	"	"A/T"	"61,5/38,5"	"8/5"	13
controllo_3	"POPTR_0004s03160.1"	91	"	"T/A"	"54,2/45,8"	"249/210"	459	stress_45	"POPTR_0004s03160.1"	91	"	"A/T"	"80,0/20,0"	"12/3"	15
controllo_3	"POPTR_0004s00480.1"	780	"	"T/C"	"54,2/45,8"	"129/109"	238	stress_12bis	"POPTR_0004s00480.1"	780	"	"C/T"	"55,0/45,0"	"71/58"	129
controllo_3	"POPTR_0004s00480.1"	780	"	"T/C"	"54,2/45,8"	"129/109"	238	stress_42	"POPTR_0004s00480.1"	780	"	"T/C"	"55,3/44,7"	"42/34"	76
controllo_3	"POPTR_0004s00480.1"	780	"	"T/C"	"54,2/45,8"	"129/109"	238	stress_45	"POPTR_0004s00480.1"	780	"	"T/C"	"54,7/45,3"	"52/43"	95
controllo_3	"POPTR_0001s41080.1"	65	"	"A/T"	"54,2/45,8"	"3658/3093"	6751	stress_12bis	"POPTR_0001s41080.1"	65	"	"A/T"	"53,2/46,8"	"1225/1079"	2304
controllo_3	"POPTR_0001s41080.1"	65	"	"A/T"	"54,2/45,8"	"3658/3093"	6751	stress_42	"POPTR_0001s41080.1"	65	"	"A/T"	"65,6/34,4"	"1650/864"	2515
controllo_3	"POPTR_0001s41080.1"	65	"	"A/T"	"54,2/45,8"	"3658/3093"	6751	stress_45	"POPTR_0001s41080.1"	65	"	"A/T"	"66,6/33,4"	"1423/714"	2138
controllo_3	"POPTR_0001s34410.1"	283	"	"A/C"	"54,2/45,8"	"116/98"	214	stress_12bis	"POPTR_0001s34410.1"	283	"	"A/C"	"51,0/49,0"	"25/24"	49
controllo_3	"POPTR_0001s34410.1"	283	"	"A/C"	"54,2/45,8"	"116/98"	214	stress_42	"POPTR_0001s34410.1"	283	"	"A/C"	"61,8/38,2"	"21/13"	34
controllo_3	"POPTR_0001s34410.1"	283	"	"A/C"	"54,2/45,8"	"116/98"	214	stress_45	"POPTR_0001s34410.1"	283	"	"A/C"	"72,1/27,9"	"31/12"	43
controllo_3	"POPTR_0001s13800.1"	94	"	"C/T"	"54,2/45,8"	"367/310"	677	stress_12bis	"POPTR_0001s13800.1"	94	"	"T/C"	"51,9/48,1"	"111/103"	214
controllo_3	"POPTR_0001s13800.1"	94	"	"C/T"	"54,2/45,8"	"367/310"	677	stress_42	"POPTR_0001s13800.1"	94	"	"C/T"	"59,5/40,5"	"22/15"	37
controllo_3	"POPTR_0001s13800.1"	94	"	"C/T"	"54,2/45,8"	"367/310"	677	stress_45	"POPTR_0001s13800.1"	94	"	"C/T"	"58,7/41,3"	"44/31"	75
controllo_3	"POPTR_0001s18210.1"	165	"	"T/A"	"54,2/45,8"	"149/126"	275	stress_12bis	"POPTR_0001s18210.1"	165	"	"T/A"	"52,2/47,8"	"36/33"	69
controllo_3	"POPTR_0001s18210.1"	165	"	"T/A"	"54,2/45,8"	"149/126"	275	stress_42	"POPTR_0001s18210.1"	165	"	"T/A"	"61,0/39,0"	"64/41"	105
controllo_3	"POPTR_0001s18210.1"	165	"	"T/A"	"54,2/45,8"	"149/126"	275	stress_45	"POPTR_0001s18210.1"	165	"	"T/A"	"61,5/38,5"	"72/45"	117
controllo_3	"POPTR_0001s36700.1"	678	"	"G/A"	"54,2/45,8"	"77/65"	142	stress_12bis	"POPTR_0001s36700.1"	678	"	"G/A"	"75,0/25,0"	"30/10"	40
controllo_3	"POPTR_0001s36700.1"	678	"	"G/A"	"54,2/45,8"	"77/65"	142	stress_42	"POPTR_0001s36700.1"	678	"	"G/A"	"58,8/41,2"	"20/14"	34
controllo_3	"POPTR_0001s36700.1"	678	"	"G/A"	"54,2/45,8"	"77/65"	142	stress_45	"POPTR_0001s36700.1"	678	"	"G/A"	"55,2/44,8"	"37/30"	67
controllo_3	"POPTR_0010s07340.1"	1536	"	"C/T"	"54,2/45,8"	"65/55"	120	stress_12bis	"POPTR_0010s07340.1"	1536	"	"T/C"	"55,8/44,2"	"24/19"	43
controllo_3	"POPTR_0010s07340.1"	1536	"	"C/T"	"54,2/45,8"	"65/55"	120	stress_42	"POPTR_0010s07340.1"	1536	"	"T/C"	"57,3/42,7"	"63/47"	110
controllo_3	"POPTR_0010s07340.1"	1536	"	"C/T"	"54,2/45,8"	"65/55"	120	stress_45	"POPTR_0010s07340.1"	1536	"	"C/T"	"51,8/48,2"	"44/41"	85
controllo_3	"POPTR_0002s02310.1"	31	"	"G/A"	"54,2/45,8"	"84/71"	155	stress_12bis	"POPTR_0002s02310.1"	31	"	"A/G"	"53,1/46,9"	"26/23"	49
controllo_3	"POPTR_0002s02310.1"	31	"	"G/A"	"54,2/45,8"	"84/71"	155	stress_42	"POPTR_0002s02310.1"	31	"	"A/G"	"63,3/36,7"	"31/18"	49
controllo_3	"POPTR_0002s02310.1"	31	"	"G/A"	"54,2/45,8"	"84/71"	155	stress_45	"POPTR_0002s02310.1"	31	"	"A/G"	"58,5/41,5"	"31/22"	53
controllo_3	"POPTR_0002s08410.1"	327	"	"C/T"	"54,2/45,8"	"1570/1327"	2898	stress_12bis	"POPTR_0002s08410.1"	327	"	"C/T"	"55,6/44,4"	"433/346"	779
controllo_3	"POPTR_0002s08410.1"	327	"	"C/T"	"54,2/45,8"	"1570/1327"	2898	stress_42	"POPTR_0002s08410.1"	327	"	"C/T"	"59,8/40,2"	"134/90"	224
controllo_3	"POPTR_0002s08410.1"	327	"	"C/T"	"54,2/45,8"	"1570/1327"	2898	stress_45	"POPTR_0002s08410.1"	327	"	"T/C"	"50,8/49,2"	"167/162"	329
controllo_3	"POPTR_0002s01080.1"	357	"	"G/A"	"54,2/45,8"	"564/477"	1041	stress_12bis	"POPTR_0002s01080.1"	357	"	"G/A"	"56,0/44,0"	"319/251"	570
controllo_3	"POPTR_0002s01080.1"	357	"	"G/A"	"54,2/45,8"	"564/477"	1041	stress_42	"POPTR_0002s01080.1"	357	"	"A/G"	"50,9/49,1"	"88/85"	173
controllo_3	"POPTR_0002s01080.1"	357	"	"G/A"	"54,2/45,8"	"564/477"	1041	stress_45	"POPTR_0002s01080.1"	357	"	"A/G"	"51,3/48,7"	"157/149"	306
controllo_3	"POPTR_0008s19960.1"	1380	"	"G/T"	"54,2/45,8"	"90/76"	166	stress_12bis	"POPTR_0008s19960.1"	1380	"	"G/T"	"67,6/32,4"	"23/11"	34
controllo_3	"POPTR_0016s06670.1"	924	"	"C/T"	"54,2/45,8"	"58/49"	107	stress_12bis	"POPTR_0016s06670.1"	924	"	"C/T"	"58,5/41,5"	"24/17"	41
controllo_3	"POPTR_0016s06670.1"	924	"	"C/T"	"54,2/45,8"	"58/49"	107	stress_42	"POPTR_0016s06670.1"	924	"	"C/T"	"50,0/50,0"	"9/9"	18
controllo_3	"POPTR_0016s06670.1"	924	"	"C/T"	"54,2/45,8"	"58/49"	107	stress_45	"POPTR_0016s06670.1"	924	"	"T/C"	"61,5/38,5"	"16/10"	26
controllo_3	"POPTR_0002s18510.1"	947	"	"T/A"	"54,3/45,0"	"82/68"	151	stress_12bis	"POPTR_0002s18510.1"	947	"	"A/T"	"59,2/40,8"	"29/20"	49
controllo_3	"POPTR_0002s18510.1"	947	"	"T/A"	"54,3/45,0"	"82/68"	151	stress_42	"POPTR_0002s18510.1"	947	"	"A/T"	"58,6/41,4"	"34/24"	58
controllo_3	"POPTR_0002s18510.1"	947	"	"T/A"	"54,3/45,0"	"82/68"	151	stress_45	"POPTR_0002s18510.1"	947	"	"A/T"	"53,4/46,6"	"31/27"	58
controllo_3	"POPTR_0001s42970.1"	198	"	"T/A"	"54,3/45,3"	"1167/973"	2148	stress_12bis	"POPTR_0001s42970.1"	198	"	"T/A"	"59,2/40,4"	"459/313"	775
controllo_3	"POPTR_0001s42970.1"	198	"	"T/A"	"54,3/45,3"	"1167/973"	2148	stress_42	"POPTR_0001s42970.1"	198	"	"T/A"	"57,2/42,8"	"83/62"	145
controllo_3	"POPTR_0001s42970.1"	198	"	"T/A"	"54,3/45,3"	"1167/973"	2148	stress_45	"POPTR_0001s42970.1"	198	"	"A/T"	"52,3/46,5"	"45/40"	86
controllo_3	"POPTR_0011s08940.1"	129	"	"G/A"	"54,3/45,5"	"432/362"	795	stress_12bis	"POPTR_0011s08940.1"	129	"	"G/A"	"52,2/47,2"	"94/85"	180
controllo_3	"POPTR_0011s08940.1"	129	"	"G/A"	"54,3/45,5"	"432/362"	795	stress_42	"POPTR_0011s08940.1"	129	"	"A/G"	"54,8/45,2"	"17/14"	31
controllo_3	"POPTR_0011s08940.1"	129	"	"G/A"	"54,3/45,5"	"432/362"	795	stress_45	"POPTR_0011s08940.1"	129	"	"A/G"	"54,7/45,3"	"35/29"	64
controllo_3	"POPTR_0001s08770.1"	204	"	"T/C"	"54,3/45,5"	"247/207"	455	stress_12bis	"POPTR_0001s08770.1"	204	"	"T/C"	"55,3/44,7"	"99/80"	179
controllo_3	"POPTR_0001s08770.1"	204	"	"T/C"	"54,3/45,5"	"247/207"	455	stress_42	"POPTR_0001s08770.1"	204	"	"T/C"	"60,9/39,1"	"14/9"	23
controllo_3	"POPTR_0001s08770.1"	204	"	"T/C"	"54,3/45,5"	"247/207"	455	stress_45	"POPTR_0001s08770.1"	204	"	"T/C"	"54,0/46,0"	"27/23"	50
controllo_3	"POPTR_0001s40480.1"	891	"	"A/G"	"54,3/45,6"	"777/652"	1430	stress_12bis	"POPTR_0001s40480.1"	891	"	"A/G"	"58,0/42,0"	"261/189"	450
controllo_3	"POPTR_0001s40480.1"	891	"	"A/G"	"54,3/45,6"	"777/652"	1430	stress_42	"POPTR_0001s40480.1"	891	"	"A/G"	"77,6/22,4"	"45/13"	58
controllo_3	"POPTR_0001s40480.1"	891	"	"A/G"	"54,3/45,6"	"777/652"	1430	stress_45	"POPTR_0001s40480.1"	891	"	"A/G"	"80,0/20,0"	"52/13"	65
controllo_3	"POPTR_0005s06460.1"	224	"	"G/A"	"54,3/45,7"	"70/59"	129	stress_12bis	"POPTR_0005s06460.1"	224	"	"A/G"	"50,0/50,0"	"18/18"	36
controllo_3	"POPTR_0005s06460.1"	224	"	"G/A"	"54,3/45,7"	"70/59"	129	stress_42	"POPTR_0005s06460.1"	224	"	"G/A"	"80,0/20,0"	"20/5"	25
controllo_3	"POPTR_0005s06460.1"	224	"	"G/A"	"54,3/45,7"	"70/59"	129	stress_45	"POPTR_0005s06460.1"	224	"	"G/A"	"68,0/32,0"	"17/8"	25
controllo_3	"POPTR_0005s22780.1"	251	"	"G/A"	"54,3/45,7"	"125/105"	230	stress_12bis	"POPTR_0005s22780.1"	251	"	"A/G"	"50,7/49,3"	"68/66"	134
controllo_3	"POPTR_0005s22780.1"	251	"	"G/A"	"54,3/45,7"	"125/105"	230	stress_42	"POPTR_0005s22780.1"	251	"	"A/G"	"51,9/48,1"	"27/25"	52
controllo_3	"POPTR_0005s22780.1"	251	"	"G/A"	"54,3/45,7"	"125/105"	230	stress_45	"POPTR_0005s22780.1"	251	"	"A/G"	"63,5/36,5"	"33/19"	52
controllo_3	"POPTR_0005s26700.1"	159	"	"T/G"	"54,3/45,7"	"127/107"	234	stress_12bis	"POPTR_0005s26700.1"	159	"	"T/G"	"57,4/42,6"	"62/46"	108
controllo_3	"POPTR_0005s26700.1"	159	"	"T/G"	"54,3/45,7"	"127/107"	234	stress_42	"POPTR_0005s26700.1"	159	"	"T/G"	"68,4/31,6"	"13/6"	19
controllo_3	"POPTR_0005s26700.1"	159	"	"T/G"	"54,3/45,7"	"127/107"	234	stress_45	"POPTR_0005s26700.1"	159	"	"G/T"	"51,4/48,6"	"18/17"	35
controllo_3	"POPTR_0006s08980.1"	153	"	"A/C"	"54,3/45,7"	"184/155"	339	stress_12bis	"POPTR_0006s08980.1"	153	"	"A/C"	"54,8/45,2"	"34/28"	62
controllo_3	"POPTR_0006s08980.1"	153	"	"A/C"	"54,3/45,7"	"184/155"	339	stress_42	"POPTR_0006s08980.1"	153	"	"A/C"	"62,1/37,9"	"36/22"	58
controllo_3	"POPTR_0006s08980.1"	153	"	"A/C"	"54,3/45,7"	"184/155"	339	stress_45	"POPTR_0006s08980.1"	153	"	"A/C"	"66,0/34,0"	"70/36"	106
controllo_3	"POPTR_0006s11570.1"	690	"	"C/G"	"54,3/45,7"	"139/117"	256	stress_12bis	"POPTR_0006s11570.1"	690	"	"C/G"	"55,4/44,6"	"36/29"	65
controllo_3	"POPTR_0006s11570.1"	690	"	"C/G"	"54,3/45,7"	"139/117"	256	stress_42	"POPTR_0006s11570.1"	690	"	"G/C"	"53,2/46,8"	"42/37"	79
controllo_3	"POPTR_0006s11570.1"	690	"	"C/G"	"54,3/45,7"	"139/117"	256	stress_45	"POPTR_0006s11570.1"	690	"	"G/C"	"55,4/44,6"	"56/45"	101
controllo_3	"POPTR_0006s00620.1"	1705	"	"A/G"	"54,3/45,7"	"76/64"	140	stress_12bis	"POPTR_0006s00620.1"	1705	"	"G/A"	"70,4/29,6"	"19/8"	27
controllo_3	"POPTR_0003s11300.1"	324	"	"A/G"	"54,3/45,7"	"113/95"	208	stress_12bis	"POPTR_0003s11300.1"	324	"	"A/G"	"60,0/40,0"	"63/42"	105
controllo_3	"POPTR_0003s11300.1"	324	"	"A/G"	"54,3/45,7"	"113/95"	208	stress_45	"POPTR_0003s11300.1"	324	"	"G/A"	"52,6/47,4"	"10/9"	19
controllo_3	"POPTR_0013s12130.1"	76	"	"T/C"	"54,3/45,7"	"114/96"	210	stress_12bis	"POPTR_0013s12130.1"	76	"	"C/T"	"52,3/47,7"	"34/31"	65
controllo_3	"POPTR_0013s12130.1"	76	"	"T/C"	"54,3/45,7"	"114/96"	210	stress_42	"POPTR_0013s12130.1"	76	"	"T/C"	"73,3/26,7"	"11/4"	15
controllo_3	"POPTR_0013s12130.1"	76	"	"T/C"	"54,3/45,7"	"114/96"	210	stress_45	"POPTR_0013s12130.1"	76	"	"C/T"	"50,0/50,0"	"13/13"	26
controllo_3	"POPTR_0013s13190.1"	369	"	"T/C"	"54,3/45,7"	"182/153"	335	stress_12bis	"POPTR_0013s13190.1"	369	"	"C/T"	"54,7/45,3"	"88/73"	161
controllo_3	"POPTR_0013s13190.1"	369	"	"T/C"	"54,3/45,7"	"182/153"	335	stress_42	"POPTR_0013s13190.1"	369	"	"C/T"	"56,9/41,2"	"29/21"	51
controllo_3	"POPTR_0013s13190.1"	369	"	"T/C"	"54,3/45,7"	"182/153"	335	stress_45	"POPTR_0013s13190.1"	369	"	"T/C"	"52,9/47,1"	"18/16"	34
controllo_3	"POPTR_0014s09180.1"	511	"	"A/G"	"54,3/45,7"	"125/105"	230	stress_12bis	"POPTR_0014s09180.1"	511	"	"A/G"	"54,4/45,6"	"37/31"	68
controllo_3	"POPTR_0014s09180.1"	511	"	"A/G"	"54,3/45,7"	"125/105"	230	stress_45	"POPTR_0014s09180.1"	511	"	"A/G"	"76,9/23,1"	"10/3"	13
controllo_3	"POPTR_0014s00250.1"	53	"	"C/T"	"54,3/45,7"	"63/53"	116	stress_12bis	"POPTR_0014s00250.1"	53	"	"C/T"	"61,1/38,9"	"11/7"	18
controllo_3	"POPTR_0014s15860.1"	1845	"	"G/T"	"54,3/45,7"	"63/53"	116	stress_12bis	"POPTR_0014s15860.1"	1845	"	"T/G"	"52,8/47,2"	"19/17"	36
controllo_3	"POPTR_0014s15860.1"	1845	"	"G/T"	"54,3/45,7"	"63/53"	116	stress_42	"POPTR_0014s15860.1"	1845	"	"G/T"	"61,5/38,5"	"8/5"	13
controllo_3	"POPTR_0014s15860.1"	1845	"	"G/T"	"54,3/45,7"	"63/53"	116	stress_45	"POPTR_0014s15860.1"	1845	"	"G/T"	"60,0/40,0"	"12/8"	20
controllo_3	"POPTR_0014s13430.1"	636	"	"A/T"	"54,3/45,7"	"70/59"	129	stress_12bis	"POPTR_0014s13430.1"	636	"	"A/T"	"63,4/36,6"	"26/15"	41
controllo_3	"POPTR_0014s13430.1"	636	"	"A/T"	"54,3/45,7"	"70/59"	129	stress_45	"POPTR_0014s13430.1"	636	"	"T/A"	"70,0/30,0"	"7/3"	10
controllo_3	"POPTR_0004s15440.1"	256	"	"G/A"	"54,3/45,7"	"197/166"	363	stress_12bis	"POPTR_0004s15440.1"	256	"	"A/G"	"58,1/41,9"	"36/26"	62
controllo_3	"POPTR_0004s15440.1"	256	"	"G/A"	"54,3/45,7"	"197/166"	363	stress_42	"POPTR_0004s15440.1"	256	"	"A/G"	"61,4/38,6"	"27/17"	44
controllo_3	"POPTR_0004s15440.1"	256	"	"G/A"	"54,3/45,7"	"197/166"	363	stress_45	"POPTR_0004s15440.1"	256	"	"A/G"	"52,6/47,4"	"10/9"	19
controllo_3	"POPTR_0004s01470.1"	300	"	"T/C"	"54,3/45,7"	"472/398"	870	stress_12bis	"POPTR_0004s01470.1"	300	"	"T/C"	"54,5/45,5"	"116/97"	213
controllo_3	"POPTR_0004s01470.1"	300	"	"T/C"	"54,3/45,7"	"472/398"	870	stress_42	"POPTR_0004s01470.1"	300	"	"T/C"	"68,9/31,1"	"51/23"	74
controllo_3	"POPTR_0004s01470.1"	300	"	"T/C"	"54,3/45,7"	"472/398"	870	stress_45	"POPTR_0004s01470.1"	300	"	"T/C"	"55,1/44,9"	"49/40"	89
controllo_3	"POPTR_0004s01470.1"	1086	"	"A/G"	"54,3/45,7"	"543/457"	1000	stress_12bis	"POPTR_0004s01470.1"	1086	"	"A/G"	"59,0/41,0"	"157/109"	266
controllo_3	"POPTR_0004s01470.1"	1086	"	"A/G"	"54,3/45,7"	"543/457"	1000	stress_42	"POPTR_0004s01470.1"	1086	"	"A/G"	"55,8/44,2"	"72/57"	129
controllo_3	"POPTR_0004s01470.1"	1086	"	"A/G"	"54,3/45,7"	"543/457"	1000	stress_45	"POPTR_0004s01470.1"	1086	"	"A/G"	"66,1/33,9"	"80/41"	121
controllo_3	"POPTR_0009s06530.1"	1444	"	"G/A"	"54,3/45,7"	"70/59"	129	stress_12bis	"POPTR_0009s06530.1"	1444	"	"G/A"	"63,0/37,0"	"34/20"	54
controllo_3	"POPTR_0009s06530.1"	1444	"	"G/A"	"54,3/45,7"	"70/59"	129	stress_42	"POPTR_0009s06530.1"	1444	"	"A/G"	"70,0/30,0"	"14/6"	20
controllo_3	"POPTR_0009s06530.1"	1444	"	"G/A"	"54,3/45,7"	"70/59"	129	stress_45	"POPTR_0009s06530.1"	1444	"	"A/G"	"52,9/47,1"	"9/8"	17
controllo_3	"POPTR_0009s07020.1"	554	"	"G/C"	"54,3/45,7"	"57/48"	105	stress_12bis	"POPTR_0009s07020.1"	554	"	"G/C"	"58,3/38,9"	"21/14"	36
controllo_3	"POPTR_0009s07020.1"	554	"	"G/C"	"54,3/45,7"	"57/48"	105	stress_42	"POPTR_0009s07020.1"	554	"	"G/C"	"58,2/41,8"	"32/23"	55
controllo_3	"POPTR_0009s07020.1"	554	"	"G/C"	"54,3/45,7"	"57/48"	105	stress_45	"POPTR_0009s07020.1"	554	"	"C/G"	"55,1/44,9"	"54/44"	98
controllo_3	"POPTR_0015s07640.1"	672	"	"A/G"	"54,3/45,7"	"69/58"	127	stress_12bis	"POPTR_0015s07640.1"	672	"	"G/A"	"54,2/45,8"	"26/22"	48
controllo_3	"POPTR_0015s07640.1"	672	"	"A/G"	"54,3/45,7"	"69/58"	127	stress_42	"POPTR_0015s07640.1"	672	"	"G/A"	"57,1/42,9"	"40/30"	70
controllo_3	"POPTR_0015s07640.1"	672	"	"A/G"	"54,3/45,7"	"69/58"	127	stress_45	"POPTR_0015s07640.1"	672	"	"G/A"	"56,2/43,8"	"50/39"	89
controllo_3	"POPTR_0015s09810.1"	729	"	"T/C"	"54,3/45,7"	"63/53"	116	stress_12bis	"POPTR_0015s09810.1"	729	"	"T/C"	"61,3/38,7"	"19/12"	31
controllo_3	"POPTR_0015s09810.1"	729	"	"T/C"	"54,3/45,7"	"63/53"	116	stress_42	"POPTR_0015s09810.1"	729	"	"C/T"	"50,0/50,0"	"9/9"	18
controllo_3	"POPTR_0015s09810.1"	729	"	"T/C"	"54,3/45,7"	"63/53"	116	stress_45	"POPTR_0015s09810.1"	729	"	"T/C"	"61,5/38,5"	"16/10"	26
controllo_3	"POPTR_0001s47210.1"	102	"	"T/C"	"54,3/45,7"	"133/112"	245	stress_12bis	"POPTR_0001s47210.1"	102	"	"T/C"	"61,8/38,2"	"21/13"	34
controllo_3	"POPTR_0001s34410.1"	261	"	"T/C"	"54,3/45,7"	"119/100"	219	stress_12bis	"POPTR_0001s34410.1"	261	"	"C/T"	"53,3/46,7"	"24/21"	45
controllo_3	"POPTR_0001s34410.1"	261	"	"T/C"	"54,3/45,7"	"119/100"	219	stress_42	"POPTR_0001s34410.1"	261	"	"T/C"	"53,2/46,8"	"25/22"	47
controllo_3	"POPTR_0001s34410.1"	261	"	"T/C"	"54,3/45,7"	"119/100"	219	stress_45	"POPTR_0001s34410.1"	261	"	"T/C"	"73,6/26,4"	"39/14"	53
controllo_3	"POPTR_0010s20810.1"	173	"	"C/T"	"54,3/45,7"	"2933/2468"	5402	stress_12bis	"POPTR_0010s20810.1"	173	"	"C/T"	"52,6/47,4"	"977/881"	1858
controllo_3	"POPTR_0010s20810.1"	173	"	"C/T"	"54,3/45,7"	"2933/2468"	5402	stress_42	"POPTR_0010s20810.1"	173	"	"T/C"	"60,7/39,3"	"51/33"	84
controllo_3	"POPTR_0010s20810.1"	173	"	"C/T"	"54,3/45,7"	"2933/2468"	5402	stress_45	"POPTR_0010s20810.1"	173	"	"T/C"	"63,3/36,7"	"88/51"	139
controllo_3	"POPTR_0010s19380.1"	156	"	"T/A"	"54,3/45,7"	"89/75"	164	stress_12bis	"POPTR_0010s19380.1"	156	"	"T/A"	"54,3/45,7"	"19/16"	35
controllo_3	"POPTR_0010s19380.1"	156	"	"T/A"	"54,3/45,7"	"89/75"	164	stress_42	"POPTR_0010s19380.1"	156	"	"T/A"	"75,0/25,0"	"54/18"	72
controllo_3	"POPTR_0010s19380.1"	156	"	"T/A"	"54,3/45,7"	"89/75"	164	stress_45	"POPTR_0010s19380.1"	156	"	"T/A"	"60,2/39,8"	"53/35"	88
controllo_3	"POPTR_0010s03010.1"	720	"	"A/G"	"54,3/45,7"	"89/75"	164	stress_12bis	"POPTR_0010s03010.1"	720	"	"A/G"	"63,4/36,6"	"26/15"	41
controllo_3	"POPTR_0010s03010.1"	720	"	"A/G"	"54,3/45,7"	"89/75"	164	stress_45	"POPTR_0010s03010.1"	720	"	"A/G"	"50,0/50,0"	"9/9"	18
controllo_3	"POPTR_0010s19860.1"	738	"	"C/T"	"54,3/45,7"	"82/69"	151	stress_12bis	"POPTR_0010s19860.1"	738	"	"T/C"	"59,6/40,4"	"28/19"	47
controllo_3	"POPTR_0010s19860.1"	738	"	"C/T"	"54,3/45,7"	"82/69"	151	stress_42	"POPTR_0010s19860.1"	738	"	"C/T"	"55,6/44,4"	"60/48"	108
controllo_3	"POPTR_0010s19860.1"	738	"	"C/T"	"54,3/45,7"	"82/69"	151	stress_45	"POPTR_0010s19860.1"	738	"	"C/T"	"56,5/43,5"	"83/64"	147
controllo_3	"POPTR_0007s06620.1"	774	"	"T/C"	"54,3/45,7"	"108/91"	199	stress_12bis	"POPTR_0007s06620.1"	774	"	"C/T"	"51,3/48,7"	"20/19"	39
controllo_3	"POPTR_0007s06620.1"	774	"	"T/C"	"54,3/45,7"	"108/91"	199	stress_45	"POPTR_0007s06620.1"	774	"	"C/T"	"50,0/50,0"	"6/6"	12
controllo_3	"POPTR_0002s13330.1"	486	"	"T/C"	"54,3/45,7"	"75/63"	138	stress_12bis	"POPTR_0002s13330.1"	486	"	"C/T"	"53,3/46,7"	"24/21"	45
controllo_3	"POPTR_0002s13330.1"	486	"	"T/C"	"54,3/45,7"	"75/63"	138	stress_42	"POPTR_0002s13330.1"	486	"	"C/T"	"57,1/42,9"	"8/6"	14
controllo_3	"POPTR_0002s13330.1"	486	"	"T/C"	"54,3/45,7"	"75/63"	138	stress_45	"POPTR_0002s13330.1"	486	"	"C/T"	"66,7/33,3"	"8/4"	12
controllo_3	"POPTR_0002s05660.1"	615	"	"G/A"	"54,3/45,7"	"579/487"	1066	stress_12bis	"POPTR_0002s05660.1"	615	"	"G/A"	"53,3/46,7"	"188/165"	353
controllo_3	"POPTR_0002s05660.1"	615	"	"G/A"	"54,3/45,7"	"579/487"	1066	stress_42	"POPTR_0002s05660.1"	615	"	"G/A"	"54,2/45,8"	"64/54"	118
controllo_3	"POPTR_0002s05660.1"	615	"	"G/A"	"54,3/45,7"	"579/487"	1066	stress_45	"POPTR_0002s05660.1"	615	"	"G/A"	"57,3/42,7"	"82/61"	143
controllo_3	"POPTR_0008s05480.1"	1702	"	"C/T"	"54,3/45,7"	"483/406"	889	stress_12bis	"POPTR_0008s05480.1"	1702	"	"C/T"	"58,4/41,6"	"157/112"	269
controllo_3	"POPTR_0008s05480.1"	1702	"	"C/T"	"54,3/45,7"	"483/406"	889	stress_42	"POPTR_0008s05480.1"	1702	"	"C/T"	"57,5/42,5"	"130/96"	226
controllo_3	"POPTR_0008s05480.1"	1702	"	"C/T"	"54,3/45,7"	"483/406"	889	stress_45	"POPTR_0008s05480.1"	1702	"	"C/T"	"53,5/46,5"	"272/236"	508
controllo_3	"POPTR_0016s02440.1"	1299	"	"G/A"	"54,3/45,7"	"75/63"	138	stress_12bis	"POPTR_0016s02440.1"	1299	"	"G/A"	"66,7/33,3"	"16/8"	24
controllo_3	"POPTR_0016s02440.1"	1299	"	"G/A"	"54,3/45,7"	"75/63"	138	stress_42	"POPTR_0016s02440.1"	1299	"	"A/G"	"55,6/44,4"	"15/12"	27
controllo_3	"POPTR_0016s02440.1"	1299	"	"G/A"	"54,3/45,7"	"75/63"	138	stress_45	"POPTR_0016s02440.1"	1299	"	"A/G"	"59,2/40,8"	"29/20"	49
controllo_3	"POPTR_0013s00760.1"	1089	"	"A/T"	"54,4/43,7"	"294/236"	540	stress_12bis	"POPTR_0013s00760.1"	1089	"	"A/T"	"62,0/34,3"	"85/47"	137
controllo_3	"POPTR_0013s00760.1"	1089	"	"A/T"	"54,4/43,7"	"294/236"	540	stress_42	"POPTR_0013s00760.1"	1089	"	"A/T"	"65,0/26,7"	"39/16"	60
controllo_3	"POPTR_0013s00760.1"	1089	"	"A/T"	"54,4/43,7"	"294/236"	540	stress_45	"POPTR_0013s00760.1"	1089	"	"A/T"	"51,2/48,8"	"21/20"	41
controllo_3	"POPTR_0022s00530.1"	996	"	"C/T"	"54,4/44,8"	"130/107"	239	stress_12bis	"POPTR_0022s00530.1"	996	"	"T/C"	"69,6/30,4"	"39/17"	56
controllo_3	"POPTR_0022s00530.1"	996	"	"C/T"	"54,4/44,8"	"130/107"	239	stress_42	"POPTR_0022s00530.1"	996	"	"C/T"	"52,2/47,8"	"12/11"	23
controllo_3	"POPTR_0022s00530.1"	996	"	"C/T"	"54,4/44,8"	"130/107"	239	stress_45	"POPTR_0022s00530.1"	996	"	"C/T"	"56,1/43,9"	"37/29"	66
controllo_3	"POPTR_0005s26700.1"	573	"	"A/C"	"54,4/45,2"	"118/98"	217	stress_12bis	"POPTR_0005s26700.1"	573	"	"A/C"	"54,5/45,5"	"36/30"	66
controllo_3	"POPTR_0005s26700.1"	573	"	"A/C"	"54,4/45,2"	"118/98"	217	stress_42	"POPTR_0005s26700.1"	573	"	"A/C"	"81,0/19,0"	"17/4"	21
controllo_3	"POPTR_0005s26700.1"	573	"	"A/C"	"54,4/45,2"	"118/98"	217	stress_45	"POPTR_0005s26700.1"	573	"	"A/C"	"75,0/25,0"	"9/3"	12
controllo_3	"POPTR_0011s02770.1"	765	"	"C/A"	"54,4/45,3"	"203/169"	373	stress_12bis	"POPTR_0011s02770.1"	765	"	"A/C"	"82,9/17,1"	"58/12"	70
controllo_3	"POPTR_0011s02770.1"	765	"	"C/A"	"54,4/45,3"	"203/169"	373	stress_42	"POPTR_0011s02770.1"	765	"	"A/C"	"63,2/36,8"	"24/14"	38
controllo_3	"POPTR_0011s02770.1"	765	"	"C/A"	"54,4/45,3"	"203/169"	373	stress_45	"POPTR_0011s02770.1"	765	"	"A/C"	"82,8/17,2"	"48/10"	58
controllo_3	"POPTR_0016s07280.1"	132	"	"C/A"	"54,4/45,4"	"231/193"	425	stress_12bis	"POPTR_0016s07280.1"	132	"	"C/A"	"53,7/46,3"	"44/38"	82
controllo_3	"POPTR_0016s07280.1"	132	"	"C/A"	"54,4/45,4"	"231/193"	425	stress_42	"POPTR_0016s07280.1"	132	"	"C/A"	"64,3/35,7"	"18/10"	28
controllo_3	"POPTR_0016s07280.1"	132	"	"C/A"	"54,4/45,4"	"231/193"	425	stress_45	"POPTR_0016s07280.1"	132	"	"A/C"	"50,0/50,0"	"30/30"	60
controllo_3	"POPTR_0005s24130.1"	549	"	"A/G"	"54,4/45,6"	"56/47"	103	stress_12bis	"POPTR_0005s24130.1"	549	"	"A/G"	"70,0/30,0"	"14/6"	20
controllo_3	"POPTR_0005s24130.1"	549	"	"A/G"	"54,4/45,6"	"56/47"	103	stress_45	"POPTR_0005s24130.1"	549	"	"G/A"	"73,7/26,3"	"14/5"	19
controllo_3	"POPTR_0005s11500.1"	196	"	"G/C"	"54,4/45,6"	"506/424"	930	stress_12bis	"POPTR_0005s11500.1"	196	"	"G/C"	"50,2/49,8"	"139/138"	277
controllo_3	"POPTR_0005s11500.1"	196	"	"G/C"	"54,4/45,6"	"506/424"	930	stress_42	"POPTR_0005s11500.1"	196	"	"G/C"	"52,4/47,6"	"33/30"	63
controllo_3	"POPTR_0005s11500.1"	196	"	"G/C"	"54,4/45,6"	"506/424"	930	stress_45	"POPTR_0005s11500.1"	196	"	"G/C"	"61,7/38,3"	"74/46"	120
controllo_3	"POPTR_0006s22950.1"	613	"	"T/C"	"54,4/45,6"	"99/83"	182	stress_12bis	"POPTR_0006s22950.1"	613	"	"C/T"	"63,5/36,5"	"33/19"	52
controllo_3	"POPTR_0006s22950.1"	613	"	"T/C"	"54,4/45,6"	"99/83"	182	stress_42	"POPTR_0006s22950.1"	613	"	"C/T"	"57,1/42,9"	"8/6"	14
controllo_3	"POPTR_0006s22950.1"	613	"	"T/C"	"54,4/45,6"	"99/83"	182	stress_45	"POPTR_0006s22950.1"	613	"	"C/T"	"53,8/46,2"	"14/12"	26
controllo_3	"POPTR_0006s08980.1"	178	"	"C/T"	"54,4/45,6"	"112/94"	206	stress_12bis	"POPTR_0006s08980.1"	178	"	"C/T"	"54,3/45,7"	"19/16"	35
controllo_3	"POPTR_0006s08980.1"	178	"	"C/T"	"54,4/45,6"	"112/94"	206	stress_42	"POPTR_0006s08980.1"	178	"	"C/T"	"53,6/46,4"	"15/13"	28
controllo_3	"POPTR_0006s08980.1"	178	"	"C/T"	"54,4/45,6"	"112/94"	206	stress_45	"POPTR_0006s08980.1"	178	"	"C/T"	"70,6/29,4"	"48/20"	68
controllo_3	"POPTR_0006s08750.1"	187	"	"C/T"	"54,4/45,6"	"68/57"	125	stress_12bis	"POPTR_0006s08750.1"	187	"	"C/T"	"62,8/37,2"	"49/29"	78
controllo_3	"POPTR_0006s08750.1"	187	"	"C/T"	"54,4/45,6"	"68/57"	125	stress_42	"POPTR_0006s08750.1"	187	"	"T/C"	"57,7/42,3"	"15/11"	26
controllo_3	"POPTR_0006s08750.1"	187	"	"C/T"	"54,4/45,6"	"68/57"	125	stress_45	"POPTR_0006s08750.1"	187	"	"C/T"	"62,1/37,9"	"18/11"	29
controllo_3	"POPTR_0006s28350.1"	360	"	"T/A"	"54,4/45,6"	"86/72"	158	stress_12bis	"POPTR_0006s28350.1"	360	"	"T/A"	"56,2/43,8"	"9/7"	16
controllo_3	"POPTR_0006s28350.1"	360	"	"T/A"	"54,4/45,6"	"86/72"	158	stress_42	"POPTR_0006s28350.1"	360	"	"A/T"	"50,0/50,0"	"5/5"	10
controllo_3	"POPTR_0006s28350.1"	360	"	"T/A"	"54,4/45,6"	"86/72"	158	stress_45	"POPTR_0006s28350.1"	360	"	"T/A"	"76,5/23,5"	"13/4"	17
controllo_3	"POPTR_0003s02730.1"	2301	"	"T/A"	"54,4/45,6"	"56/47"	103	stress_12bis	"POPTR_0003s02730.1"	2301	"	"T/A"	"65,3/34,7"	"49/26"	75
controllo_3	"POPTR_0003s02730.1"	2301	"	"T/A"	"54,4/45,6"	"56/47"	103	stress_42	"POPTR_0003s02730.1"	2301	"	"T/A"	"68,3/31,7"	"41/19"	60
controllo_3	"POPTR_0003s02730.1"	2301	"	"T/A"	"54,4/45,6"	"56/47"	103	stress_45	"POPTR_0003s02730.1"	2301	"	"T/A"	"55,8/44,2"	"29/23"	52
controllo_3	"POPTR_0003s11300.1"	321	"	"G/A"	"54,4/45,6"	"124/104"	228	stress_12bis	"POPTR_0003s11300.1"	321	"	"G/A"	"60,5/39,5"	"69/45"	114
controllo_3	"POPTR_0003s11300.1"	321	"	"G/A"	"54,4/45,6"	"124/104"	228	stress_45	"POPTR_0003s11300.1"	321	"	"A/G"	"50,0/50,0"	"10/10"	20
controllo_3	"POPTR_0013s00930.1"	822	"	"G/A"	"54,4/45,6"	"62/52"	114	stress_12bis	"POPTR_0013s00930.1"	822	"	"A/G"	"62,5/37,5"	"15/9"	24
controllo_3	"POPTR_0013s00930.1"	822	"	"G/A"	"54,4/45,6"	"62/52"	114	stress_42	"POPTR_0013s00930.1"	822	"	"A/G"	"70,0/30,0"	"7/3"	10
controllo_3	"POPTR_0013s00930.1"	822	"	"G/A"	"54,4/45,6"	"62/52"	114	stress_45	"POPTR_0013s00930.1"	822	"	"A/G"	"76,9/23,1"	"10/3"	13
controllo_3	"POPTR_0013s07150.1"	1479	"	"G/A"	"54,4/45,6"	"130/109"	239	stress_12bis	"POPTR_0013s07150.1"	1479	"	"G/A"	"57,9/42,1"	"33/24"	57
controllo_3	"POPTR_0013s07150.1"	1479	"	"G/A"	"54,4/45,6"	"130/109"	239	stress_42	"POPTR_0013s07150.1"	1479	"	"G/A"	"53,8/46,2"	"14/12"	26
controllo_3	"POPTR_0013s07150.1"	1479	"	"G/A"	"54,4/45,6"	"130/109"	239	stress_45	"POPTR_0013s07150.1"	1479	"	"G/A"	"56,8/43,2"	"21/16"	37
controllo_3	"POPTR_0014s15960.1"	693	"	"A/G"	"54,4/45,6"	"31/26"	57	stress_42	"POPTR_0014s15960.1"	693	"	"A/G"	"59,4/40,6"	"129/88"	217
controllo_3	"POPTR_0014s15960.1"	693	"	"A/G"	"54,4/45,6"	"31/26"	57	stress_45	"POPTR_0014s15960.1"	693	"	"A/G"	"62,4/37,6"	"148/89"	237
controllo_3	"POPTR_0014s15960.1"	697	"	"C/A"	"54,4/45,6"	"37/31"	68	stress_42	"POPTR_0014s15960.1"	697	"	"C/A"	"59,5/40,5"	"141/96"	237
controllo_3	"POPTR_0014s15960.1"	697	"	"C/A"	"54,4/45,6"	"37/31"	68	stress_45	"POPTR_0014s15960.1"	697	"	"C/A"	"64,4/35,6"	"168/93"	261
controllo_3	"POPTR_0009s06690.1"	501	"	"C/T"	"54,4/45,6"	"106/89"	195	stress_12bis	"POPTR_0009s06690.1"	501	"	"C/T"	"53,5/46,5"	"23/20"	43
controllo_3	"POPTR_0009s06690.1"	501	"	"C/T"	"54,4/45,6"	"106/89"	195	stress_42	"POPTR_0009s06690.1"	501	"	"T/C"	"55,3/44,7"	"47/38"	85
controllo_3	"POPTR_0009s06690.1"	501	"	"C/T"	"54,4/45,6"	"106/89"	195	stress_45	"POPTR_0009s06690.1"	501	"	"T/C"	"51,2/48,8"	"65/62"	127
controllo_3	"POPTR_0009s09970.1"	148	"	"C/T"	"54,4/45,6"	"56/47"	103	stress_12bis	"POPTR_0009s09970.1"	148	"	"C/T"	"57,9/42,1"	"11/8"	19
controllo_3	"POPTR_0011s07530.1"	291	"	"A/G"	"54,4/45,6"	"98/82"	180	stress_12bis	"POPTR_0011s07530.1"	291	"	"A/G"	"71,2/28,8"	"37/15"	52
controllo_3	"POPTR_0011s07530.1"	291	"	"A/G"	"54,4/45,6"	"98/82"	180	stress_42	"POPTR_0011s07530.1"	291	"	"A/G"	"75,0/25,0"	"15/5"	20
controllo_3	"POPTR_0011s07530.1"	291	"	"A/G"	"54,4/45,6"	"98/82"	180	stress_45	"POPTR_0011s07530.1"	291	"	"A/G"	"57,1/42,9"	"8/6"	14
controllo_3	"POPTR_0011s14410.1"	286	"	"G/T"	"54,4/45,6"	"399/334"	733	stress_12bis	"POPTR_0011s14410.1"	286	"	"T/G"	"50,0/49,3"	"74/73"	148
controllo_3	"POPTR_0011s14410.1"	286	"	"G/T"	"54,4/45,6"	"399/334"	733	stress_42	"POPTR_0011s14410.1"	286	"	"G/T"	"61,1/38,9"	"11/7"	18
controllo_3	"POPTR_0011s14410.1"	286	"	"G/T"	"54,4/45,6"	"399/334"	733	stress_45	"POPTR_0011s14410.1"	286	"	"T/G"	"62,1/37,9"	"18/11"	29
controllo_3	"POPTR_0001s25760.1"	675	"	"T/C"	"54,4/45,6"	"98/82"	180	stress_12bis	"POPTR_0001s25760.1"	675	"	"T/C"	"61,2/38,8"	"30/19"	49
controllo_3	"POPTR_0001s25760.1"	675	"	"T/C"	"54,4/45,6"	"98/82"	180	stress_42	"POPTR_0001s25760.1"	675	"	"T/C"	"52,9/47,1"	"9/8"	17
controllo_3	"POPTR_0001s25760.1"	675	"	"T/C"	"54,4/45,6"	"98/82"	180	stress_45	"POPTR_0001s25760.1"	675	"	"T/C"	"71,4/28,6"	"25/10"	35
controllo_3	"POPTR_0001s21340.1"	1257	"	"A/G"	"54,4/45,6"	"56/47"	103	stress_12bis	"POPTR_0001s21340.1"	1257	"	"A/G"	"73,1/26,9"	"19/7"	26
controllo_3	"POPTR_0001s21340.1"	1257	"	"A/G"	"54,4/45,6"	"56/47"	103	stress_42	"POPTR_0001s21340.1"	1257	"	"G/A"	"57,1/42,9"	"8/6"	14
controllo_3	"POPTR_0001s21340.1"	1257	"	"A/G"	"54,4/45,6"	"56/47"	103	stress_45	"POPTR_0001s21340.1"	1257	"	"A/G"	"58,3/41,7"	"7/5"	12
controllo_3	"POPTR_0001s36050.1"	735	"	"T/C"	"54,4/45,6"	"43/36"	79	stress_45	"POPTR_0001s36050.1"	735	"	"C/T"	"56,2/42,9"	"59/45"	105
controllo_3	"POPTR_0001s25630.1"	306	"	"T/C"	"54,4/45,6"	"81/68"	149	stress_12bis	"POPTR_0001s25630.1"	306	"	"C/T"	"67,5/32,5"	"27/13"	40
controllo_3	"POPTR_0010s22790.1"	48	"	"C/T"	"54,4/45,6"	"321/269"	590	stress_12bis	"POPTR_0010s22790.1"	48	"	"C/T"	"53,5/46,5"	"107/93"	200
controllo_3	"POPTR_0010s22790.1"	48	"	"C/T"	"54,4/45,6"	"321/269"	590	stress_42	"POPTR_0010s22790.1"	48	"	"T/C"	"60,3/39,7"	"41/27"	68
controllo_3	"POPTR_0010s22790.1"	48	"	"C/T"	"54,4/45,6"	"321/269"	590	stress_45	"POPTR_0010s22790.1"	48	"	"C/T"	"59,2/40,8"	"42/29"	71
controllo_3	"POPTR_0007s06620.1"	1890	"	"G/A"	"54,4/45,6"	"111/93"	204	stress_12bis	"POPTR_0007s06620.1"	1890	"	"G/A"	"59,0/41,0"	"23/16"	39
controllo_3	"POPTR_0007s06620.1"	1890	"	"G/A"	"54,4/45,6"	"111/93"	204	stress_42	"POPTR_0007s06620.1"	1890	"	"G/A"	"68,8/31,2"	"11/5"	16
controllo_3	"POPTR_0007s06620.1"	1890	"	"G/A"	"54,4/45,6"	"111/93"	204	stress_45	"POPTR_0007s06620.1"	1890	"	"G/A"	"67,9/32,1"	"19/9"	28
controllo_3	"POPTR_0002s04790.1"	639	"	"A/G"	"54,4/45,6"	"106/89"	195	stress_12bis	"POPTR_0002s04790.1"	639	"	"A/G"	"50,0/50,0"	"24/24"	48
controllo_3	"POPTR_0002s04790.1"	639	"	"A/G"	"54,4/45,6"	"106/89"	195	stress_42	"POPTR_0002s04790.1"	639	"	"G/A"	"60,0/40,0"	"12/8"	20
controllo_3	"POPTR_0002s04790.1"	639	"	"A/G"	"54,4/45,6"	"106/89"	195	stress_45	"POPTR_0002s04790.1"	639	"	"A/G"	"56,2/43,8"	"9/7"	16
controllo_3	"POPTR_0002s03020.1"	468	"	"T/C"	"54,4/45,6"	"307/257"	564	stress_12bis	"POPTR_0002s03020.1"	468	"	"C/T"	"55,3/44,7"	"84/68"	152
controllo_3	"POPTR_0002s03020.1"	468	"	"T/C"	"54,4/45,6"	"307/257"	564	stress_42	"POPTR_0002s03020.1"	468	"	"T/C"	"77,1/22,9"	"199/59"	258
controllo_3	"POPTR_0002s03020.1"	468	"	"T/C"	"54,4/45,6"	"307/257"	564	stress_45	"POPTR_0002s03020.1"	468	"	"T/C"	"72,0/28,0"	"366/142"	508
controllo_3	"POPTR_0002s08010.1"	1695	"	"C/G"	"54,4/45,6"	"112/94"	206	stress_12bis	"POPTR_0002s08010.1"	1695	"	"G/C"	"53,5/46,5"	"23/20"	43
controllo_3	"POPTR_0002s08010.1"	1695	"	"C/G"	"54,4/45,6"	"112/94"	206	stress_42	"POPTR_0002s08010.1"	1695	"	"C/G"	"61,5/38,5"	"8/5"	13
controllo_3	"POPTR_0002s08010.1"	1695	"	"C/G"	"54,4/45,6"	"112/94"	206	stress_45	"POPTR_0002s08010.1"	1695	"	"C/G"	"71,4/28,6"	"10/4"	14
controllo_3	"POPTR_0008s03160.1"	68	"	"A/C"	"54,4/45,6"	"124/104"	228	stress_12bis	"POPTR_0008s03160.1"	68	"	"C/A"	"54,4/45,6"	"31/26"	57
controllo_3	"POPTR_0008s03160.1"	68	"	"A/C"	"54,4/45,6"	"124/104"	228	stress_42	"POPTR_0008s03160.1"	68	"	"A/C"	"59,1/40,9"	"13/9"	22
controllo_3	"POPTR_0008s03160.1"	68	"	"A/C"	"54,4/45,6"	"124/104"	228	stress_45	"POPTR_0008s03160.1"	68	"	"A/C"	"59,6/40,4"	"31/21"	52
controllo_3	"POPTR_0008s15780.1"	162	"	"G/C"	"54,4/45,6"	"3026/2535"	5561	stress_12bis	"POPTR_0008s15780.1"	162	"	"G/C"	"55,8/44,1"	"1134/897"	2032
controllo_3	"POPTR_0008s15780.1"	162	"	"G/C"	"54,4/45,6"	"3026/2535"	5561	stress_42	"POPTR_0008s15780.1"	162	"	"G/C"	"52,9/47,1"	"1119/995"	2114
controllo_3	"POPTR_0008s15780.1"	162	"	"G/C"	"54,4/45,6"	"3026/2535"	5561	stress_45	"POPTR_0008s15780.1"	162	"	"G/C"	"51,7/48,3"	"1362/1270"	2632
controllo_3	"POPTR_0008s06720.1"	162	"	"G/T"	"54,5/44,5"	"979/800"	1797	stress_12bis	"POPTR_0008s06720.1"	162	"	"G/T"	"57,3/42,3"	"271/200"	473
controllo_3	"POPTR_0008s06720.1"	162	"	"G/T"	"54,5/44,5"	"979/800"	1797	stress_42	"POPTR_0008s06720.1"	162	"	"T/G"	"64,2/34,9"	"70/38"	109
controllo_3	"POPTR_0008s06720.1"	162	"	"G/T"	"54,5/44,5"	"979/800"	1797	stress_45	"POPTR_0008s06720.1"	162	"	"T/G"	"63,0/35,2"	"102/57"	162
controllo_3	"POPTR_0004s17020.1"	2085	"	"T/G"	"54,5/44,8"	"73/60"	134	stress_12bis	"POPTR_0004s17020.1"	2085	"	"G/T"	"51,5/48,5"	"51/48"	99
controllo_3	"POPTR_0004s17020.1"	2085	"	"T/G"	"54,5/44,8"	"73/60"	134	stress_42	"POPTR_0004s17020.1"	2085	"	"G/T"	"59,7/40,3"	"114/77"	191
controllo_3	"POPTR_0004s17020.1"	2085	"	"T/G"	"54,5/44,8"	"73/60"	134	stress_45	"POPTR_0004s17020.1"	2085	"	"G/T"	"66,0/33,5"	"138/70"	209
controllo_3	"POPTR_0001s32770.1"	894	"	"C/T"	"54,5/44,9"	"102/84"	187	stress_12bis	"POPTR_0001s32770.1"	894	"	"C/T"	"65,1/34,9"	"41/22"	63
controllo_3	"POPTR_0001s32770.1"	894	"	"C/T"	"54,5/44,9"	"102/84"	187	stress_42	"POPTR_0001s32770.1"	894	"	"C/T"	"55,2/44,8"	"37/30"	67
controllo_3	"POPTR_0001s32770.1"	894	"	"C/T"	"54,5/44,9"	"102/84"	187	stress_45	"POPTR_0001s32770.1"	894	"	"C/T"	"52,4/47,6"	"54/49"	103
controllo_3	"POPTR_0001s40480.1"	978	"	"A/G"	"54,5/45,4"	"621/518"	1140	stress_12bis	"POPTR_0001s40480.1"	978	"	"A/G"	"58,3/41,7"	"200/143"	343
controllo_3	"POPTR_0001s40480.1"	978	"	"A/G"	"54,5/45,4"	"621/518"	1140	stress_42	"POPTR_0001s40480.1"	978	"	"G/A"	"57,5/42,5"	"23/17"	40
controllo_3	"POPTR_0001s40480.1"	978	"	"A/G"	"54,5/45,4"	"621/518"	1140	stress_45	"POPTR_0001s40480.1"	978	"	"G/A"	"65,4/34,6"	"34/18"	52
controllo_3	"POPTR_0005s04090.1"	663	"	"G/A"	"54,5/45,5"	"145/121"	266	stress_12bis	"POPTR_0005s04090.1"	663	"	"G/A"	"58,5/41,5"	"38/27"	65
controllo_3	"POPTR_0005s04090.1"	663	"	"G/A"	"54,5/45,5"	"145/121"	266	stress_42	"POPTR_0005s04090.1"	663	"	"G/A"	"71,9/28,1"	"23/9"	32
controllo_3	"POPTR_0005s04090.1"	663	"	"G/A"	"54,5/45,5"	"145/121"	266	stress_45	"POPTR_0005s04090.1"	663	"	"G/A"	"78,8/21,2"	"26/7"	33
controllo_3	"POPTR_0005s21360.1"	924	"	"C/A"	"54,5/45,5"	"139/116"	255	stress_12bis	"POPTR_0005s21360.1"	924	"	"C/A"	"57,5/42,5"	"42/31"	73
controllo_3	"POPTR_0005s21360.1"	924	"	"C/A"	"54,5/45,5"	"139/116"	255	stress_42	"POPTR_0005s21360.1"	924	"	"C/A"	"75,0/25,0"	"9/3"	12
controllo_3	"POPTR_0005s21360.1"	924	"	"C/A"	"54,5/45,5"	"139/116"	255	stress_45	"POPTR_0005s21360.1"	924	"	"A/C"	"52,6/47,4"	"10/9"	19
controllo_3	"POPTR_0005s22780.1"	249	"	"A/C"	"54,5/45,5"	"121/101"	222	stress_12bis	"POPTR_0005s22780.1"	249	"	"C/A"	"53,0/47,0"	"70/62"	132
controllo_3	"POPTR_0005s22780.1"	249	"	"A/C"	"54,5/45,5"	"121/101"	222	stress_42	"POPTR_0005s22780.1"	249	"	"A/C"	"51,0/49,0"	"26/25"	51
controllo_3	"POPTR_0005s22780.1"	249	"	"A/C"	"54,5/45,5"	"121/101"	222	stress_45	"POPTR_0005s22780.1"	249	"	"C/A"	"62,0/38,0"	"31/19"	50
controllo_3	"POPTR_0006s10040.1"	363	"	"G/A"	"54,5/45,5"	"207/173"	380	stress_12bis	"POPTR_0006s10040.1"	363	"	"G/A"	"53,1/46,9"	"145/128"	273
controllo_3	"POPTR_0006s10040.1"	363	"	"G/A"	"54,5/45,5"	"207/173"	380	stress_42	"POPTR_0006s10040.1"	363	"	"G/A"	"54,2/45,8"	"58/49"	107
controllo_3	"POPTR_0006s10040.1"	363	"	"G/A"	"54,5/45,5"	"207/173"	380	stress_45	"POPTR_0006s10040.1"	363	"	"G/A"	"59,6/40,4"	"65/44"	109
controllo_3	"POPTR_0006s00620.1"	1587	"	"C/T"	"54,5/45,5"	"61/51"	112	stress_12bis	"POPTR_0006s00620.1"	1587	"	"C/T"	"50,0/50,0"	"9/9"	18
controllo_3	"POPTR_0021s00380.1"	831	"	"G/A"	"54,5/45,5"	"84/70"	154	stress_12bis	"POPTR_0021s00380.1"	831	"	"G/A"	"51,2/48,8"	"22/21"	43
controllo_3	"POPTR_0021s00380.1"	831	"	"G/A"	"54,5/45,5"	"84/70"	154	stress_45	"POPTR_0021s00380.1"	831	"	"A/G"	"60,0/40,0"	"6/4"	10
controllo_3	"POPTR_0013s01080.1"	922	"	"G/A"	"54,5/45,5"	"60/50"	110	stress_12bis	"POPTR_0013s01080.1"	922	"	"A/G"	"52,7/47,3"	"29/26"	55
controllo_3	"POPTR_0013s01080.1"	922	"	"G/A"	"54,5/45,5"	"60/50"	110	stress_42	"POPTR_0013s01080.1"	922	"	"A/G"	"53,3/46,7"	"8/7"	15
controllo_3	"POPTR_0013s01080.1"	922	"	"G/A"	"54,5/45,5"	"60/50"	110	stress_45	"POPTR_0013s01080.1"	922	"	"A/G"	"60,9/39,1"	"14/9"	23
controllo_3	"POPTR_0014s15960.1"	624	"	"C/T"	"54,5/45,5"	"24/20"	44	stress_42	"POPTR_0014s15960.1"	624	"	"C/T"	"63,8/36,2"	"127/72"	199
controllo_3	"POPTR_0014s15960.1"	624	"	"C/T"	"54,5/45,5"	"24/20"	44	stress_45	"POPTR_0014s15960.1"	624	"	"C/T"	"63,4/36,6"	"109/63"	172
controllo_3	"POPTR_0014s17610.1"	372	"	"G/T"	"54,5/45,5"	"108/90"	198	stress_12bis	"POPTR_0014s17610.1"	372	"	"G/T"	"57,0/43,0"	"49/37"	86
controllo_3	"POPTR_0014s17610.1"	372	"	"G/T"	"54,5/45,5"	"108/90"	198	stress_42	"POPTR_0014s17610.1"	372	"	"T/G"	"52,9/47,1"	"9/8"	17
controllo_3	"POPTR_0014s17610.1"	372	"	"G/T"	"54,5/45,5"	"108/90"	198	stress_45	"POPTR_0014s17610.1"	372	"	"G/T"	"70,6/29,4"	"24/10"	34
controllo_3	"POPTR_0014s17400.1"	466	"	"A/G"	"54,5/45,5"	"1058/883"	1942	stress_12bis	"POPTR_0014s17400.1"	466	"	"A/G"	"59,5/40,4"	"361/245"	607
controllo_3	"POPTR_0014s17400.1"	466	"	"A/G"	"54,5/45,5"	"1058/883"	1942	stress_42	"POPTR_0014s17400.1"	466	"	"A/G"	"62,9/37,1"	"176/104"	280
controllo_3	"POPTR_0014s17400.1"	466	"	"A/G"	"54,5/45,5"	"1058/883"	1942	stress_45	"POPTR_0014s17400.1"	466	"	"A/G"	"60,3/39,7"	"182/120"	302
controllo_3	"POPTR_0014s02410.1"	555	"	"A/T"	"54,5/45,5"	"654/545"	1199	stress_12bis	"POPTR_0014s02410.1"	555	"	"A/T"	"58,0/42,0"	"91/66"	157
controllo_3	"POPTR_0014s02410.1"	555	"	"A/T"	"54,5/45,5"	"654/545"	1199	stress_42	"POPTR_0014s02410.1"	555	"	"A/T"	"57,6/42,4"	"121/89"	210
controllo_3	"POPTR_0014s02410.1"	555	"	"A/T"	"54,5/45,5"	"654/545"	1199	stress_45	"POPTR_0014s02410.1"	555	"	"T/A"	"51,8/48,2"	"249/232"	481
controllo_3	"POPTR_0004s18030.1"	963	"	"T/A"	"54,5/45,5"	"72/60"	132	stress_12bis	"POPTR_0004s18030.1"	963	"	"T/A"	"77,8/22,2"	"35/10"	45
controllo_3	"POPTR_0004s18030.1"	963	"	"T/A"	"54,5/45,5"	"72/60"	132	stress_42	"POPTR_0004s18030.1"	963	"	"A/T"	"55,6/44,4"	"15/12"	27
controllo_3	"POPTR_0004s18030.1"	963	"	"T/A"	"54,5/45,5"	"72/60"	132	stress_45	"POPTR_0004s18030.1"	963	"	"T/A"	"57,9/42,1"	"11/8"	19
controllo_3	"POPTR_0004s04860.1"	23	"	"A/G"	"54,5/45,5"	"73/61"	134	stress_12bis	"POPTR_0004s04860.1"	23	"	"A/G"	"62,5/37,5"	"25/15"	40
controllo_3	"POPTR_0004s04860.1"	23	"	"A/G"	"54,5/45,5"	"73/61"	134	stress_45	"POPTR_0004s04860.1"	23	"	"A/G"	"66,7/33,3"	"16/8"	24
controllo_3	"POPTR_0004s19380.1"	756	"	"T/C"	"54,5/45,5"	"67/56"	123	stress_12bis	"POPTR_0004s19380.1"	756	"	"T/C"	"64,4/35,6"	"38/21"	59
controllo_3	"POPTR_0004s19380.1"	756	"	"T/C"	"54,5/45,5"	"67/56"	123	stress_42	"POPTR_0004s19380.1"	756	"	"T/C"	"81,8/18,2"	"18/4"	22
controllo_3	"POPTR_0009s06690.1"	759	"	"C/T"	"54,5/45,5"	"104/87"	191	stress_12bis	"POPTR_0009s06690.1"	759	"	"C/T"	"50,8/49,2"	"30/29"	59
controllo_3	"POPTR_0009s06690.1"	759	"	"C/T"	"54,5/45,5"	"104/87"	191	stress_42	"POPTR_0009s06690.1"	759	"	"C/T"	"53,3/46,7"	"49/43"	92
controllo_3	"POPTR_0009s06690.1"	759	"	"C/T"	"54,5/45,5"	"104/87"	191	stress_45	"POPTR_0009s06690.1"	759	"	"T/C"	"59,9/40,1"	"103/69"	172
controllo_3	"POPTR_0009s09240.1"	57	"	"G/A"	"54,5/45,5"	"90/75"	165	stress_12bis	"POPTR_0009s09240.1"	57	"	"G/A"	"63,6/36,4"	"56/32"	88
controllo_3	"POPTR_0009s09240.1"	57	"	"G/A"	"54,5/45,5"	"90/75"	165	stress_42	"POPTR_0009s09240.1"	57	"	"G/A"	"58,8/41,2"	"10/7"	17
controllo_3	"POPTR_0009s09240.1"	57	"	"G/A"	"54,5/45,5"	"90/75"	165	stress_45	"POPTR_0009s09240.1"	57	"	"A/G"	"51,5/48,5"	"17/16"	33
controllo_3	"POPTR_0012s13830.1"	246	"	"C/T"	"54,5/45,5"	"66/55"	121	stress_12bis	"POPTR_0012s13830.1"	246	"	"C/T"	"51,4/48,6"	"18/17"	35
controllo_3	"POPTR_0012s13830.1"	246	"	"C/T"	"54,5/45,5"	"66/55"	121	stress_42	"POPTR_0012s13830.1"	246	"	"C/T/	"45,5/36,4/18,2"	"5/4/2"	11
controllo_3	"POPTR_0012s13830.1"	246	"	"C/T"	"54,5/45,5"	"66/55"	121	stress_45	"POPTR_0012s13830.1"	246	"	"C/T"	"61,5/38,5"	"8/5"	13
controllo_3	"POPTR_0011s05250.1"	1146	"	"G/A"	"54,5/45,5"	"48/40"	88	stress_45	"POPTR_0011s05250.1"	1146	"	"A/G"	"56,6/42,8"	"94/71"	166
controllo_3	"POPTR_0011s12400.1"	724	"	"C/T"	"54,5/45,5"	"6/5"	11	stress_42	"POPTR_0011s12400.1"	724	"	"T/C"	"50,5/49,5"	"103/101"	204
controllo_3	"POPTR_0011s12400.1"	724	"	"C/T"	"54,5/45,5"	"6/5"	11	stress_45	"POPTR_0011s12400.1"	724	"	"C/T"	"57,0/43,0"	"126/95"	221
controllo_3	"POPTR_0015s11940.1"	401	"	"C/A"	"54,5/45,5"	"114/95"	209	stress_12bis	"POPTR_0015s11940.1"	401	"	"C/A"	"53,1/46,9"	"34/30"	64
controllo_3	"POPTR_0015s11940.1"	401	"	"C/A"	"54,5/45,5"	"114/95"	209	stress_42	"POPTR_0015s11940.1"	401	"	"A/C"	"51,5/48,5"	"17/16"	33
controllo_3	"POPTR_0015s11940.1"	401	"	"C/A"	"54,5/45,5"	"114/95"	209	stress_45	"POPTR_0015s11940.1"	401	"	"A/C"	"64,3/35,7"	"27/15"	42
controllo_3	"POPTR_0015s10920.1"	1323	"	"A/G"	"54,5/45,5"	"109/91"	200	stress_12bis	"POPTR_0015s10920.1"	1323	"	"A/G"	"60,3/39,7"	"44/29"	73
controllo_3	"POPTR_0015s10920.1"	1323	"	"A/G"	"54,5/45,5"	"109/91"	200	stress_42	"POPTR_0015s10920.1"	1323	"	"G/A"	"63,0/37,0"	"17/10"	27
controllo_3	"POPTR_0015s10920.1"	1323	"	"A/G"	"54,5/45,5"	"109/91"	200	stress_45	"POPTR_0015s10920.1"	1323	"	"G/A"	"57,7/42,3"	"30/22"	52
controllo_3	"POPTR_0001s12960.1"	159	"	"T/C"	"54,5/45,5"	"54/45"	99	stress_45	"POPTR_0001s12960.1"	159	"	"C/T"	"54,4/45,6"	"56/47"	103
controllo_3	"POPTR_0001s14280.1"	1101	"	"T/A"	"54,5/45,5"	"67/56"	123	stress_12bis	"POPTR_0001s14280.1"	1101	"	"T/A"	"59,1/40,9"	"39/27"	66
controllo_3	"POPTR_0001s14280.1"	1101	"	"T/A"	"54,5/45,5"	"67/56"	123	stress_42	"POPTR_0001s14280.1"	1101	"	"A/T"	"51,3/48,7"	"100/95"	195
controllo_3	"POPTR_0001s14280.1"	1101	"	"T/A"	"54,5/45,5"	"67/56"	123	stress_45	"POPTR_0001s14280.1"	1101	"	"A/T"	"50,9/49,1"	"140/135"	275
controllo_3	"POPTR_0001s03980.1"	1401	"	"C/T"	"54,5/45,5"	"55/46"	101	stress_12bis	"POPTR_0001s03980.1"	1401	"	"C/T"	"56,4/43,6"	"22/17"	39
controllo_3	"POPTR_0001s03980.1"	1401	"	"C/T"	"54,5/45,5"	"55/46"	101	stress_42	"POPTR_0001s03980.1"	1401	"	"T/C"	"60,0/40,0"	"12/8"	20
controllo_3	"POPTR_0001s03980.1"	1401	"	"C/T"	"54,5/45,5"	"55/46"	101	stress_45	"POPTR_0001s03980.1"	1401	"	"T/C"	"52,8/47,2"	"19/17"	36
controllo_3	"POPTR_0001s35030.1"	1158	"	"A/C"	"54,5/45,5"	"72/60"	132	stress_12bis	"POPTR_0001s35030.1"	1158	"	"A/C"	"61,5/38,5"	"8/5"	13
controllo_3	"POPTR_0001s35030.1"	1158	"	"A/C"	"54,5/45,5"	"72/60"	132	stress_45	"POPTR_0001s35030.1"	1158	"	"C/A"	"79,2/20,8"	"19/5"	24
controllo_3	"POPTR_0001s07870.1"	863	"	"T/C"	"54,5/45,5"	"73/61"	134	stress_12bis	"POPTR_0001s07870.1"	863	"	"C/T"	"65,2/34,8"	"15/8"	23
controllo_3	"POPTR_0001s07870.1"	863	"	"T/C"	"54,5/45,5"	"73/61"	134	stress_42	"POPTR_0001s07870.1"	863	"	"C/T"	"75,0/25,0"	"9/3"	12
controllo_3	"POPTR_0001s07870.1"	863	"	"T/C"	"54,5/45,5"	"73/61"	134	stress_45	"POPTR_0001s07870.1"	863	"	"C/T"	"63,2/36,8"	"24/14"	38
controllo_3	"POPTR_0010s07340.1"	1141	"	"C/T"	"54,5/45,5"	"73/61"	134	stress_12bis	"POPTR_0010s07340.1"	1141	"	"C/T"	"58,0/42,0"	"29/21"	50
controllo_3	"POPTR_0010s07340.1"	1141	"	"C/T"	"54,5/45,5"	"73/61"	134	stress_42	"POPTR_0010s07340.1"	1141	"	"C/T"	"60,5/39,5"	"75/49"	124
controllo_3	"POPTR_0010s07340.1"	1141	"	"C/T"	"54,5/45,5"	"73/61"	134	stress_45	"POPTR_0010s07340.1"	1141	"	"T/C"	"52,4/47,6"	"66/60"	126
controllo_3	"POPTR_0010s13620.1"	313	"	"A/C"	"54,5/45,5"	"55/46"	101	stress_12bis	"POPTR_0010s13620.1"	313	"	"C/A"	"71,4/28,6"	"10/4"	14
controllo_3	"POPTR_0010s13620.1"	313	"	"A/C"	"54,5/45,5"	"55/46"	101	stress_42	"POPTR_0010s13620.1"	313	"	"C/A"	"80,0/20,0"	"16/4"	20
controllo_3	"POPTR_0010s13620.1"	313	"	"A/C"	"54,5/45,5"	"55/46"	101	stress_45	"POPTR_0010s13620.1"	313	"	"C/A"	"60,0/40,0"	"24/16"	40
controllo_3	"POPTR_0007s02460.1"	990	"	"C/T"	"54,5/45,5"	"85/71"	156	stress_12bis	"POPTR_0007s02460.1"	990	"	"C/T"	"55,2/44,8"	"16/13"	29
controllo_3	"POPTR_0007s02460.1"	990	"	"C/T"	"54,5/45,5"	"85/71"	156	stress_42	"POPTR_0007s02460.1"	990	"	"T/C"	"53,5/46,5"	"38/33"	71
controllo_3	"POPTR_0007s02460.1"	990	"	"C/T"	"54,5/45,5"	"85/71"	156	stress_45	"POPTR_0007s02460.1"	990	"	"C/T"	"53,8/46,2"	"28/24"	52
controllo_3	"POPTR_0007s14280.1"	951	"	"G/A"	"54,5/45,5"	"55/46"	101	stress_12bis	"POPTR_0007s14280.1"	951	"	"G/A"	"57,9/42,1"	"11/8"	19
controllo_3	"POPTR_0007s14280.1"	951	"	"G/A"	"54,5/45,5"	"55/46"	101	stress_42	"POPTR_0007s14280.1"	951	"	"G/A"	"61,3/38,7"	"19/12"	31
controllo_3	"POPTR_0007s14280.1"	951	"	"G/A"	"54,5/45,5"	"55/46"	101	stress_45	"POPTR_0007s14280.1"	951	"	"A/G"	"51,5/48,5"	"17/16"	33
controllo_3	"POPTR_0002s15840.1"	223	"	"T/C"	"54,5/45,5"	"61/51"	112	stress_12bis	"POPTR_0002s15840.1"	223	"	"T/C"	"76,0/24,0"	"38/12"	50
controllo_3	"POPTR_0002s15840.1"	223	"	"T/C"	"54,5/45,5"	"61/51"	112	stress_42	"POPTR_0002s15840.1"	223	"	"T/C"	"75,0/25,0"	"9/3"	12
controllo_3	"POPTR_0002s15840.1"	223	"	"T/C"	"54,5/45,5"	"61/51"	112	stress_45	"POPTR_0002s15840.1"	223	"	"T/C"	"66,7/33,3"	"12/6"	18
controllo_3	"POPTR_0002s25810.1"	423	"	"A/C"	"54,5/45,5"	"115/96"	211	stress_12bis	"POPTR_0002s25810.1"	423	"	"C/A"	"51,7/48,3"	"46/43"	89
controllo_3	"POPTR_0002s25810.1"	423	"	"A/C"	"54,5/45,5"	"115/96"	211	stress_42	"POPTR_0002s25810.1"	423	"	"C/A"	"66,7/33,3"	"22/11"	33
controllo_3	"POPTR_0002s25810.1"	423	"	"A/C"	"54,5/45,5"	"115/96"	211	stress_45	"POPTR_0002s25810.1"	423	"	"A/C"	"54,1/45,9"	"20/17"	37
controllo_3	"POPTR_0008s20370.1"	405	"	"T/G"	"54,5/45,5"	"72/60"	132	stress_12bis	"POPTR_0008s20370.1"	405	"	"G/T"	"66,7/33,3"	"24/12"	36
controllo_3	"POPTR_0008s20370.1"	405	"	"T/G"	"54,5/45,5"	"72/60"	132	stress_42	"POPTR_0008s20370.1"	405	"	"G/T"	"56,9/43,1"	"33/25"	58
controllo_3	"POPTR_0008s20370.1"	405	"	"T/G"	"54,5/45,5"	"72/60"	132	stress_45	"POPTR_0008s20370.1"	405	"	"G/T"	"57,6/42,4"	"34/25"	59
controllo_3	"POPTR_0008s09150.1"	186	"	"G/A"	"54,5/45,5"	"72/60"	132	stress_12bis	"POPTR_0008s09150.1"	186	"	"A/G"	"73,3/26,7"	"11/4"	15
controllo_3	"POPTR_0008s09150.1"	186	"	"G/A"	"54,5/45,5"	"72/60"	132	stress_42	"POPTR_0008s09150.1"	186	"	"A/G"	"51,2/48,8"	"43/41"	84
controllo_3	"POPTR_0008s09150.1"	186	"	"G/A"	"54,5/45,5"	"72/60"	132	stress_45	"POPTR_0008s09150.1"	186	"	"A/G"	"51,4/48,6"	"95/90"	185
controllo_3	"POPTR_0016s14100.1"	1259	"	"C/T"	"54,5/45,5"	"116/97"	213	stress_12bis	"POPTR_0016s14100.1"	1259	"	"C/T"	"57,8/42,2"	"63/46"	109
controllo_3	"POPTR_0016s14100.1"	1259	"	"C/T"	"54,5/45,5"	"116/97"	213	stress_42	"POPTR_0016s14100.1"	1259	"	"T/C"	"68,0/28,0"	"17/7"	25
controllo_3	"POPTR_0016s14100.1"	1259	"	"C/T"	"54,5/45,5"	"116/97"	213	stress_45	"POPTR_0016s14100.1"	1259	"	"C/T"	"51,5/48,5"	"17/16"	33
controllo_3	"POPTR_0016s14970.1"	257	"	"C/T"	"54,5/45,5"	"61/51"	112	stress_12bis	"POPTR_0016s14970.1"	257	"	"C/T"	"56,2/43,8"	"9/7"	16
controllo_3	"POPTR_0016s14970.1"	257	"	"C/T"	"54,5/45,5"	"61/51"	112	stress_42	"POPTR_0016s14970.1"	257	"	"T/C"	"57,9/42,1"	"11/8"	19
controllo_3	"POPTR_0016s14970.1"	257	"	"C/T"	"54,5/45,5"	"61/51"	112	stress_45	"POPTR_0016s14970.1"	257	"	"T/C"	"57,1/42,9"	"16/12"	28
controllo_3	"POPTR_0016s09190.1"	549	"	"A/C"	"54,5/45,5"	"79/66"	145	stress_12bis	"POPTR_0016s09190.1"	549	"	"C/A"	"52,8/47,2"	"28/25"	53
controllo_3	"POPTR_0016s09190.1"	549	"	"A/C"	"54,5/45,5"	"79/66"	145	stress_42	"POPTR_0016s09190.1"	549	"	"A/C"	"67,9/32,1"	"19/9"	28
controllo_3	"POPTR_0016s09190.1"	549	"	"A/C"	"54,5/45,5"	"79/66"	145	stress_45	"POPTR_0016s09190.1"	549	"	"A/C"	"63,2/36,8"	"24/14"	38
controllo_3	"POPTR_0007s08400.1"	1803	"	"C/T"	"54,6/43,5"	"59/47"	108	stress_12bis	"POPTR_0007s08400.1"	1803	"	"C/T"	"75,0/25,0"	"33/11"	44
controllo_3	"POPTR_0007s08400.1"	1803	"	"C/T"	"54,6/43,5"	"59/47"	108	stress_42	"POPTR_0007s08400.1"	1803	"	"C/T"	"64,7/35,3"	"22/12"	34
controllo_3	"POPTR_0007s08400.1"	1803	"	"C/T"	"54,6/43,5"	"59/47"	108	stress_45	"POPTR_0007s08400.1"	1803	"	"C/T"	"69,9/27,4"	"51/20"	73
controllo_3	"POPTR_0006s06740.1"	714	"	"G/T"	"54,6/44,3"	"95/77"	174	stress_12bis	"POPTR_0006s06740.1"	714	"	"T/G"	"58,3/33,3"	"7/4"	12
controllo_3	"POPTR_0009s08520.1"	1011	"	"G/A"	"54,6/45,3"	"329/273"	603	stress_12bis	"POPTR_0009s08520.1"	1011	"	"G/A"	"52,0/47,5"	"106/97"	204
controllo_3	"POPTR_0009s08520.1"	1011	"	"G/A"	"54,6/45,3"	"329/273"	603	stress_42	"POPTR_0009s08520.1"	1011	"	"G/A"	"62,2/37,8"	"23/14"	37
controllo_3	"POPTR_0009s08520.1"	1011	"	"G/A"	"54,6/45,3"	"329/273"	603	stress_45	"POPTR_0009s08520.1"	1011	"	"G/A"	"55,2/44,8"	"16/13"	29
controllo_3	"POPTR_0005s20560.1"	192	"	"G/T"	"54,6/45,4"	"100/83"	183	stress_12bis	"POPTR_0005s20560.1"	192	"	"T/G"	"54,4/45,6"	"43/36"	79
controllo_3	"POPTR_0005s20560.1"	192	"	"G/T"	"54,6/45,4"	"100/83"	183	stress_45	"POPTR_0005s20560.1"	192	"	"G/T"	"50,0/50,0"	"9/9"	18
controllo_3	"POPTR_0005s10440.1"	384	"	"T/C"	"54,6/45,4"	"59/49"	108	stress_12bis	"POPTR_0005s10440.1"	384	"	"C/T"	"50,0/45,0"	"10/9"	20
controllo_3	"POPTR_0005s10440.1"	384	"	"T/C"	"54,6/45,4"	"59/49"	108	stress_42	"POPTR_0005s10440.1"	384	"	"C/T"	"55,6/44,4"	"15/12"	27
controllo_3	"POPTR_0005s10440.1"	384	"	"T/C"	"54,6/45,4"	"59/49"	108	stress_45	"POPTR_0005s10440.1"	384	"	"C/T"	"52,2/47,8"	"12/11"	23
controllo_3	"POPTR_0006s21650.1"	304	"	"A/G"	"54,6/45,4"	"65/54"	119	stress_12bis	"POPTR_0006s21650.1"	304	"	"A/G"	"68,8/31,2"	"44/20"	64
controllo_3	"POPTR_0006s21650.1"	304	"	"A/G"	"54,6/45,4"	"65/54"	119	stress_45	"POPTR_0006s21650.1"	304	"	"A/G"	"70,0/30,0"	"7/3"	10
controllo_3	"POPTR_0006s22950.1"	192	"	"G/A"	"54,6/45,4"	"171/142"	313	stress_12bis	"POPTR_0006s22950.1"	192	"	"G/A"	"57,1/42,9"	"52/39"	91
controllo_3	"POPTR_0006s22950.1"	192	"	"G/A"	"54,6/45,4"	"171/142"	313	stress_42	"POPTR_0006s22950.1"	192	"	"A/G"	"52,9/47,1"	"9/8"	17
controllo_3	"POPTR_0006s22950.1"	192	"	"G/A"	"54,6/45,4"	"171/142"	313	stress_45	"POPTR_0006s22950.1"	192	"	"G/A"	"75,9/24,1"	"22/7"	29
controllo_3	"POPTR_0006s10080.1"	487	"	"C/T"	"54,6/45,4"	"112/93"	205	stress_12bis	"POPTR_0006s10080.1"	487	"	"C/T"	"62,1/37,9"	"54/33"	87
controllo_3	"POPTR_0006s10080.1"	487	"	"C/T"	"54,6/45,4"	"112/93"	205	stress_42	"POPTR_0006s10080.1"	487	"	"T/C"	"62,8/37,2"	"27/16"	43
controllo_3	"POPTR_0006s10080.1"	487	"	"C/T"	"54,6/45,4"	"112/93"	205	stress_45	"POPTR_0006s10080.1"	487	"	"T/C"	"56,5/43,5"	"96/74"	170
controllo_3	"POPTR_0018s11170.1"	389	"	"G/A"	"54,6/45,4"	"83/69"	152	stress_12bis	"POPTR_0018s11170.1"	389	"	"G/A"	"61,9/38,1"	"13/8"	21
controllo_3	"POPTR_0003s14170.1"	891	"	"C/T"	"54,6/45,4"	"159/132"	291	stress_12bis	"POPTR_0003s14170.1"	891	"	"C/T"	"54,5/45,5"	"24/20"	44
controllo_3	"POPTR_0003s14170.1"	891	"	"C/T"	"54,6/45,4"	"159/132"	291	stress_42	"POPTR_0003s14170.1"	891	"	"T/C"	"80,0/20,0"	"12/3"	15
controllo_3	"POPTR_0003s14170.1"	891	"	"C/T"	"54,6/45,4"	"159/132"	291	stress_45	"POPTR_0003s14170.1"	891	"	"T/C"	"73,3/26,7"	"11/4"	15
controllo_3	"POPTR_0013s13220.1"	471	"	"T/C"	"54,6/45,4"	"83/69"	152	stress_12bis	"POPTR_0013s13220.1"	471	"	"T/C"	"59,6/40,4"	"53/36"	89
controllo_3	"POPTR_0013s13220.1"	471	"	"T/C"	"54,6/45,4"	"83/69"	152	stress_42	"POPTR_0013s13220.1"	471	"	"T/C"	"60,9/39,1"	"42/27"	69
controllo_3	"POPTR_0013s13220.1"	471	"	"T/C"	"54,6/45,4"	"83/69"	152	stress_45	"POPTR_0013s13220.1"	471	"	"T/C"	"58,0/42,0"	"65/47"	112
controllo_3	"POPTR_0004s07670.1"	264	"	"A/T"	"54,6/45,4"	"71/59"	130	stress_12bis	"POPTR_0004s07670.1"	264	"	"A/T"	"66,7/33,3"	"26/13"	39
controllo_3	"POPTR_0004s07670.1"	264	"	"A/T"	"54,6/45,4"	"71/59"	130	stress_42	"POPTR_0004s07670.1"	264	"	"A/T"	"61,1/38,9"	"11/7"	18
controllo_3	"POPTR_0004s07670.1"	264	"	"A/T"	"54,6/45,4"	"71/59"	130	stress_45	"POPTR_0004s07670.1"	264	"	"A/T"	"57,8/42,2"	"26/19"	45
controllo_3	"POPTR_0011s12440.1"	175	"	"T/G"	"54,6/45,4"	"167/139"	306	stress_12bis	"POPTR_0011s12440.1"	175	"	"G/T"	"67,8/32,2"	"97/46"	143
controllo_3	"POPTR_0011s12440.1"	175	"	"T/G"	"54,6/45,4"	"167/139"	306	stress_42	"POPTR_0011s12440.1"	175	"	"G/T"	"66,7/33,3"	"12/6"	18
controllo_3	"POPTR_0011s12440.1"	175	"	"T/G"	"54,6/45,4"	"167/139"	306	stress_45	"POPTR_0011s12440.1"	175	"	"G/T"	"50,0/50,0"	"21/21"	42
controllo_3	"POPTR_0001s10040.1"	327	"	"A/G"	"54,6/45,4"	"106/88"	194	stress_12bis	"POPTR_0001s10040.1"	327	"	"A/G"	"65,3/34,7"	"47/25"	72
controllo_3	"POPTR_0001s10040.1"	327	"	"A/G"	"54,6/45,4"	"106/88"	194	stress_42	"POPTR_0001s10040.1"	327	"	"A/G"	"56,0/44,0"	"47/37"	84
controllo_3	"POPTR_0001s10040.1"	327	"	"A/G"	"54,6/45,4"	"106/88"	194	stress_45	"POPTR_0001s10040.1"	327	"	"A/G"	"50,8/49,2"	"63/61"	124
controllo_3	"POPTR_0007s06220.1"	366	"	"T/A"	"54,6/45,4"	"53/44"	97	stress_45	"POPTR_0007s06220.1"	366	"	"T/A"	"56,6/43,4"	"73/56"	129
controllo_3	"POPTR_0002s18510.1"	78	"	"C/T"	"54,6/45,4"	"83/69"	152	stress_12bis	"POPTR_0002s18510.1"	78	"	"T/C"	"60,4/39,6"	"29/19"	48
controllo_3	"POPTR_0002s18510.1"	78	"	"C/T"	"54,6/45,4"	"83/69"	152	stress_42	"POPTR_0002s18510.1"	78	"	"C/T"	"54,5/45,5"	"24/20"	44
controllo_3	"POPTR_0002s18510.1"	78	"	"C/T"	"54,6/45,4"	"83/69"	152	stress_45	"POPTR_0002s18510.1"	78	"	"C/T"	"51,9/48,1"	"28/26"	54
controllo_3	"POPTR_0002s08410.1"	447	"	"C/T"	"54,6/45,4"	"1196/993"	2189	stress_12bis	"POPTR_0002s08410.1"	447	"	"C/T"	"51,0/49,0"	"311/299"	610
controllo_3	"POPTR_0002s08410.1"	447	"	"C/T"	"54,6/45,4"	"1196/993"	2189	stress_42	"POPTR_0002s08410.1"	447	"	"C/T"	"59,8/40,2"	"119/80"	199
controllo_3	"POPTR_0002s08410.1"	447	"	"C/T"	"54,6/45,4"	"1196/993"	2189	stress_45	"POPTR_0002s08410.1"	447	"	"C/T"	"54,7/45,0"	"163/134"	298
controllo_3	"POPTR_0008s05480.1"	246	"	"C/T"	"54,6/45,4"	"283/235"	518	stress_12bis	"POPTR_0008s05480.1"	246	"	"C/T"	"50,9/49,1"	"88/85"	173
controllo_3	"POPTR_0008s05480.1"	246	"	"C/T"	"54,6/45,4"	"283/235"	518	stress_42	"POPTR_0008s05480.1"	246	"	"T/C"	"63,7/36,3"	"58/33"	91
controllo_3	"POPTR_0008s05480.1"	246	"	"C/T"	"54,6/45,4"	"283/235"	518	stress_45	"POPTR_0008s05480.1"	246	"	"T/C"	"51,2/48,8"	"152/145"	297
controllo_3	"POPTR_0008s15100.1"	33	"	"G/C"	"54,6/45,4"	"450/374"	824	stress_12bis	"POPTR_0008s15100.1"	33	"	"G/C"	"51,6/48,4"	"133/125"	258
controllo_3	"POPTR_0008s15100.1"	33	"	"G/C"	"54,6/45,4"	"450/374"	824	stress_42	"POPTR_0008s15100.1"	33	"	"G/C"	"58,6/41,4"	"51/36"	87
controllo_3	"POPTR_0008s15100.1"	33	"	"G/C"	"54,6/45,4"	"450/374"	824	stress_45	"POPTR_0008s15100.1"	33	"	"G/C"	"54,7/45,3"	"47/39"	86
controllo_3	"POPTR_0016s03630.1"	4251	"	"T/C"	"54,6/45,4"	"113/94"	207	stress_12bis	"POPTR_0016s03630.1"	4251	"	"T/C"	"55,1/44,9"	"27/22"	49
controllo_3	"POPTR_0016s03630.1"	4251	"	"T/C"	"54,6/45,4"	"113/94"	207	stress_45	"POPTR_0016s03630.1"	4251	"	"C/T"	"57,1/42,9"	"8/6"	14
controllo_3	"POPTR_0012s07040.1"	466	"	"T/G"	"54,7/44,7"	"180/147"	329	stress_12bis	"POPTR_0012s07040.1"	466	"	"G/T"	"50,0/50,0"	"49/49"	98
controllo_3	"POPTR_0012s07040.1"	466	"	"T/G"	"54,7/44,7"	"180/147"	329	stress_42	"POPTR_0012s07040.1"	466	"	"T/G"	"56,5/43,5"	"13/10"	23
controllo_3	"POPTR_0012s07040.1"	466	"	"T/G"	"54,7/44,7"	"180/147"	329	stress_45	"POPTR_0012s07040.1"	466	"	"T/G"	"55,3/44,7"	"21/17"	38
controllo_3	"POPTR_0014s08960.1"	45	"	"A/G"	"54,7/45,0"	"191/157"	349	stress_12bis	"POPTR_0014s08960.1"	45	"	"A/G"	"66,7/33,3"	"46/23"	69
controllo_3	"POPTR_0014s08960.1"	45	"	"A/G"	"54,7/45,0"	"191/157"	349	stress_45	"POPTR_0014s08960.1"	45	"	"A/G"	"50,0/50,0"	"6/6"	12
controllo_3	"POPTR_0018s11820.1"	1212	"	"T/C"	"54,7/45,1"	"336/277"	614	stress_12bis	"POPTR_0018s11820.1"	1212	"	"C/T"	"55,1/44,9"	"92/75"	167
controllo_3	"POPTR_0018s11820.1"	1212	"	"T/C"	"54,7/45,1"	"336/277"	614	stress_42	"POPTR_0018s11820.1"	1212	"	"T/C"	"52,8/47,2"	"19/17"	36
controllo_3	"POPTR_0018s11820.1"	1212	"	"T/C"	"54,7/45,1"	"336/277"	614	stress_45	"POPTR_0018s11820.1"	1212	"	"T/C"	"66,7/33,3"	"26/13"	39
controllo_3	"POPTR_0004s16920.1"	903	"	"T/C"	"54,7/45,1"	"4136/3412"	7558	stress_12bis	"POPTR_0004s16920.1"	903	"	"T/C"	"51,9/48,0"	"1161/1072"	2235
controllo_3	"POPTR_0004s16920.1"	903	"	"T/C"	"54,7/45,1"	"4136/3412"	7558	stress_42	"POPTR_0004s16920.1"	903	"	"C/T"	"54,4/45,6"	"142/119"	261
controllo_3	"POPTR_0004s16920.1"	903	"	"T/C"	"54,7/45,1"	"4136/3412"	7558	stress_45	"POPTR_0004s16920.1"	903	"	"C/T"	"57,6/42,4"	"194/143"	337
controllo_3	"POPTR_0002s19710.1"	360	"	"A/T"	"54,7/45,2"	"409/338"	748	stress_12bis	"POPTR_0002s19710.1"	360	"	"A/T"	"56,5/42,8"	"169/128"	299
controllo_3	"POPTR_0002s19710.1"	360	"	"A/T"	"54,7/45,2"	"409/338"	748	stress_42	"POPTR_0002s19710.1"	360	"	"A/T"	"64,5/34,7"	"78/42"	121
controllo_3	"POPTR_0002s19710.1"	360	"	"A/T"	"54,7/45,2"	"409/338"	748	stress_45	"POPTR_0002s19710.1"	360	"	"A/T"	"53,3/46,7"	"48/42"	90
controllo_3	"POPTR_0005s05450.1"	336	"	"T/G"	"54,7/45,3"	"110/91"	201	stress_12bis	"POPTR_0005s05450.1"	336	"	"T/G"	"59,3/40,7"	"32/22"	54
controllo_3	"POPTR_0005s05450.1"	336	"	"T/G"	"54,7/45,3"	"110/91"	201	stress_42	"POPTR_0005s05450.1"	336	"	"T/G"	"70,6/29,4"	"12/5"	17
controllo_3	"POPTR_0005s05450.1"	336	"	"T/G"	"54,7/45,3"	"110/91"	201	stress_45	"POPTR_0005s05450.1"	336	"	"T/G"	"74,1/25,9"	"20/7"	27
controllo_3	"POPTR_0017s08610.1"	495	"	"T/C"	"54,7/45,3"	"47/39"	86	stress_45	"POPTR_0017s08610.1"	495	"	"C/T"	"54,7/45,3"	"75/62"	137
controllo_3	"POPTR_0003s11300.1"	390	"	"T/C"	"54,7/45,3"	"150/124"	274	stress_12bis	"POPTR_0003s11300.1"	390	"	"T/C"	"64,2/35,8"	"61/34"	95
controllo_3	"POPTR_0003s11300.1"	390	"	"T/C"	"54,7/45,3"	"150/124"	274	stress_45	"POPTR_0003s11300.1"	390	"	"T/C"	"63,3/36,7"	"19/11"	30
controllo_3	"POPTR_0003s11300.1"	1293	"	"A/G"	"54,7/45,3"	"127/105"	232	stress_12bis	"POPTR_0003s11300.1"	1293	"	"A/G"	"54,3/45,7"	"44/37"	81
controllo_3	"POPTR_0003s11300.1"	1293	"	"A/G"	"54,7/45,3"	"127/105"	232	stress_45	"POPTR_0003s11300.1"	1293	"	"A/G"	"64,7/35,3"	"11/6"	17
controllo_3	"POPTR_0019s09140.1"	591	"	"C/T"	"54,7/45,3"	"828/687"	1515	stress_12bis	"POPTR_0019s09140.1"	591	"	"C/T"	"52,6/47,4"	"278/251"	529
controllo_3	"POPTR_0019s09140.1"	591	"	"C/T"	"54,7/45,3"	"828/687"	1515	stress_42	"POPTR_0019s09140.1"	591	"	"C/T"	"57,3/42,7"	"102/76"	178
controllo_3	"POPTR_0019s09140.1"	591	"	"C/T"	"54,7/45,3"	"828/687"	1515	stress_45	"POPTR_0019s09140.1"	591	"	"C/T"	"55,9/44,1"	"113/89"	202
controllo_3	"POPTR_0013s01790.1"	243	"	"T/C"	"54,7/45,3"	"64/53"	117	stress_12bis	"POPTR_0013s01790.1"	243	"	"C/T"	"67,4/32,6"	"29/14"	43
controllo_3	"POPTR_0013s01790.1"	243	"	"T/C"	"54,7/45,3"	"64/53"	117	stress_42	"POPTR_0013s01790.1"	243	"	"C/T"	"50,0/50,0"	"8/8"	16
controllo_3	"POPTR_0013s01790.1"	243	"	"T/C"	"54,7/45,3"	"64/53"	117	stress_45	"POPTR_0013s01790.1"	243	"	"T/C"	"58,8/41,2"	"10/7"	17
controllo_3	"POPTR_0014s02550.1"	1530	"	"C/T"	"54,7/45,3"	"98/81"	179	stress_12bis	"POPTR_0014s02550.1"	1530	"	"C/T"	"58,9/41,1"	"33/23"	56
controllo_3	"POPTR_0014s02550.1"	1530	"	"C/T"	"54,7/45,3"	"98/81"	179	stress_42	"POPTR_0014s02550.1"	1530	"	"C/T"	"52,7/47,3"	"48/43"	91
controllo_3	"POPTR_0014s02550.1"	1530	"	"C/T"	"54,7/45,3"	"98/81"	179	stress_45	"POPTR_0014s02550.1"	1530	"	"C/T"	"58,8/41,2"	"70/49"	119
controllo_3	"POPTR_0014s15960.1"	867	"	"T/C"	"54,7/45,3"	"35/29"	64	stress_42	"POPTR_0014s15960.1"	867	"	"C/T"	"54,6/45,4"	"125/104"	229
controllo_3	"POPTR_0014s15960.1"	867	"	"T/C"	"54,7/45,3"	"35/29"	64	stress_45	"POPTR_0014s15960.1"	867	"	"C/T"	"63,6/36,4"	"110/63"	173
controllo_3	"POPTR_0014s14370.1"	937	"	"G/T"	"54,7/45,3"	"141/117"	258	stress_12bis	"POPTR_0014s14370.1"	937	"	"G/T"	"55,0/45,0"	"22/18"	40
controllo_3	"POPTR_0014s14370.1"	937	"	"G/T"	"54,7/45,3"	"141/117"	258	stress_42	"POPTR_0014s14370.1"	937	"	"T/G"	"50,0/47,1"	"17/16"	34
controllo_3	"POPTR_0014s14370.1"	937	"	"G/T"	"54,7/45,3"	"141/117"	258	stress_45	"POPTR_0014s14370.1"	937	"	"G/T"	"51,9/48,1"	"14/13"	27
controllo_3	"POPTR_0014s11040.1"	120	"	"A/G"	"54,7/45,3"	"82/68"	150	stress_12bis	"POPTR_0014s11040.1"	120	"	"G/A"	"58,5/41,5"	"31/22"	53
controllo_3	"POPTR_0014s11040.1"	120	"	"A/G"	"54,7/45,3"	"82/68"	150	stress_42	"POPTR_0014s11040.1"	120	"	"G/A"	"61,1/38,9"	"33/21"	54
controllo_3	"POPTR_0014s11040.1"	120	"	"A/G"	"54,7/45,3"	"82/68"	150	stress_45	"POPTR_0014s11040.1"	120	"	"A/G"	"53,0/47,0"	"53/47"	100
controllo_3	"POPTR_0004s07280.1"	615	"	"T/C"	"54,7/45,3"	"64/53"	117	stress_12bis	"POPTR_0004s07280.1"	615	"	"T/C"	"67,5/32,5"	"27/13"	40
controllo_3	"POPTR_0004s07280.1"	615	"	"T/C"	"54,7/45,3"	"64/53"	117	stress_42	"POPTR_0004s07280.1"	615	"	"T/C"	"62,9/37,1"	"22/13"	35
controllo_3	"POPTR_0004s07280.1"	615	"	"T/C"	"54,7/45,3"	"64/53"	117	stress_45	"POPTR_0004s07280.1"	615	"	"T/C"	"73,7/26,3"	"28/10"	38
controllo_3	"POPTR_0009s11480.1"	1362	"	"C/G"	"54,7/45,3"	"58/48"	106	stress_12bis	"POPTR_0009s11480.1"	1362	"	"C/G"	"57,1/42,9"	"28/21"	49
controllo_3	"POPTR_0009s11480.1"	1362	"	"C/G"	"54,7/45,3"	"58/48"	106	stress_45	"POPTR_0009s11480.1"	1362	"	"C/G"	"73,9/26,1"	"17/6"	23
controllo_3	"POPTR_0009s09580.1"	1032	"	"G/A"	"54,7/45,3"	"75/62"	137	stress_12bis	"POPTR_0009s09580.1"	1032	"	"G/A"	"64,1/35,9"	"25/14"	39
controllo_3	"POPTR_0009s09580.1"	1032	"	"G/A"	"54,7/45,3"	"75/62"	137	stress_42	"POPTR_0009s09580.1"	1032	"	"G/A"	"52,0/48,0"	"13/12"	25
controllo_3	"POPTR_0009s09580.1"	1032	"	"G/A"	"54,7/45,3"	"75/62"	137	stress_45	"POPTR_0009s09580.1"	1032	"	"G/A"	"56,0/44,0"	"14/11"	25
controllo_3	"POPTR_0009s05850.1"	153	"	"A/G"	"54,7/45,3"	"87/72"	159	stress_12bis	"POPTR_0009s05850.1"	153	"	"A/G"	"76,3/23,7"	"29/9"	38
controllo_3	"POPTR_0009s05850.1"	153	"	"A/G"	"54,7/45,3"	"87/72"	159	stress_42	"POPTR_0009s05850.1"	153	"	"G/A"	"52,0/48,0"	"13/12"	25
controllo_3	"POPTR_0009s05850.1"	153	"	"A/G"	"54,7/45,3"	"87/72"	159	stress_45	"POPTR_0009s05850.1"	153	"	"G/A"	"54,8/45,2"	"51/42"	93
controllo_3	"POPTR_0012s09200.1"	946	"	"C/G"	"54,7/45,3"	"133/110"	243	stress_12bis	"POPTR_0012s09200.1"	946	"	"C/G"	"59,5/40,5"	"47/32"	79
controllo_3	"POPTR_0012s09200.1"	946	"	"C/G"	"54,7/45,3"	"133/110"	243	stress_42	"POPTR_0012s09200.1"	946	"	"C/G"	"61,9/38,1"	"26/16"	42
controllo_3	"POPTR_0012s09200.1"	946	"	"C/G"	"54,7/45,3"	"133/110"	243	stress_45	"POPTR_0012s09200.1"	946	"	"C/G"	"55,6/44,4"	"30/24"	54
controllo_3	"POPTR_0001s37480.1"	694	"	"C/T"	"54,7/45,3"	"146/121"	267	stress_12bis	"POPTR_0001s37480.1"	694	"	"T/C"	"50,9/49,1"	"28/27"	55
controllo_3	"POPTR_0001s37480.1"	694	"	"C/T"	"54,7/45,3"	"146/121"	267	stress_42	"POPTR_0001s37480.1"	694	"	"C/T"	"57,9/42,1"	"22/16"	38
controllo_3	"POPTR_0001s37480.1"	694	"	"C/T"	"54,7/45,3"	"146/121"	267	stress_45	"POPTR_0001s37480.1"	694	"	"C/T"	"62,6/37,4"	"72/43"	115
controllo_3	"POPTR_0001s31700.1"	669	"	"C/T"	"54,7/45,3"	"254/210"	464	stress_12bis	"POPTR_0001s31700.1"	669	"	"C/T"	"54,8/45,2"	"74/61"	135
controllo_3	"POPTR_0001s31700.1"	669	"	"C/T"	"54,7/45,3"	"254/210"	464	stress_42	"POPTR_0001s31700.1"	669	"	"C/T"	"52,6/46,9"	"101/90"	192
controllo_3	"POPTR_0001s31700.1"	669	"	"C/T"	"54,7/45,3"	"254/210"	464	stress_45	"POPTR_0001s31700.1"	669	"	"C/T"	"52,4/47,6"	"129/117"	246
controllo_3	"POPTR_0001s40250.1"	1608	"	"C/G"	"54,7/45,3"	"35/29"	64	stress_45	"POPTR_0001s40250.1"	1608	"	"C/G"	"76,9/23,1"	"83/25"	108
controllo_3	"POPTR_0001s44870.1"	581	"	"C/G"	"54,7/45,3"	"116/96"	212	stress_12bis	"POPTR_0001s44870.1"	581	"	"C/G"	"66,7/33,3"	"24/12"	36
controllo_3	"POPTR_0001s44870.1"	581	"	"C/G"	"54,7/45,3"	"116/96"	212	stress_42	"POPTR_0001s44870.1"	581	"	"C/G"	"78,9/21,1"	"30/8"	38
controllo_3	"POPTR_0001s44870.1"	581	"	"C/G"	"54,7/45,3"	"116/96"	212	stress_45	"POPTR_0001s44870.1"	581	"	"C/G"	"68,3/31,7"	"28/13"	41
controllo_3	"POPTR_0001s32780.1"	630	"	"T/C"	"54,7/45,3"	"93/77"	170	stress_12bis	"POPTR_0001s32780.1"	630	"	"C/T"	"65,6/34,4"	"21/11"	32
controllo_3	"POPTR_0001s32780.1"	630	"	"T/C"	"54,7/45,3"	"93/77"	170	stress_42	"POPTR_0001s32780.1"	630	"	"C/T"	"57,7/42,3"	"30/22"	52
controllo_3	"POPTR_0001s32780.1"	630	"	"T/C"	"54,7/45,3"	"93/77"	170	stress_45	"POPTR_0001s32780.1"	630	"	"C/T"	"52,1/47,9"	"75/69"	144
controllo_3	"POPTR_0001s21140.1"	558	"	"T/G"	"54,7/45,3"	"277/229"	506	stress_12bis	"POPTR_0001s21140.1"	558	"	"T/G"	"59,5/40,5"	"103/70"	173
controllo_3	"POPTR_0001s21140.1"	558	"	"T/G"	"54,7/45,3"	"277/229"	506	stress_42	"POPTR_0001s21140.1"	558	"	"T/G"	"73,5/26,5"	"36/13"	49
controllo_3	"POPTR_0001s21140.1"	558	"	"T/G"	"54,7/45,3"	"277/229"	506	stress_45	"POPTR_0001s21140.1"	558	"	"T/G"	"60,0/40,0"	"27/18"	45
controllo_3	"POPTR_0001s10040.1"	325	"	"T/C"	"54,7/45,3"	"105/87"	192	stress_12bis	"POPTR_0001s10040.1"	325	"	"T/C"	"64,3/34,3"	"45/24"	70
controllo_3	"POPTR_0001s10040.1"	325	"	"T/C"	"54,7/45,3"	"105/87"	192	stress_42	"POPTR_0001s10040.1"	325	"	"T/C"	"55,4/44,6"	"46/37"	83
controllo_3	"POPTR_0001s10040.1"	325	"	"T/C"	"54,7/45,3"	"105/87"	192	stress_45	"POPTR_0001s10040.1"	325	"	"T/C"	"50,4/49,6"	"63/62"	125
controllo_3	"POPTR_0007s06620.1"	1080	"	"G/T"	"54,7/45,3"	"64/53"	117	stress_12bis	"POPTR_0007s06620.1"	1080	"	"T/G"	"51,9/48,1"	"14/13"	27
controllo_3	"POPTR_0007s09630.1"	126	"	"G/C"	"54,7/45,3"	"226/187"	413	stress_12bis	"POPTR_0007s09630.1"	126	"	"G/C"	"56,2/43,8"	"59/46"	105
controllo_3	"POPTR_0007s09630.1"	126	"	"G/C"	"54,7/45,3"	"226/187"	413	stress_42	"POPTR_0007s09630.1"	126	"	"G/C"	"66,7/33,3"	"8/4"	12
controllo_3	"POPTR_0007s09630.1"	126	"	"G/C"	"54,7/45,3"	"226/187"	413	stress_45	"POPTR_0007s09630.1"	126	"	"G/C"	"58,3/41,7"	"14/10"	24
controllo_3	"POPTR_0002s18500.1"	840	"	"T/C"	"54,7/45,3"	"41/34"	75	stress_45	"POPTR_0002s18500.1"	840	"	"T/C"	"56,8/41,6"	"71/52"	125
controllo_3	"POPTR_0002s06560.1"	107	"	"A/G"	"54,7/45,3"	"111/92"	203	stress_12bis	"POPTR_0002s06560.1"	107	"	"G/A"	"54,4/45,6"	"43/36"	79
controllo_3	"POPTR_0002s06560.1"	107	"	"A/G"	"54,7/45,3"	"111/92"	203	stress_42	"POPTR_0002s06560.1"	107	"	"G/A"	"54,2/45,8"	"32/27"	59
controllo_3	"POPTR_0002s06560.1"	107	"	"A/G"	"54,7/45,3"	"111/92"	203	stress_45	"POPTR_0002s06560.1"	107	"	"A/G"	"62,2/37,8"	"28/17"	45
controllo_3	"POPTR_0002s24090.1"	993	"	"A/C"	"54,7/45,3"	"58/48"	106	stress_12bis	"POPTR_0002s24090.1"	993	"	"C/A"	"51,2/48,8"	"22/21"	43
controllo_3	"POPTR_0002s24090.1"	993	"	"A/C"	"54,7/45,3"	"58/48"	106	stress_42	"POPTR_0002s24090.1"	993	"	"C/A"	"70,3/29,7"	"26/11"	37
controllo_3	"POPTR_0002s24090.1"	993	"	"A/C"	"54,7/45,3"	"58/48"	106	stress_45	"POPTR_0002s24090.1"	993	"	"A/C"	"50,0/50,0"	"13/13"	26
controllo_3	"POPTR_0008s15780.1"	186	"	"C/T"	"54,7/45,3"	"2452/2031"	4483	stress_12bis	"POPTR_0008s15780.1"	186	"	"C/T"	"55,3/44,7"	"895/722"	1617
controllo_3	"POPTR_0008s15780.1"	186	"	"C/T"	"54,7/45,3"	"2452/2031"	4483	stress_42	"POPTR_0008s15780.1"	186	"	"C/T"	"52,4/47,6"	"898/815"	1713
controllo_3	"POPTR_0008s15780.1"	186	"	"C/T"	"54,7/45,3"	"2452/2031"	4483	stress_45	"POPTR_0008s15780.1"	186	"	"C/T"	"51,7/48,2"	"1069/996"	2066
controllo_3	"POPTR_0016s03980.1"	1209	"	"T/A"	"54,8/44,3"	"63/51"	115	stress_12bis	"POPTR_0016s03980.1"	1209	"	"A/T"	"59,1/40,9"	"13/9"	22
controllo_3	"POPTR_0016s03980.1"	1209	"	"T/A"	"54,8/44,3"	"63/51"	115	stress_42	"POPTR_0016s03980.1"	1209	"	"A/T"	"57,9/42,1"	"11/8"	19
controllo_3	"POPTR_0006s00620.1"	1425	"	"C/T"	"54,8/44,4"	"74/60"	135	stress_12bis	"POPTR_0006s00620.1"	1425	"	"C/T"	"82,4/17,6"	"28/6"	34
controllo_3	"POPTR_0004s01470.1"	765	"	"T/G"	"54,8/44,7"	"596/486"	1087	stress_12bis	"POPTR_0004s01470.1"	765	"	"T/G"	"55,2/44,8"	"182/148"	330
controllo_3	"POPTR_0004s01470.1"	765	"	"T/G"	"54,8/44,7"	"596/486"	1087	stress_42	"POPTR_0004s01470.1"	765	"	"T/G"	"66,9/32,3"	"89/43"	133
controllo_3	"POPTR_0004s01470.1"	765	"	"T/G"	"54,8/44,7"	"596/486"	1087	stress_45	"POPTR_0004s01470.1"	765	"	"T/G"	"52,9/47,1"	"64/57"	121
controllo_3	"POPTR_0008s10020.1"	984	"	"C/A"	"54,8/44,8"	"142/116"	259	stress_12bis	"POPTR_0008s10020.1"	984	"	"A/C"	"51,9/48,1"	"41/38"	79
controllo_3	"POPTR_0008s10020.1"	984	"	"C/A"	"54,8/44,8"	"142/116"	259	stress_42	"POPTR_0008s10020.1"	984	"	"C/A"	"61,1/38,9"	"33/21"	54
controllo_3	"POPTR_0008s10020.1"	984	"	"C/A"	"54,8/44,8"	"142/116"	259	stress_45	"POPTR_0008s10020.1"	984	"	"A/C"	"57,5/41,1"	"42/30"	73
controllo_3	"POPTR_0016s03630.1"	3309	"	"T/C"	"54,8/44,8"	"153/125"	279	stress_12bis	"POPTR_0016s03630.1"	3309	"	"T/C"	"55,7/44,3"	"34/27"	61
controllo_3	"POPTR_0011s14410.1"	59	"	"C/T"	"54,8/45,0"	"446/366"	814	stress_12bis	"POPTR_0011s14410.1"	59	"	"C/T"	"56,7/43,3"	"68/52"	120
controllo_3	"POPTR_0011s14410.1"	59	"	"C/T"	"54,8/45,0"	"446/366"	814	stress_42	"POPTR_0011s14410.1"	59	"	"C/T"	"52,4/47,6"	"11/10"	21
controllo_3	"POPTR_0011s14410.1"	59	"	"C/T"	"54,8/45,0"	"446/366"	814	stress_45	"POPTR_0011s14410.1"	59	"	"C/T"	"57,7/42,3"	"15/11"	26
controllo_3	"POPTR_0011s14410.1"	233	"	"C/T"	"54,8/45,0"	"347/285"	633	stress_12bis	"POPTR_0011s14410.1"	233	"	"C/T"	"53,5/46,5"	"61/53"	114
controllo_3	"POPTR_0011s14410.1"	233	"	"C/T"	"54,8/45,0"	"347/285"	633	stress_42	"POPTR_0011s14410.1"	233	"	"T/C"	"66,7/33,3"	"12/6"	18
controllo_3	"POPTR_0011s14410.1"	233	"	"C/T"	"54,8/45,0"	"347/285"	633	stress_45	"POPTR_0011s14410.1"	233	"	"C/T"	"56,5/43,5"	"13/10"	23
controllo_3	"POPTR_0006s10080.1"	1206	"	"T/C"	"54,8/45,2"	"121/100"	221	stress_12bis	"POPTR_0006s10080.1"	1206	"	"C/T"	"52,9/47,1"	"54/48"	102
controllo_3	"POPTR_0006s10080.1"	1206	"	"T/C"	"54,8/45,2"	"121/100"	221	stress_42	"POPTR_0006s10080.1"	1206	"	"C/T"	"52,1/47,9"	"61/56"	117
controllo_3	"POPTR_0006s10080.1"	1206	"	"T/C"	"54,8/45,2"	"121/100"	221	stress_45	"POPTR_0006s10080.1"	1206	"	"C/T"	"51,4/48,6"	"107/101"	208
controllo_3	"POPTR_0006s04960.1"	1284	"	"T/C"	"54,8/45,2"	"144/119"	263	stress_12bis	"POPTR_0006s04960.1"	1284	"	"C/T"	"55,6/44,4"	"20/16"	36
controllo_3	"POPTR_0006s04960.1"	1284	"	"T/C"	"54,8/45,2"	"144/119"	263	stress_42	"POPTR_0006s04960.1"	1284	"	"T/C"	"78,6/21,4"	"11/3"	14
controllo_3	"POPTR_0006s04960.1"	1284	"	"T/C"	"54,8/45,2"	"144/119"	263	stress_45	"POPTR_0006s04960.1"	1284	"	"T/C"	"57,9/42,1"	"11/8"	19
controllo_3	"POPTR_0003s16030.1"	942	"	"G/A"	"54,8/45,2"	"23/19"	42	stress_45	"POPTR_0003s16030.1"	942	"	"G/A"	"52,5/47,5"	"53/48"	101
controllo_3	"POPTR_0019s14860.1"	562	"	"A/G"	"54,8/45,2"	"85/70"	155	stress_12bis	"POPTR_0019s14860.1"	562	"	"A/G"	"61,7/38,3"	"37/23"	60
controllo_3	"POPTR_0019s14860.1"	562	"	"A/G"	"54,8/45,2"	"85/70"	155	stress_42	"POPTR_0019s14860.1"	562	"	"A/G"	"50,0/50,0"	"5/5"	10
controllo_3	"POPTR_0019s14860.1"	562	"	"A/G"	"54,8/45,2"	"85/70"	155	stress_45	"POPTR_0019s14860.1"	562	"	"A/G"	"52,6/47,4"	"10/9"	19
controllo_3	"POPTR_0019s09140.1"	264	"	"G/A"	"54,8/45,2"	"1066/880"	1946	stress_12bis	"POPTR_0019s09140.1"	264	"	"A/G"	"53,8/46,1"	"350/300"	651
controllo_3	"POPTR_0019s09140.1"	264	"	"G/A"	"54,8/45,2"	"1066/880"	1946	stress_42	"POPTR_0019s09140.1"	264	"	"A/G"	"56,2/43,8"	"118/92"	210
controllo_3	"POPTR_0019s09140.1"	264	"	"G/A"	"54,8/45,2"	"1066/880"	1946	stress_45	"POPTR_0019s09140.1"	264	"	"A/G"	"54,7/45,3"	"133/110"	243
controllo_3	"POPTR_0019s12320.1"	1701	"	"A/G"	"54,8/45,2"	"103/85"	188	stress_12bis	"POPTR_0019s12320.1"	1701	"	"A/G"	"65,1/34,9"	"41/22"	63
controllo_3	"POPTR_0019s10280.1"	504	"	"T/G"	"54,8/45,2"	"114/94"	208	stress_12bis	"POPTR_0019s10280.1"	504	"	"T/G"	"54,7/45,3"	"52/43"	95
controllo_3	"POPTR_0019s10280.1"	504	"	"T/G"	"54,8/45,2"	"114/94"	208	stress_42	"POPTR_0019s10280.1"	504	"	"T/G"	"57,9/42,1"	"11/8"	19
controllo_3	"POPTR_0019s10280.1"	504	"	"T/G"	"54,8/45,2"	"114/94"	208	stress_45	"POPTR_0019s10280.1"	504	"	"T/G"	"66,7/33,3"	"18/9"	27
controllo_3	"POPTR_0014s17070.1"	157	"	"A/G"	"54,8/45,2"	"834/687"	1521	stress_12bis	"POPTR_0014s17070.1"	157	"	"A/G"	"52,1/47,9"	"225/207"	432
controllo_3	"POPTR_0014s17070.1"	157	"	"A/G"	"54,8/45,2"	"834/687"	1521	stress_42	"POPTR_0014s17070.1"	157	"	"A/G"	"53,2/46,8"	"58/51"	109
controllo_3	"POPTR_0014s17070.1"	157	"	"A/G"	"54,8/45,2"	"834/687"	1521	stress_45	"POPTR_0014s17070.1"	157	"	"A/G"	"53,1/46,9"	"77/68"	145
controllo_3	"POPTR_0014s02550.1"	1911	"	"G/A"	"54,8/45,2"	"92/76"	168	stress_12bis	"POPTR_0014s02550.1"	1911	"	"A/G"	"51,7/48,3"	"30/28"	58
controllo_3	"POPTR_0014s02550.1"	1911	"	"G/A"	"54,8/45,2"	"92/76"	168	stress_42	"POPTR_0014s02550.1"	1911	"	"A/G"	"53,8/46,2"	"50/43"	93
controllo_3	"POPTR_0014s02550.1"	1911	"	"G/A"	"54,8/45,2"	"92/76"	168	stress_45	"POPTR_0014s02550.1"	1911	"	"A/G"	"54,8/45,2"	"57/47"	104
controllo_3	"POPTR_0014s10260.1"	414	"	"A/G"	"54,8/45,2"	"114/94"	208	stress_12bis	"POPTR_0014s10260.1"	414	"	"A/G"	"51,0/49,0"	"25/24"	49
controllo_3	"POPTR_0014s10260.1"	414	"	"A/G"	"54,8/45,2"	"114/94"	208	stress_42	"POPTR_0014s10260.1"	414	"	"A/G"	"61,9/38,1"	"13/8"	21
controllo_3	"POPTR_0014s10260.1"	414	"	"A/G"	"54,8/45,2"	"114/94"	208	stress_45	"POPTR_0014s10260.1"	414	"	"A/G"	"52,9/47,1"	"18/16"	34
controllo_3	"POPTR_0004s17610.1"	441	"	"A/G"	"54,8/45,2"	"85/70"	155	stress_12bis	"POPTR_0004s17610.1"	441	"	"A/G"	"64,8/35,2"	"68/37"	105
controllo_3	"POPTR_0004s17610.1"	441	"	"A/G"	"54,8/45,2"	"85/70"	155	stress_42	"POPTR_0004s17610.1"	441	"	"A/G"	"60,8/39,2"	"186/120"	306
controllo_3	"POPTR_0004s17610.1"	441	"	"A/G"	"54,8/45,2"	"85/70"	155	stress_45	"POPTR_0004s17610.1"	441	"	"A/G"	"61,3/38,7"	"201/127"	328
controllo_3	"POPTR_0009s05840.1"	405	"	"C/T"	"54,8/45,2"	"109/90"	199	stress_12bis	"POPTR_0009s05840.1"	405	"	"T/C"	"62,5/37,5"	"15/9"	24
controllo_3	"POPTR_0009s05840.1"	405	"	"C/T"	"54,8/45,2"	"109/90"	199	stress_42	"POPTR_0009s05840.1"	405	"	"T/C"	"70,4/29,6"	"50/21"	71
controllo_3	"POPTR_0009s05840.1"	405	"	"C/T"	"54,8/45,2"	"109/90"	199	stress_45	"POPTR_0009s05840.1"	405	"	"T/C"	"61,7/38,3"	"87/54"	141
controllo_3	"POPTR_0009s01470.1"	357	"	"G/A"	"54,8/45,2"	"69/57"	126	stress_12bis	"POPTR_0009s01470.1"	357	"	"G/A"	"52,5/47,5"	"21/19"	40
controllo_3	"POPTR_0009s01470.1"	357	"	"G/A"	"54,8/45,2"	"69/57"	126	stress_42	"POPTR_0009s01470.1"	357	"	"A/G"	"70,0/30,0"	"7/3"	10
controllo_3	"POPTR_0009s01470.1"	357	"	"G/A"	"54,8/45,2"	"69/57"	126	stress_45	"POPTR_0009s01470.1"	357	"	"A/G"	"56,7/43,3"	"17/13"	30
controllo_3	"POPTR_0012s09570.1"	804	"	"C/T"	"54,8/45,2"	"265/219"	484	stress_12bis	"POPTR_0012s09570.1"	804	"	"C/T"	"57,6/42,4"	"34/25"	59
controllo_3	"POPTR_0012s09570.1"	804	"	"C/T"	"54,8/45,2"	"265/219"	484	stress_42	"POPTR_0012s09570.1"	804	"	"T/C"	"53,8/46,2"	"57/49"	106
controllo_3	"POPTR_0012s09570.1"	804	"	"C/T"	"54,8/45,2"	"265/219"	484	stress_45	"POPTR_0012s09570.1"	804	"	"C/T"	"51,1/48,9"	"95/91"	186
controllo_3	"POPTR_0001s12970.1"	1749	"	"G/T"	"54,8/45,2"	"57/47"	104	stress_12bis	"POPTR_0001s12970.1"	1749	"	"T/G"	"58,3/41,7"	"28/20"	48
controllo_3	"POPTR_0001s12970.1"	1749	"	"G/T"	"54,8/45,2"	"57/47"	104	stress_42	"POPTR_0001s12970.1"	1749	"	"T/G"	"70,6/29,4"	"12/5"	17
controllo_3	"POPTR_0001s12970.1"	1749	"	"G/T"	"54,8/45,2"	"57/47"	104	stress_45	"POPTR_0001s12970.1"	1749	"	"G/T"	"61,1/38,9"	"11/7"	18
controllo_3	"POPTR_0001s07870.1"	1188	"	"G/A"	"54,8/45,2"	"68/56"	124	stress_12bis	"POPTR_0001s07870.1"	1188	"	"G/A"	"63,0/37,0"	"17/10"	27
controllo_3	"POPTR_0001s07870.1"	1188	"	"G/A"	"54,8/45,2"	"68/56"	124	stress_42	"POPTR_0001s07870.1"	1188	"	"G/A"	"70,0/30,0"	"14/6"	20
controllo_3	"POPTR_0001s07870.1"	1188	"	"G/A"	"54,8/45,2"	"68/56"	124	stress_45	"POPTR_0001s07870.1"	1188	"	"G/A"	"70,7/29,3"	"29/12"	41
controllo_3	"POPTR_0010s25500.1"	468	"	"T/C"	"54,8/45,2"	"159/131"	290	stress_12bis	"POPTR_0010s25500.1"	468	"	"C/T"	"55,2/44,8"	"37/30"	67
controllo_3	"POPTR_0010s25500.1"	468	"	"T/C"	"54,8/45,2"	"159/131"	290	stress_42	"POPTR_0010s25500.1"	468	"	"C/T"	"74,2/25,8"	"23/8"	31
controllo_3	"POPTR_0010s25500.1"	468	"	"T/C"	"54,8/45,2"	"159/131"	290	stress_45	"POPTR_0010s25500.1"	468	"	"C/T"	"81,0/19,0"	"17/4"	21
controllo_3	"POPTR_0010s03010.1"	718	"	"T/A"	"54,8/45,2"	"91/75"	166	stress_12bis	"POPTR_0010s03010.1"	718	"	"T/A"	"65,0/35,0"	"26/14"	40
controllo_3	"POPTR_0010s03010.1"	718	"	"T/A"	"54,8/45,2"	"91/75"	166	stress_45	"POPTR_0010s03010.1"	718	"	"T/A"	"52,6/47,4"	"10/9"	19
controllo_3	"POPTR_0007s02460.1"	498	"	"C/G"	"54,8/45,2"	"57/47"	104	stress_12bis	"POPTR_0007s02460.1"	498	"	"C/G"	"51,4/48,6"	"18/17"	35
controllo_3	"POPTR_0007s02460.1"	498	"	"C/G"	"54,8/45,2"	"57/47"	104	stress_42	"POPTR_0007s02460.1"	498	"	"G/C"	"54,5/45,5"	"18/15"	33
controllo_3	"POPTR_0007s02460.1"	498	"	"C/G"	"54,8/45,2"	"57/47"	104	stress_45	"POPTR_0007s02460.1"	498	"	"G/C"	"57,1/42,9"	"16/12"	28
controllo_3	"POPTR_0002s18510.1"	223	"	"C/T"	"54,8/45,2"	"80/66"	146	stress_12bis	"POPTR_0002s18510.1"	223	"	"C/T"	"52,4/47,6"	"33/30"	63
controllo_3	"POPTR_0002s18510.1"	223	"	"C/T"	"54,8/45,2"	"80/66"	146	stress_42	"POPTR_0002s18510.1"	223	"	"C/T"	"65,6/34,4"	"21/11"	32
controllo_3	"POPTR_0002s18510.1"	223	"	"C/T"	"54,8/45,2"	"80/66"	146	stress_45	"POPTR_0002s18510.1"	223	"	"C/T"	"69,8/30,2"	"37/16"	53
controllo_3	"POPTR_0002s07390.1"	122	"	"A/G"	"54,8/45,2"	"63/52"	115	stress_12bis	"POPTR_0002s07390.1"	122	"	"A/G"	"80,0/20,0"	"16/4"	20
controllo_3	"POPTR_0002s05840.1"	600	"	"G/A"	"54,8/45,2"	"114/94"	208	stress_12bis	"POPTR_0002s05840.1"	600	"	"G/A"	"55,6/44,4"	"35/28"	63
controllo_3	"POPTR_0002s05840.1"	600	"	"G/A"	"54,8/45,2"	"114/94"	208	stress_42	"POPTR_0002s05840.1"	600	"	"G/A"	"65,6/34,4"	"82/43"	125
controllo_3	"POPTR_0002s05840.1"	600	"	"G/A"	"54,8/45,2"	"114/94"	208	stress_45	"POPTR_0002s05840.1"	600	"	"G/A"	"66,0/33,3"	"107/54"	162
controllo_3	"POPTR_0008s15930.1"	810	"	"A/T"	"54,8/45,2"	"57/47"	104	stress_12bis	"POPTR_0008s15930.1"	810	"	"A/T"	"57,1/42,9"	"8/6"	14
controllo_3	"POPTR_0008s15930.1"	810	"	"A/T"	"54,8/45,2"	"57/47"	104	stress_42	"POPTR_0008s15930.1"	810	"	"A/T"	"65,4/34,6"	"17/9"	26
controllo_3	"POPTR_0008s15930.1"	810	"	"A/T"	"54,8/45,2"	"57/47"	104	stress_45	"POPTR_0008s15930.1"	810	"	"A/T"	"70,2/29,8"	"33/14"	47
controllo_3	"POPTR_0016s03630.1"	3993	"	"G/A"	"54,8/45,2"	"142/117"	259	stress_12bis	"POPTR_0016s03630.1"	3993	"	"G/A"	"58,3/41,7"	"35/25"	60
controllo_3	"POPTR_0016s03630.1"	3993	"	"G/A"	"54,8/45,2"	"142/117"	259	stress_42	"POPTR_0016s03630.1"	3993	"	"A/G"	"70,0/30,0"	"7/3"	10
controllo_3	"POPTR_0016s03630.1"	3993	"	"G/A"	"54,8/45,2"	"142/117"	259	stress_45	"POPTR_0016s03630.1"	3993	"	"G/A"	"68,8/31,2"	"11/5"	16
controllo_3	"POPTR_0007s06620.1"	756	"	"T/A"	"54,9/44,7"	"113/92"	206	stress_12bis	"POPTR_0007s06620.1"	756	"	"T/A"	"54,5/45,5"	"24/20"	44
controllo_3	"POPTR_0007s06620.1"	756	"	"T/A"	"54,9/44,7"	"113/92"	206	stress_45	"POPTR_0007s06620.1"	756	"	"A/T"	"60,0/40,0"	"9/6"	15
controllo_3	"POPTR_0002s04790.1"	741	"	"G/T"	"54,9/44,7"	"124/101"	226	stress_12bis	"POPTR_0002s04790.1"	741	"	"T/G"	"50,7/49,3"	"34/33"	67
controllo_3	"POPTR_0002s04790.1"	741	"	"G/T"	"54,9/44,7"	"124/101"	226	stress_42	"POPTR_0002s04790.1"	741	"	"T/G"	"66,7/33,3"	"10/5"	15
controllo_3	"POPTR_0002s04790.1"	741	"	"G/T"	"54,9/44,7"	"124/101"	226	stress_45	"POPTR_0002s04790.1"	741	"	"T/G"	"68,4/31,6"	"13/6"	19
controllo_3	"POPTR_0006s14400.1"	231	"	"G/A"	"54,9/45,0"	"910/746"	1657	stress_12bis	"POPTR_0006s14400.1"	231	"	"G/A"	"59,3/40,7"	"256/176"	432
controllo_3	"POPTR_0006s14400.1"	231	"	"G/A"	"54,9/45,0"	"910/746"	1657	stress_42	"POPTR_0006s14400.1"	231	"	"A/G"	"73,1/26,7"	"438/160"	599
controllo_3	"POPTR_0006s14400.1"	231	"	"G/A"	"54,9/45,0"	"910/746"	1657	stress_45	"POPTR_0006s14400.1"	231	"	"A/G"	"77,0/23,0"	"772/231"	1003
controllo_3	"POPTR_0004s16920.1"	1030	"	"T/C"	"54,9/45,0"	"4055/3322"	7380	stress_12bis	"POPTR_0004s16920.1"	1030	"	"T/C"	"53,3/46,6"	"1130/988"	2119
controllo_3	"POPTR_0004s16920.1"	1030	"	"T/C"	"54,9/45,0"	"4055/3322"	7380	stress_42	"POPTR_0004s16920.1"	1030	"	"C/T"	"60,4/39,6"	"163/107"	270
controllo_3	"POPTR_0004s16920.1"	1030	"	"T/C"	"54,9/45,0"	"4055/3322"	7380	stress_45	"POPTR_0004s16920.1"	1030	"	"C/T"	"59,8/40,2"	"205/138"	343
controllo_3	"POPTR_0005s27240.1"	1986	"	"T/C"	"54,9/45,1"	"67/55"	122	stress_12bis	"POPTR_0005s27240.1"	1986	"	"T/C"	"72,3/27,7"	"73/28"	101
controllo_3	"POPTR_0005s27240.1"	1986	"	"T/C"	"54,9/45,1"	"67/55"	122	stress_42	"POPTR_0005s27240.1"	1986	"	"T/C"	"54,5/45,5"	"12/10"	22
controllo_3	"POPTR_0005s27240.1"	1986	"	"T/C"	"54,9/45,1"	"67/55"	122	stress_45	"POPTR_0005s27240.1"	1986	"	"T/C"	"72,7/27,3"	"32/12"	44
controllo_3	"POPTR_0005s06460.1"	429	"	"A/G"	"54,9/45,1"	"90/74"	164	stress_12bis	"POPTR_0005s06460.1"	429	"	"A/G"	"54,1/45,9"	"33/28"	61
controllo_3	"POPTR_0005s06460.1"	429	"	"A/G"	"54,9/45,1"	"90/74"	164	stress_42	"POPTR_0005s06460.1"	429	"	"A/G"	"70,0/30,0"	"28/12"	40
controllo_3	"POPTR_0005s06460.1"	429	"	"A/G"	"54,9/45,1"	"90/74"	164	stress_45	"POPTR_0005s06460.1"	429	"	"A/G"	"60,0/40,0"	"18/12"	30
controllo_3	"POPTR_0005s05980.1"	339	"	"A/G"	"54,9/45,1"	"73/60"	133	stress_12bis	"POPTR_0005s05980.1"	339	"	"A/G"	"55,0/45,0"	"33/27"	60
controllo_3	"POPTR_0005s05980.1"	339	"	"A/G"	"54,9/45,1"	"73/60"	133	stress_42	"POPTR_0005s05980.1"	339	"	"A/G"	"58,3/41,7"	"21/15"	36
controllo_3	"POPTR_0005s05980.1"	339	"	"A/G"	"54,9/45,1"	"73/60"	133	stress_45	"POPTR_0005s05980.1"	339	"	"G/A"	"61,9/38,1"	"26/16"	42
controllo_3	"POPTR_0006s14630.1"	104	"	"C/A"	"54,9/45,1"	"201/165"	366	stress_12bis	"POPTR_0006s14630.1"	104	"	"C/A"	"51,9/48,1"	"55/51"	106
controllo_3	"POPTR_0006s14630.1"	104	"	"C/A"	"54,9/45,1"	"201/165"	366	stress_42	"POPTR_0006s14630.1"	104	"	"C/A"	"60,4/39,6"	"29/19"	48
controllo_3	"POPTR_0006s14630.1"	104	"	"C/A"	"54,9/45,1"	"201/165"	366	stress_45	"POPTR_0006s14630.1"	104	"	"C/A"	"53,8/46,2"	"21/18"	39
controllo_3	"POPTR_0006s28990.1"	1656	"	"G/A"	"54,9/45,1"	"167/137"	304	stress_12bis	"POPTR_0006s28990.1"	1656	"	"G/A"	"50,9/49,1"	"27/26"	53
controllo_3	"POPTR_0006s28990.1"	1656	"	"G/A"	"54,9/45,1"	"167/137"	304	stress_42	"POPTR_0006s28990.1"	1656	"	"G/A"	"60,2/39,8"	"65/43"	108
controllo_3	"POPTR_0006s28990.1"	1656	"	"G/A"	"54,9/45,1"	"167/137"	304	stress_45	"POPTR_0006s28990.1"	1656	"	"A/G"	"50,4/49,6"	"68/67"	135
controllo_3	"POPTR_0006s19870.1"	45	"	"A/C"	"54,9/45,1"	"141/116"	257	stress_12bis	"POPTR_0006s19870.1"	45	"	"A/C"	"58,4/41,6"	"45/32"	77
controllo_3	"POPTR_0006s19870.1"	45	"	"A/C"	"54,9/45,1"	"141/116"	257	stress_42	"POPTR_0006s19870.1"	45	"	"A/C"	"57,7/42,3"	"71/52"	123
controllo_3	"POPTR_0006s19870.1"	45	"	"A/C"	"54,9/45,1"	"141/116"	257	stress_45	"POPTR_0006s19870.1"	45	"	"A/C"	"62,2/37,8"	"74/45"	119
controllo_3	"POPTR_0004s04550.1"	820	"	"C/A"	"54,9/45,1"	"113/93"	206	stress_12bis	"POPTR_0004s04550.1"	820	"	"C/A"	"57,6/42,4"	"53/39"	92
controllo_3	"POPTR_0004s04550.1"	820	"	"C/A"	"54,9/45,1"	"113/93"	206	stress_42	"POPTR_0004s04550.1"	820	"	"C/A"	"51,4/48,6"	"18/17"	35
controllo_3	"POPTR_0004s04550.1"	820	"	"C/A"	"54,9/45,1"	"113/93"	206	stress_45	"POPTR_0004s04550.1"	820	"	"A/C"	"54,5/45,5"	"18/15"	33
controllo_3	"POPTR_0009s12420.1"	951	"	"T/C"	"54,9/45,1"	"67/55"	122	stress_12bis	"POPTR_0009s12420.1"	951	"	"C/T"	"54,3/45,7"	"19/16"	35
controllo_3	"POPTR_0009s12420.1"	951	"	"T/C"	"54,9/45,1"	"67/55"	122	stress_42	"POPTR_0009s12420.1"	951	"	"C/T"	"60,9/39,1"	"98/63"	161
controllo_3	"POPTR_0009s12420.1"	951	"	"T/C"	"54,9/45,1"	"67/55"	122	stress_45	"POPTR_0009s12420.1"	951	"	"C/T"	"52,4/47,6"	"86/78"	164
controllo_3	"POPTR_0009s01320.1"	1737	"	"G/T"	"54,9/45,1"	"185/152"	337	stress_12bis	"POPTR_0009s01320.1"	1737	"	"G/T"	"57,0/43,0"	"184/139"	323
controllo_3	"POPTR_0009s01320.1"	1737	"	"G/T"	"54,9/45,1"	"185/152"	337	stress_42	"POPTR_0009s01320.1"	1737	"	"G/T"	"59,4/40,6"	"281/192"	473
controllo_3	"POPTR_0009s01320.1"	1737	"	"G/T"	"54,9/45,1"	"185/152"	337	stress_45	"POPTR_0009s01320.1"	1737	"	"G/T"	"58,6/41,4"	"249/176"	425
controllo_3	"POPTR_0009s08520.1"	53	"	"C/G"	"54,9/45,1"	"252/207"	459	stress_12bis	"POPTR_0009s08520.1"	53	"	"C/G"	"57,6/42,4"	"106/78"	184
controllo_3	"POPTR_0009s08520.1"	53	"	"C/G"	"54,9/45,1"	"252/207"	459	stress_42	"POPTR_0009s08520.1"	53	"	"G/C"	"52,2/47,8"	"12/11"	23
controllo_3	"POPTR_0009s08520.1"	53	"	"C/G"	"54,9/45,1"	"252/207"	459	stress_45	"POPTR_0009s08520.1"	53	"	"G/C"	"61,9/38,1"	"13/8"	21
controllo_3	"POPTR_0009s09240.1"	636	"	"G/A"	"54,9/45,1"	"89/73"	162	stress_12bis	"POPTR_0009s09240.1"	636	"	"G/A"	"64,6/35,4"	"42/23"	65
controllo_3	"POPTR_0009s09240.1"	636	"	"G/A"	"54,9/45,1"	"89/73"	162	stress_42	"POPTR_0009s09240.1"	636	"	"G/A"	"60,0/40,0"	"9/6"	15
controllo_3	"POPTR_0009s09240.1"	636	"	"G/A"	"54,9/45,1"	"89/73"	162	stress_45	"POPTR_0009s09240.1"	636	"	"A/G"	"57,9/42,1"	"11/8"	19
controllo_3	"POPTR_0009s11920.1"	477	"	"C/A"	"54,9/45,1"	"101/83"	184	stress_12bis	"POPTR_0009s11920.1"	477	"	"C/A"	"55,6/44,4"	"25/20"	45
controllo_3	"POPTR_0009s11920.1"	477	"	"C/A"	"54,9/45,1"	"101/83"	184	stress_42	"POPTR_0009s11920.1"	477	"	"C/A"	"56,9/43,1"	"41/31"	72
controllo_3	"POPTR_0009s11920.1"	477	"	"C/A"	"54,9/45,1"	"101/83"	184	stress_45	"POPTR_0009s11920.1"	477	"	"C/A"	"55,7/44,3"	"59/47"	106
controllo_3	"POPTR_0012s06320.1"	2901	"	"A/G"	"54,9/45,1"	"62/51"	113	stress_12bis	"POPTR_0012s06320.1"	2901	"	"A/G"	"50,0/50,0"	"19/19"	38
controllo_3	"POPTR_0012s06320.1"	2901	"	"A/G"	"54,9/45,1"	"62/51"	113	stress_42	"POPTR_0012s06320.1"	2901	"	"A/G"	"52,6/47,4"	"30/27"	57
controllo_3	"POPTR_0012s06320.1"	2901	"	"A/G"	"54,9/45,1"	"62/51"	113	stress_45	"POPTR_0012s06320.1"	2901	"	"A/G"	"64,5/35,5"	"49/27"	76
controllo_3	"POPTR_0015s13500.1"	393	"	"C/T"	"54,9/45,1"	"56/46"	102	stress_12bis	"POPTR_0015s13500.1"	393	"	"T/C"	"54,1/45,9"	"20/17"	37
controllo_3	"POPTR_0015s13500.1"	393	"	"C/T"	"54,9/45,1"	"56/46"	102	stress_42	"POPTR_0015s13500.1"	393	"	"C/T"	"65,5/34,5"	"19/10"	29
controllo_3	"POPTR_0015s13500.1"	393	"	"C/T"	"54,9/45,1"	"56/46"	102	stress_45	"POPTR_0015s13500.1"	393	"	"C/T"	"64,6/35,4"	"31/17"	48
controllo_3	"POPTR_0015s11940.1"	195	"	"A/G"	"54,9/45,1"	"100/82"	182	stress_12bis	"POPTR_0015s11940.1"	195	"	"A/G"	"57,6/42,4"	"38/28"	66
controllo_3	"POPTR_0015s11940.1"	195	"	"A/G"	"54,9/45,1"	"100/82"	182	stress_42	"POPTR_0015s11940.1"	195	"	"A/G"	"67,7/32,3"	"21/10"	31
controllo_3	"POPTR_0015s11940.1"	195	"	"A/G"	"54,9/45,1"	"100/82"	182	stress_45	"POPTR_0015s11940.1"	195	"	"A/G"	"55,6/44,4"	"15/12"	27
controllo_3	"POPTR_0001s12630.1"	222	"	"T/C"	"54,9/45,1"	"95/78"	173	stress_12bis	"POPTR_0001s12630.1"	222	"	"C/T"	"50,0/50,0"	"32/32"	64
controllo_3	"POPTR_0001s12630.1"	222	"	"T/C"	"54,9/45,1"	"95/78"	173	stress_42	"POPTR_0001s12630.1"	222	"	"C/T"	"55,9/44,1"	"66/52"	118
controllo_3	"POPTR_0001s12630.1"	222	"	"T/C"	"54,9/45,1"	"95/78"	173	stress_45	"POPTR_0001s12630.1"	222	"	"T/C"	"53,8/45,5"	"71/60"	132
controllo_3	"POPTR_0001s29350.1"	366	"	"C/T"	"54,9/45,1"	"56/46"	102	stress_12bis	"POPTR_0001s29350.1"	366	"	"C/T"	"76,0/24,0"	"19/6"	25
controllo_3	"POPTR_0001s29350.1"	366	"	"C/T"	"54,9/45,1"	"56/46"	102	stress_45	"POPTR_0001s29350.1"	366	"	"C/T"	"66,7/33,3"	"18/9"	27
controllo_3	"POPTR_0001s07870.1"	1134	"	"T/G"	"54,9/45,1"	"62/51"	113	stress_12bis	"POPTR_0001s07870.1"	1134	"	"T/G"	"63,2/36,8"	"12/7"	19
controllo_3	"POPTR_0001s07870.1"	1134	"	"T/G"	"54,9/45,1"	"62/51"	113	stress_42	"POPTR_0001s07870.1"	1134	"	"T/G"	"62,5/37,5"	"10/6"	16
controllo_3	"POPTR_0001s07870.1"	1134	"	"T/G"	"54,9/45,1"	"62/51"	113	stress_45	"POPTR_0001s07870.1"	1134	"	"T/G"	"57,1/42,9"	"16/12"	28
controllo_3	"POPTR_0001s21140.1"	798	"	"G/A"	"54,9/45,1"	"253/208"	461	stress_12bis	"POPTR_0001s21140.1"	798	"	"G/A"	"55,7/44,3"	"68/54"	122
controllo_3	"POPTR_0001s21140.1"	798	"	"G/A"	"54,9/45,1"	"253/208"	461	stress_42	"POPTR_0001s21140.1"	798	"	"G/A"	"64,5/35,5"	"20/11"	31
controllo_3	"POPTR_0001s21140.1"	798	"	"G/A"	"54,9/45,1"	"253/208"	461	stress_45	"POPTR_0001s21140.1"	798	"	"G/A"	"62,5/37,5"	"15/9"	24
controllo_3	"POPTR_0010s07730.1"	114	"	"G/A"	"54,9/45,1"	"370/304"	674	stress_12bis	"POPTR_0010s07730.1"	114	"	"A/G"	"50,9/49,1"	"141/136"	277
controllo_3	"POPTR_0010s07730.1"	114	"	"G/A"	"54,9/45,1"	"370/304"	674	stress_42	"POPTR_0010s07730.1"	114	"	"G/A"	"59,6/40,4"	"53/36"	89
controllo_3	"POPTR_0010s07730.1"	114	"	"G/A"	"54,9/45,1"	"370/304"	674	stress_45	"POPTR_0010s07730.1"	114	"	"G/A"	"52,4/47,6"	"44/40"	84
controllo_3	"POPTR_0010s13620.1"	302	"	"C/T"	"54,9/45,1"	"79/65"	144	stress_12bis	"POPTR_0010s13620.1"	302	"	"C/T"	"66,7/33,3"	"12/6"	18
controllo_3	"POPTR_0010s13620.1"	302	"	"C/T"	"54,9/45,1"	"79/65"	144	stress_42	"POPTR_0010s13620.1"	302	"	"C/T"	"77,8/22,2"	"21/6"	27
controllo_3	"POPTR_0010s13620.1"	302	"	"C/T"	"54,9/45,1"	"79/65"	144	stress_45	"POPTR_0010s13620.1"	302	"	"C/T"	"56,4/43,6"	"31/24"	55
controllo_3	"POPTR_0010s21700.1"	642	"	"G/T"	"54,9/45,1"	"117/96"	213	stress_42	"POPTR_0010s21700.1"	642	"	"T/G"	"54,5/45,5"	"30/25"	55
controllo_3	"POPTR_0010s21700.1"	642	"	"G/T"	"54,9/45,1"	"117/96"	213	stress_45	"POPTR_0010s21700.1"	642	"	"G/T"	"63,0/37,0"	"17/10"	27
controllo_3	"POPTR_0007s08400.1"	1473	"	"G/C"	"54,9/45,1"	"218/179"	397	stress_12bis	"POPTR_0007s08400.1"	1473	"	"C/G"	"53,1/46,9"	"78/69"	147
controllo_3	"POPTR_0007s08400.1"	1473	"	"G/C"	"54,9/45,1"	"218/179"	397	stress_42	"POPTR_0007s08400.1"	1473	"	"G/C"	"66,2/33,8"	"92/47"	139
controllo_3	"POPTR_0007s08400.1"	1473	"	"G/C"	"54,9/45,1"	"218/179"	397	stress_45	"POPTR_0007s08400.1"	1473	"	"G/C"	"53,9/46,1"	"158/135"	293
controllo_3	"POPTR_0008s12550.1"	870	"	"C/T"	"54,9/45,1"	"89/73"	162	stress_12bis	"POPTR_0008s12550.1"	870	"	"T/C"	"55,8/44,2"	"24/19"	43
controllo_3	"POPTR_0008s12550.1"	870	"	"C/T"	"54,9/45,1"	"89/73"	162	stress_42	"POPTR_0008s12550.1"	870	"	"C/T"	"55,6/44,4"	"30/24"	54
controllo_3	"POPTR_0008s12550.1"	870	"	"C/T"	"54,9/45,1"	"89/73"	162	stress_45	"POPTR_0008s12550.1"	870	"	"T/C"	"61,7/38,3"	"58/36"	94
controllo_3	"POPTR_0008s19960.1"	1371	"	"A/G"	"54,9/45,1"	"90/74"	164	stress_12bis	"POPTR_0008s19960.1"	1371	"	"A/G"	"55,6/44,4"	"15/12"	27
controllo_3	"POPTR_0016s09280.1"	1824	"	"T/G"	"54,9/45,1"	"67/55"	122	stress_12bis	"POPTR_0016s09280.1"	1824	"	"T/G"	"54,3/45,7"	"19/16"	35
controllo_3	"POPTR_0016s09280.1"	1824	"	"T/G"	"54,9/45,1"	"67/55"	122	stress_42	"POPTR_0016s09280.1"	1824	"	"T/G"	"51,6/48,4"	"16/15"	31
controllo_3	"POPTR_0016s09280.1"	1824	"	"T/G"	"54,9/45,1"	"67/55"	122	stress_45	"POPTR_0016s09280.1"	1824	"	"G/T"	"51,9/48,1"	"27/25"	52
controllo_3	"POPTR_0011s12440.1"	381	"	"T/G"	"55,0/44,4"	"94/76"	171	stress_12bis	"POPTR_0011s12440.1"	381	"	"T/G"	"57,3/42,7"	"47/35"	82
controllo_3	"POPTR_0011s12440.1"	381	"	"T/G"	"55,0/44,4"	"94/76"	171	stress_42	"POPTR_0011s12440.1"	381	"	"G/T"	"56,0/44,0"	"14/11"	25
controllo_3	"POPTR_0011s12440.1"	381	"	"T/G"	"55,0/44,4"	"94/76"	171	stress_45	"POPTR_0011s12440.1"	381	"	"T/G"	"59,1/40,9"	"13/9"	22
controllo_3	"POPTR_0005s26930.1"	279	"	"T/C"	"55,0/45,0"	"142/116"	258	stress_12bis	"POPTR_0005s26930.1"	279	"	"T/C"	"58,4/41,6"	"45/32"	77
controllo_3	"POPTR_0005s26930.1"	279	"	"T/C"	"55,0/45,0"	"142/116"	258	stress_42	"POPTR_0005s26930.1"	279	"	"T/C"	"56,2/43,8"	"18/14"	32
controllo_3	"POPTR_0005s26930.1"	279	"	"T/C"	"55,0/45,0"	"142/116"	258	stress_45	"POPTR_0005s26930.1"	279	"	"T/C"	"66,7/33,3"	"22/11"	33
controllo_3	"POPTR_0005s00910.1"	513	"	"C/A"	"55,0/45,0"	"93/76"	169	stress_12bis	"POPTR_0005s00910.1"	513	"	"C/A"	"51,1/48,9"	"24/23"	47
controllo_3	"POPTR_0005s00910.1"	513	"	"C/A"	"55,0/45,0"	"93/76"	169	stress_42	"POPTR_0005s00910.1"	513	"	"C/A"	"61,9/38,1"	"39/24"	63
controllo_3	"POPTR_0005s00910.1"	513	"	"C/A"	"55,0/45,0"	"93/76"	169	stress_45	"POPTR_0005s00910.1"	513	"	"C/A"	"58,3/41,7"	"28/20"	48
controllo_3	"POPTR_0005s10440.1"	357	"	"T/C"	"55,0/45,0"	"104/85"	189	stress_12bis	"POPTR_0005s10440.1"	357	"	"T/C"	"51,3/48,7"	"20/19"	39
controllo_3	"POPTR_0005s10440.1"	357	"	"T/C"	"55,0/45,0"	"104/85"	189	stress_42	"POPTR_0005s10440.1"	357	"	"C/T"	"55,8/44,2"	"24/19"	43
controllo_3	"POPTR_0005s10440.1"	357	"	"T/C"	"55,0/45,0"	"104/85"	189	stress_45	"POPTR_0005s10440.1"	357	"	"T/C"	"53,4/46,6"	"31/27"	58
controllo_3	"POPTR_0006s08850.1"	119	"	"C/T"	"55,0/45,0"	"311/254"	565	stress_12bis	"POPTR_0006s08850.1"	119	"	"C/T"	"65,3/34,7"	"96/51"	147
controllo_3	"POPTR_0006s08850.1"	119	"	"C/T"	"55,0/45,0"	"311/254"	565	stress_42	"POPTR_0006s08850.1"	119	"	"C/T"	"62,0/38,0"	"44/27"	71
controllo_3	"POPTR_0006s08850.1"	119	"	"C/T"	"55,0/45,0"	"311/254"	565	stress_45	"POPTR_0006s08850.1"	119	"	"C/T"	"59,7/40,3"	"37/25"	62
controllo_3	"POPTR_0006s00620.1"	1281	"	"A/T"	"55,0/45,0"	"77/63"	140	stress_12bis	"POPTR_0006s00620.1"	1281	"	"T/A"	"60,0/40,0"	"15/10"	25
controllo_3	"POPTR_0018s08790.1"	1332	"	"G/C"	"55,0/45,0"	"66/54"	120	stress_12bis	"POPTR_0018s08790.1"	1332	"	"C/G"	"62,5/37,5"	"30/18"	48
controllo_3	"POPTR_0018s08790.1"	1332	"	"G/C"	"55,0/45,0"	"66/54"	120	stress_42	"POPTR_0018s08790.1"	1332	"	"C/G"	"53,3/46,7"	"16/14"	30
controllo_3	"POPTR_0018s08790.1"	1332	"	"G/C"	"55,0/45,0"	"66/54"	120	stress_45	"POPTR_0018s08790.1"	1332	"	"C/G"	"54,0/46,0"	"27/23"	50
controllo_3	"POPTR_0013s12130.1"	357	"	"A/G"	"55,0/45,0"	"66/54"	120	stress_12bis	"POPTR_0013s12130.1"	357	"	"G/A"	"58,6/41,4"	"17/12"	29
controllo_3	"POPTR_0013s12130.1"	357	"	"A/G"	"55,0/45,0"	"66/54"	120	stress_42	"POPTR_0013s12130.1"	357	"	"G/A"	"53,8/46,2"	"7/6"	13
controllo_3	"POPTR_0013s12130.1"	357	"	"A/G"	"55,0/45,0"	"66/54"	120	stress_45	"POPTR_0013s12130.1"	357	"	"G/A"	"58,8/41,2"	"10/7"	17
controllo_3	"POPTR_0013s00930.1"	348	"	"C/T"	"55,0/45,0"	"77/63"	140	stress_12bis	"POPTR_0013s00930.1"	348	"	"C/T"	"67,9/32,1"	"19/9"	28
controllo_3	"POPTR_0013s00930.1"	348	"	"C/T"	"55,0/45,0"	"77/63"	140	stress_42	"POPTR_0013s00930.1"	348	"	"C/T"	"75,0/25,0"	"9/3"	12
controllo_3	"POPTR_0013s00930.1"	348	"	"C/T"	"55,0/45,0"	"77/63"	140	stress_45	"POPTR_0013s00930.1"	348	"	"C/T"	"69,2/30,8"	"9/4"	13
controllo_3	"POPTR_0014s10260.1"	259	"	"G/A"	"55,0/45,0"	"88/72"	160	stress_12bis	"POPTR_0014s10260.1"	259	"	"G/A"	"60,0/40,0"	"24/16"	40
controllo_3	"POPTR_0014s10260.1"	259	"	"G/A"	"55,0/45,0"	"88/72"	160	stress_42	"POPTR_0014s10260.1"	259	"	"G/A"	"63,6/36,4"	"14/8"	22
controllo_3	"POPTR_0014s10260.1"	259	"	"G/A"	"55,0/45,0"	"88/72"	160	stress_45	"POPTR_0014s10260.1"	259	"	"G/A"	"54,5/45,5"	"18/15"	33
controllo_3	"POPTR_0004s16740.1"	66	"	"C/G"	"55,0/45,0"	"71/58"	129	stress_12bis	"POPTR_0004s16740.1"	66	"	"G/C"	"58,6/41,4"	"17/12"	29
controllo_3	"POPTR_0004s16740.1"	66	"	"C/G"	"55,0/45,0"	"71/58"	129	stress_42	"POPTR_0004s16740.1"	66	"	"G/C"	"51,4/48,6"	"18/17"	35
controllo_3	"POPTR_0004s16740.1"	66	"	"C/G"	"55,0/45,0"	"71/58"	129	stress_45	"POPTR_0004s16740.1"	66	"	"C/G"	"55,6/44,4"	"25/20"	45
controllo_3	"POPTR_0009s05840.1"	501	"	"G/C"	"55,0/45,0"	"88/72"	160	stress_12bis	"POPTR_0009s05840.1"	501	"	"G/C"	"58,8/41,2"	"10/7"	17
controllo_3	"POPTR_0009s05840.1"	501	"	"G/C"	"55,0/45,0"	"88/72"	160	stress_42	"POPTR_0009s05840.1"	501	"	"C/G"	"56,1/43,9"	"23/18"	41
controllo_3	"POPTR_0009s05840.1"	501	"	"G/C"	"55,0/45,0"	"88/72"	160	stress_45	"POPTR_0009s05840.1"	501	"	"G/C"	"54,2/45,8"	"64/54"	118
controllo_3	"POPTR_0009s12790.1"	489	"	"C/G"	"55,0/45,0"	"88/72"	160	stress_12bis	"POPTR_0009s12790.1"	489	"	"G/C"	"53,1/46,9"	"26/23"	49
controllo_3	"POPTR_0009s12790.1"	489	"	"C/G"	"55,0/45,0"	"88/72"	160	stress_42	"POPTR_0009s12790.1"	489	"	"C/G"	"58,7/41,3"	"27/19"	46
controllo_3	"POPTR_0009s12790.1"	489	"	"C/G"	"55,0/45,0"	"88/72"	160	stress_45	"POPTR_0009s12790.1"	489	"	"C/G"	"55,3/44,7"	"21/17"	38
controllo_3	"POPTR_0009s08520.1"	96	"	"T/C"	"55,0/45,0"	"294/241"	535	stress_12bis	"POPTR_0009s08520.1"	96	"	"T/C"	"57,3/42,7"	"134/100"	234
controllo_3	"POPTR_0009s08520.1"	96	"	"T/C"	"55,0/45,0"	"294/241"	535	stress_42	"POPTR_0009s08520.1"	96	"	"T/C"	"58,8/41,2"	"10/7"	17
controllo_3	"POPTR_0009s08520.1"	96	"	"T/C"	"55,0/45,0"	"294/241"	535	stress_45	"POPTR_0009s08520.1"	96	"	"T/C"	"63,6/36,4"	"14/8"	22
controllo_3	"POPTR_0009s05790.1"	100	"	"G/T"	"55,0/45,0"	"66/54"	120	stress_12bis	"POPTR_0009s05790.1"	100	"	"G/T"	"77,3/22,7"	"17/5"	22
controllo_3	"POPTR_0009s05790.1"	100	"	"G/T"	"55,0/45,0"	"66/54"	120	stress_45	"POPTR_0009s05790.1"	100	"	"G/T"	"76,9/23,1"	"10/3"	13
controllo_3	"POPTR_0009s01470.1"	943	"	"C/G"	"55,0/45,0"	"104/85"	189	stress_12bis	"POPTR_0009s01470.1"	943	"	"G/C"	"51,7/48,3"	"30/28"	58
controllo_3	"POPTR_0009s01470.1"	943	"	"C/G"	"55,0/45,0"	"104/85"	189	stress_42	"POPTR_0009s01470.1"	943	"	"C/G"	"70,8/29,2"	"17/7"	24
controllo_3	"POPTR_0009s01470.1"	943	"	"C/G"	"55,0/45,0"	"104/85"	189	stress_45	"POPTR_0009s01470.1"	943	"	"C/G"	"62,7/37,3"	"37/22"	59
controllo_3	"POPTR_0009s01470.1"	1193	"	"C/A"	"55,0/45,0"	"104/85"	189	stress_12bis	"POPTR_0009s01470.1"	1193	"	"A/C"	"52,0/48,0"	"26/24"	50
controllo_3	"POPTR_0009s01470.1"	1193	"	"C/A"	"55,0/45,0"	"104/85"	189	stress_42	"POPTR_0009s01470.1"	1193	"	"C/A"	"65,4/34,6"	"17/9"	26
controllo_3	"POPTR_0009s01470.1"	1193	"	"C/A"	"55,0/45,0"	"104/85"	189	stress_45	"POPTR_0009s01470.1"	1193	"	"C/A"	"63,6/36,4"	"35/20"	55
controllo_3	"POPTR_0012s09570.1"	717	"	"T/C"	"55,0/45,0"	"197/161"	358	stress_12bis	"POPTR_0012s09570.1"	717	"	"T/C"	"54,4/45,6"	"31/26"	57
controllo_3	"POPTR_0012s09570.1"	717	"	"T/C"	"55,0/45,0"	"197/161"	358	stress_42	"POPTR_0012s09570.1"	717	"	"T/C"	"60,0/40,0"	"48/32"	80
controllo_3	"POPTR_0012s09570.1"	717	"	"T/C"	"55,0/45,0"	"197/161"	358	stress_45	"POPTR_0012s09570.1"	717	"	"T/C"	"50,9/48,5"	"85/81"	167
controllo_3	"POPTR_0012s11410.1"	582	"	"T/C"	"55,0/45,0"	"82/67"	149	stress_12bis	"POPTR_0012s11410.1"	582	"	"C/T"	"50,0/50,0"	"27/27"	54
controllo_3	"POPTR_0012s11410.1"	582	"	"T/C"	"55,0/45,0"	"82/67"	149	stress_42	"POPTR_0012s11410.1"	582	"	"T/C"	"61,3/38,7"	"19/12"	31
controllo_3	"POPTR_0012s11410.1"	582	"	"T/C"	"55,0/45,0"	"82/67"	149	stress_45	"POPTR_0012s11410.1"	582	"	"C/T"	"57,7/38,5"	"15/10"	26
controllo_3	"POPTR_0001s14320.1"	1062	"	"C/A"	"55,0/45,0"	"155/127"	282	stress_12bis	"POPTR_0001s14320.1"	1062	"	"A/C"	"53,8/46,2"	"14/12"	26
controllo_3	"POPTR_0001s14320.1"	1062	"	"C/A"	"55,0/45,0"	"155/127"	282	stress_42	"POPTR_0001s14320.1"	1062	"	"C/A"	"63,0/37,0"	"34/20"	54
controllo_3	"POPTR_0001s14320.1"	1062	"	"C/A"	"55,0/45,0"	"155/127"	282	stress_45	"POPTR_0001s14320.1"	1062	"	"C/A"	"55,6/44,4"	"99/79"	178
controllo_3	"POPTR_0001s02500.1"	57	"	"G/A"	"55,0/45,0"	"110/90"	200	stress_12bis	"POPTR_0001s02500.1"	57	"	"G/A"	"51,7/48,3"	"15/14"	29
controllo_3	"POPTR_0001s02500.1"	57	"	"G/A"	"55,0/45,0"	"110/90"	200	stress_45	"POPTR_0001s02500.1"	57	"	"A/G"	"70,0/30,0"	"7/3"	10
controllo_3	"POPTR_0001s14310.1"	423	"	"C/T"	"55,0/45,0"	"66/54"	120	stress_42	"POPTR_0001s14310.1"	423	"	"C/T"	"56,2/43,8"	"9/7"	16
controllo_3	"POPTR_0001s14310.1"	423	"	"C/T"	"55,0/45,0"	"66/54"	120	stress_45	"POPTR_0001s14310.1"	423	"	"C/T"	"61,5/38,5"	"48/30"	78
controllo_3	"POPTR_0001s01630.1"	666	"	"C/T"	"55,0/45,0"	"222/182"	404	stress_12bis	"POPTR_0001s01630.1"	666	"	"C/T"	"59,8/40,2"	"61/41"	102
controllo_3	"POPTR_0001s01630.1"	666	"	"C/T"	"55,0/45,0"	"222/182"	404	stress_42	"POPTR_0001s01630.1"	666	"	"C/T"	"63,6/36,4"	"7/4"	11
controllo_3	"POPTR_0001s44690.1"	336	"	"T/C"	"55,0/45,0"	"71/58"	129	stress_12bis	"POPTR_0001s44690.1"	336	"	"T/C"	"52,0/48,0"	"13/12"	25
controllo_3	"POPTR_0001s44690.1"	336	"	"T/C"	"55,0/45,0"	"71/58"	129	stress_42	"POPTR_0001s44690.1"	336	"	"T/C"	"65,4/34,6"	"17/9"	26
controllo_3	"POPTR_0001s44690.1"	336	"	"T/C"	"55,0/45,0"	"71/58"	129	stress_45	"POPTR_0001s44690.1"	336	"	"T/C"	"51,9/48,1"	"14/13"	27
controllo_3	"POPTR_0007s05810.1"	204	"	"G/A"	"55,0/45,0"	"77/63"	140	stress_12bis	"POPTR_0007s05810.1"	204	"	"G/A"	"62,9/37,1"	"22/13"	35
controllo_3	"POPTR_0007s05810.1"	204	"	"G/A"	"55,0/45,0"	"77/63"	140	stress_42	"POPTR_0007s05810.1"	204	"	"G/A"	"73,3/26,7"	"33/12"	45
controllo_3	"POPTR_0007s05810.1"	204	"	"G/A"	"55,0/45,0"	"77/63"	140	stress_45	"POPTR_0007s05810.1"	204	"	"G/A"	"75,9/24,1"	"44/14"	58
controllo_3	"POPTR_0002s18020.1"	84	"	"G/A"	"55,0/45,0"	"72/59"	131	stress_12bis	"POPTR_0002s18020.1"	84	"	"A/G"	"51,7/48,3"	"31/29"	60
controllo_3	"POPTR_0002s18020.1"	84	"	"G/A"	"55,0/45,0"	"72/59"	131	stress_42	"POPTR_0002s18020.1"	84	"	"A/G"	"53,3/46,7"	"24/21"	45
controllo_3	"POPTR_0002s18020.1"	84	"	"G/A"	"55,0/45,0"	"72/59"	131	stress_45	"POPTR_0002s18020.1"	84	"	"G/A"	"53,5/46,5"	"38/33"	71
controllo_3	"POPTR_0002s26190.1"	405	"	"A/T"	"55,0/45,0"	"60/49"	109	stress_12bis	"POPTR_0002s26190.1"	405	"	"T/A"	"54,5/45,5"	"6/5"	11
controllo_3	"POPTR_0002s26190.1"	405	"	"A/T"	"55,0/45,0"	"60/49"	109	stress_42	"POPTR_0002s26190.1"	405	"	"T/A"	"71,4/28,6"	"10/4"	14
controllo_3	"POPTR_0002s26190.1"	405	"	"A/T"	"55,0/45,0"	"60/49"	109	stress_45	"POPTR_0002s26190.1"	405	"	"T/A"	"63,6/36,4"	"14/8"	22
controllo_3	"POPTR_0002s26190.1"	495	"	"A/T"	"55,1/44,2"	"76/61"	138	stress_12bis	"POPTR_0002s26190.1"	495	"	"T/A"	"66,7/33,3"	"10/5"	15
controllo_3	"POPTR_0002s26190.1"	495	"	"A/T"	"55,1/44,2"	"76/61"	138	stress_42	"POPTR_0002s26190.1"	495	"	"T/A"	"64,3/35,7"	"9/5"	14
controllo_3	"POPTR_0002s26190.1"	495	"	"A/T"	"55,1/44,2"	"76/61"	138	stress_45	"POPTR_0002s26190.1"	495	"	"T/A"	"65,2/34,8"	"15/8"	23
controllo_3	"POPTR_0005s05450.1"	1101	"	"A/G"	"55,1/44,3"	"97/78"	176	stress_12bis	"POPTR_0005s05450.1"	1101	"	"G/A"	"57,1/42,9"	"16/12"	28
controllo_3	"POPTR_0005s05450.1"	1101	"	"A/G"	"55,1/44,3"	"97/78"	176	stress_42	"POPTR_0005s05450.1"	1101	"	"A/G"	"58,3/41,7"	"7/5"	12
controllo_3	"POPTR_0005s05450.1"	1101	"	"A/G"	"55,1/44,3"	"97/78"	176	stress_45	"POPTR_0005s05450.1"	1101	"	"A/G"	"65,2/34,8"	"15/8"	23
controllo_3	"POPTR_0007s06620.1"	471	"	"C/T"	"55,1/44,4"	"119/96"	216	stress_12bis	"POPTR_0007s06620.1"	471	"	"C/T"	"67,9/32,1"	"36/17"	53
controllo_3	"POPTR_0007s06620.1"	471	"	"C/T"	"55,1/44,4"	"119/96"	216	stress_42	"POPTR_0007s06620.1"	471	"	"C/T"	"66,7/33,3"	"8/4"	12
controllo_3	"POPTR_0007s06620.1"	471	"	"C/T"	"55,1/44,4"	"119/96"	216	stress_45	"POPTR_0007s06620.1"	471	"	"T/C"	"52,2/47,8"	"12/11"	23
controllo_3	"POPTR_0003s08760.1"	447	"	"C/A"	"55,1/44,5"	"306/247"	555	stress_12bis	"POPTR_0003s08760.1"	447	"	"C/A"	"54,4/45,6"	"74/62"	136
controllo_3	"POPTR_0003s08760.1"	447	"	"C/A"	"55,1/44,5"	"306/247"	555	stress_42	"POPTR_0003s08760.1"	447	"	"C/A"	"77,4/22,6"	"24/7"	31
controllo_3	"POPTR_0003s08760.1"	447	"	"C/A"	"55,1/44,5"	"306/247"	555	stress_45	"POPTR_0003s08760.1"	447	"	"C/A"	"65,4/34,6"	"17/9"	26
controllo_3	"POPTR_0010s26200.1"	358	"	"G/T"	"55,1/44,6"	"247/200"	448	stress_12bis	"POPTR_0010s26200.1"	358	"	"G/T"	"60,9/39,1"	"120/77"	197
controllo_3	"POPTR_0010s26200.1"	358	"	"G/T"	"55,1/44,6"	"247/200"	448	stress_42	"POPTR_0010s26200.1"	358	"	"G/T"	"59,7/40,3"	"40/27"	67
controllo_3	"POPTR_0010s26200.1"	358	"	"G/T"	"55,1/44,6"	"247/200"	448	stress_45	"POPTR_0010s26200.1"	358	"	"G/T"	"74,2/25,8"	"46/16"	62
controllo_3	"POPTR_0010s05170.1"	164	"	"C/T"	"55,1/44,7"	"196/159"	356	stress_12bis	"POPTR_0010s05170.1"	164	"	"C/T"	"56,7/43,3"	"17/13"	30
controllo_3	"POPTR_0005s24650.1"	909	"	"C/A"	"55,1/44,9"	"70/57"	127	stress_12bis	"POPTR_0005s24650.1"	909	"	"C/A"	"60,0/40,0"	"24/16"	40
controllo_3	"POPTR_0005s24650.1"	909	"	"C/A"	"55,1/44,9"	"70/57"	127	stress_42	"POPTR_0005s24650.1"	909	"	"C/A"	"62,2/37,8"	"23/14"	37
controllo_3	"POPTR_0005s24650.1"	909	"	"C/A"	"55,1/44,9"	"70/57"	127	stress_45	"POPTR_0005s24650.1"	909	"	"C/A"	"56,6/43,4"	"30/23"	53
controllo_3	"POPTR_0006s05160.1"	630	"	"C/T"	"55,1/44,9"	"102/83"	185	stress_12bis	"POPTR_0006s05160.1"	630	"	"C/T"	"52,4/47,6"	"33/30"	63
controllo_3	"POPTR_0006s05160.1"	630	"	"C/T"	"55,1/44,9"	"102/83"	185	stress_42	"POPTR_0006s05160.1"	630	"	"C/T"	"66,7/33,3"	"12/6"	18
controllo_3	"POPTR_0006s05160.1"	630	"	"C/T"	"55,1/44,9"	"102/83"	185	stress_45	"POPTR_0006s05160.1"	630	"	"C/T"	"50,0/50,0"	"18/18"	36
controllo_3	"POPTR_0006s00470.1"	1758	"	"C/A"	"55,1/44,9"	"103/84"	187	stress_12bis	"POPTR_0006s00470.1"	1758	"	"A/C"	"74,4/25,6"	"29/10"	39
controllo_3	"POPTR_0006s00470.1"	1758	"	"C/A"	"55,1/44,9"	"103/84"	187	stress_42	"POPTR_0006s00470.1"	1758	"	"A/C"	"50,0/50,0"	"9/9"	18
controllo_3	"POPTR_0006s00470.1"	1758	"	"C/A"	"55,1/44,9"	"103/84"	187	stress_45	"POPTR_0006s00470.1"	1758	"	"A/C"	"62,7/37,3"	"42/25"	67
controllo_3	"POPTR_0006s02810.1"	784	"	"T/C"	"55,1/44,9"	"152/124"	276	stress_12bis	"POPTR_0006s02810.1"	784	"	"T/C"	"60,3/39,7"	"41/27"	68
controllo_3	"POPTR_0006s02810.1"	784	"	"T/C"	"55,1/44,9"	"152/124"	276	stress_42	"POPTR_0006s02810.1"	784	"	"T/C"	"69,2/30,8"	"18/8"	26
controllo_3	"POPTR_0006s02810.1"	784	"	"T/C"	"55,1/44,9"	"152/124"	276	stress_45	"POPTR_0006s02810.1"	784	"	"C/T"	"60,0/40,0"	"18/12"	30
controllo_3	"POPTR_0013s07050.1"	826	"	"A/C"	"55,1/44,9"	"65/53"	118	stress_12bis	"POPTR_0013s07050.1"	826	"	"A/C"	"80,0/20,0"	"20/5"	25
controllo_3	"POPTR_0013s07050.1"	826	"	"A/C"	"55,1/44,9"	"65/53"	118	stress_42	"POPTR_0013s07050.1"	826	"	"A/C"	"66,7/33,3"	"22/11"	33
controllo_3	"POPTR_0013s07050.1"	826	"	"A/C"	"55,1/44,9"	"65/53"	118	stress_45	"POPTR_0013s07050.1"	826	"	"A/C"	"64,2/35,8"	"34/19"	53
controllo_3	"POPTR_0013s03700.1"	74	"	"C/A"	"55,1/44,9"	"59/48"	107	stress_12bis	"POPTR_0013s03700.1"	74	"	"C/A"	"64,5/35,5"	"20/11"	31
controllo_3	"POPTR_0013s03700.1"	74	"	"C/A"	"55,1/44,9"	"59/48"	107	stress_45	"POPTR_0013s03700.1"	74	"	"C/A"	"75,0/25,0"	"15/5"	20
controllo_3	"POPTR_0014s13560.1"	1190	"	"C/G"	"55,1/44,9"	"152/124"	276	stress_12bis	"POPTR_0014s13560.1"	1190	"	"G/C"	"51,6/47,3"	"47/43"	91
controllo_3	"POPTR_0014s13560.1"	1190	"	"C/G"	"55,1/44,9"	"152/124"	276	stress_42	"POPTR_0014s13560.1"	1190	"	"G/C"	"56,9/43,1"	"29/22"	51
controllo_3	"POPTR_0014s13560.1"	1190	"	"C/G"	"55,1/44,9"	"152/124"	276	stress_45	"POPTR_0014s13560.1"	1190	"	"G/C"	"60,9/39,1"	"42/27"	69
controllo_3	"POPTR_0014s14200.1"	33	"	"A/C"	"55,1/44,9"	"70/57"	127	stress_12bis	"POPTR_0014s14200.1"	33	"	"C/A"	"82,4/17,6"	"14/3"	17
controllo_3	"POPTR_0014s14200.1"	33	"	"A/C"	"55,1/44,9"	"70/57"	127	stress_42	"POPTR_0014s14200.1"	33	"	"A/C"	"53,8/46,2"	"7/6"	13
controllo_3	"POPTR_0014s14200.1"	33	"	"A/C"	"55,1/44,9"	"70/57"	127	stress_45	"POPTR_0014s14200.1"	33	"	"A/C"	"64,6/35,4"	"31/17"	48
controllo_3	"POPTR_0014s17610.1"	876	"	"G/A"	"55,1/44,9"	"81/66"	147	stress_12bis	"POPTR_0014s17610.1"	876	"	"G/A"	"69,6/30,4"	"39/17"	56
controllo_3	"POPTR_0014s17610.1"	876	"	"G/A"	"55,1/44,9"	"81/66"	147	stress_42	"POPTR_0014s17610.1"	876	"	"G/A"	"52,9/47,1"	"9/8"	17
controllo_3	"POPTR_0014s17610.1"	876	"	"G/A"	"55,1/44,9"	"81/66"	147	stress_45	"POPTR_0014s17610.1"	876	"	"G/A"	"51,6/48,4"	"16/15"	31
controllo_3	"POPTR_0014s10260.1"	244	"	"G/A"	"55,1/44,9"	"125/102"	227	stress_12bis	"POPTR_0014s10260.1"	244	"	"A/G"	"56,0/44,0"	"28/22"	50
controllo_3	"POPTR_0014s10260.1"	244	"	"G/A"	"55,1/44,9"	"125/102"	227	stress_42	"POPTR_0014s10260.1"	244	"	"A/G"	"50,0/50,0"	"13/13"	26
controllo_3	"POPTR_0014s10260.1"	244	"	"G/A"	"55,1/44,9"	"125/102"	227	stress_45	"POPTR_0014s10260.1"	244	"	"G/A"	"57,1/42,9"	"28/21"	49
controllo_3	"POPTR_0014s14370.1"	99	"	"T/C"	"55,1/44,9"	"218/178"	396	stress_12bis	"POPTR_0014s14370.1"	99	"	"T/C"	"52,3/47,7"	"23/21"	44
controllo_3	"POPTR_0014s14370.1"	99	"	"T/C"	"55,1/44,9"	"218/178"	396	stress_42	"POPTR_0014s14370.1"	99	"	"C/T"	"62,5/37,5"	"20/12"	32
controllo_3	"POPTR_0014s14370.1"	99	"	"T/C"	"55,1/44,9"	"218/178"	396	stress_45	"POPTR_0014s14370.1"	99	"	"C/T"	"54,9/45,1"	"28/23"	51
controllo_3	"POPTR_0014s17280.1"	59	"	"T/A"	"55,1/44,9"	"59/48"	107	stress_12bis	"POPTR_0014s17280.1"	59	"	"T/A"	"57,7/42,3"	"15/11"	26
controllo_3	"POPTR_0014s17280.1"	59	"	"T/A"	"55,1/44,9"	"59/48"	107	stress_42	"POPTR_0014s17280.1"	59	"	"T/A"	"60,0/40,0"	"18/12"	30
controllo_3	"POPTR_0014s17280.1"	59	"	"T/A"	"55,1/44,9"	"59/48"	107	stress_45	"POPTR_0014s17280.1"	59	"	"T/A"	"61,1/38,9"	"22/14"	36
controllo_3	"POPTR_0014s11040.1"	168	"	"C/T"	"55,1/44,9"	"98/80"	178	stress_12bis	"POPTR_0014s11040.1"	168	"	"T/C"	"53,1/46,9"	"34/30"	64
controllo_3	"POPTR_0014s11040.1"	168	"	"C/T"	"55,1/44,9"	"98/80"	178	stress_42	"POPTR_0014s11040.1"	168	"	"C/T"	"54,5/45,5"	"36/30"	66
controllo_3	"POPTR_0014s11040.1"	168	"	"C/T"	"55,1/44,9"	"98/80"	178	stress_45	"POPTR_0014s11040.1"	168	"	"T/C"	"56,4/43,6"	"57/44"	101
controllo_3	"POPTR_0014s06370.1"	165	"	"C/A"	"55,1/44,9"	"172/140"	312	stress_12bis	"POPTR_0014s06370.1"	165	"	"C/A"	"50,7/49,3"	"37/36"	73
controllo_3	"POPTR_0014s06370.1"	165	"	"C/A"	"55,1/44,9"	"172/140"	312	stress_42	"POPTR_0014s06370.1"	165	"	"C/A"	"67,9/32,1"	"38/18"	56
controllo_3	"POPTR_0014s06370.1"	165	"	"C/A"	"55,1/44,9"	"172/140"	312	stress_45	"POPTR_0014s06370.1"	165	"	"C/A"	"62,0/38,0"	"67/41"	108
controllo_3	"POPTR_0004s04550.1"	831	"	"T/C"	"55,1/44,9"	"92/75"	167	stress_12bis	"POPTR_0004s04550.1"	831	"	"T/C"	"57,5/41,1"	"42/30"	73
controllo_3	"POPTR_0004s04550.1"	831	"	"T/C"	"55,1/44,9"	"92/75"	167	stress_42	"POPTR_0004s04550.1"	831	"	"T/C"	"59,3/40,7"	"16/11"	27
controllo_3	"POPTR_0004s04550.1"	831	"	"T/C"	"55,1/44,9"	"92/75"	167	stress_45	"POPTR_0004s04550.1"	831	"	"T/C"	"51,7/48,3"	"15/14"	29
controllo_3	"POPTR_0004s15440.1"	216	"	"T/A"	"55,1/44,9"	"209/170"	379	stress_12bis	"POPTR_0004s15440.1"	216	"	"A/T"	"64,2/35,8"	"43/24"	67
controllo_3	"POPTR_0004s15440.1"	216	"	"T/A"	"55,1/44,9"	"209/170"	379	stress_42	"POPTR_0004s15440.1"	216	"	"A/T"	"54,3/45,7"	"25/21"	46
controllo_3	"POPTR_0004s15440.1"	216	"	"T/A"	"55,1/44,9"	"209/170"	379	stress_45	"POPTR_0004s15440.1"	216	"	"A/T"	"53,8/46,2"	"7/6"	13
controllo_3	"POPTR_0009s11480.1"	387	"	"C/T"	"55,1/44,9"	"108/88"	196	stress_12bis	"POPTR_0009s11480.1"	387	"	"T/C"	"50,6/49,4"	"44/43"	87
controllo_3	"POPTR_0009s11480.1"	387	"	"C/T"	"55,1/44,9"	"108/88"	196	stress_45	"POPTR_0009s11480.1"	387	"	"C/T"	"59,4/40,6"	"19/13"	32
controllo_3	"POPTR_0009s05240.1"	150	"	"T/C"	"55,1/44,9"	"342/279"	621	stress_12bis	"POPTR_0009s05240.1"	150	"	"C/T"	"58,5/41,5"	"100/71"	171
controllo_3	"POPTR_0009s05240.1"	150	"	"T/C"	"55,1/44,9"	"342/279"	621	stress_42	"POPTR_0009s05240.1"	150	"	"C/T"	"69,0/31,0"	"29/13"	42
controllo_3	"POPTR_0009s05240.1"	150	"	"T/C"	"55,1/44,9"	"342/279"	621	stress_45	"POPTR_0009s05240.1"	150	"	"C/T"	"66,7/32,3"	"62/30"	93
controllo_3	"POPTR_0012s11630.1"	383	"	"T/C"	"55,1/44,9"	"163/133"	296	stress_12bis	"POPTR_0012s11630.1"	383	"	"T/C"	"60,7/39,3"	"82/53"	135
controllo_3	"POPTR_0012s11630.1"	383	"	"T/C"	"55,1/44,9"	"163/133"	296	stress_42	"POPTR_0012s11630.1"	383	"	"T/C"	"58,3/41,7"	"49/35"	84
controllo_3	"POPTR_0012s11630.1"	383	"	"T/C"	"55,1/44,9"	"163/133"	296	stress_45	"POPTR_0012s11630.1"	383	"	"T/C"	"56,2/43,8"	"63/49"	112
controllo_3	"POPTR_0001s44870.1"	574	"	"T/C"	"55,1/44,9"	"119/97"	216	stress_12bis	"POPTR_0001s44870.1"	574	"	"T/C"	"71,0/29,0"	"22/9"	31
controllo_3	"POPTR_0001s44870.1"	574	"	"T/C"	"55,1/44,9"	"119/97"	216	stress_42	"POPTR_0001s44870.1"	574	"	"T/C"	"75,0/25,0"	"30/10"	40
controllo_3	"POPTR_0001s44870.1"	574	"	"T/C"	"55,1/44,9"	"119/97"	216	stress_45	"POPTR_0001s44870.1"	574	"	"T/C"	"65,9/34,1"	"29/15"	44
controllo_3	"POPTR_0001s33910.1"	67	"	"G/A"	"55,1/44,9"	"114/93"	207	stress_12bis	"POPTR_0001s33910.1"	67	"	"G/A"	"52,4/47,6"	"22/20"	42
controllo_3	"POPTR_0001s33910.1"	67	"	"G/A"	"55,1/44,9"	"114/93"	207	stress_42	"POPTR_0001s33910.1"	67	"	"A/G"	"61,5/38,5"	"8/5"	13
controllo_3	"POPTR_0001s33910.1"	67	"	"G/A"	"55,1/44,9"	"114/93"	207	stress_45	"POPTR_0001s33910.1"	67	"	"A/G"	"58,8/41,2"	"20/14"	34
controllo_3	"POPTR_0010s14080.1"	420	"	"G/A"	"55,1/44,9"	"109/89"	198	stress_12bis	"POPTR_0010s14080.1"	420	"	"G/A"	"62,9/35,7"	"44/25"	70
controllo_3	"POPTR_0010s14080.1"	420	"	"G/A"	"55,1/44,9"	"109/89"	198	stress_42	"POPTR_0010s14080.1"	420	"	"G/A"	"78,6/21,4"	"11/3"	14
controllo_3	"POPTR_0010s14080.1"	420	"	"G/A"	"55,1/44,9"	"109/89"	198	stress_45	"POPTR_0010s14080.1"	420	"	"G/A"	"64,0/36,0"	"16/9"	25
controllo_3	"POPTR_0010s07340.1"	1541	"	"A/G"	"55,1/44,9"	"76/62"	138	stress_12bis	"POPTR_0010s07340.1"	1541	"	"A/G"	"50,0/50,0"	"27/27"	54
controllo_3	"POPTR_0010s07340.1"	1541	"	"A/G"	"55,1/44,9"	"76/62"	138	stress_42	"POPTR_0010s07340.1"	1541	"	"G/A"	"53,2/46,8"	"74/65"	139
controllo_3	"POPTR_0010s07340.1"	1541	"	"A/G"	"55,1/44,9"	"76/62"	138	stress_45	"POPTR_0010s07340.1"	1541	"	"G/A"	"52,5/47,5"	"53/48"	101
controllo_3	"POPTR_0002s08150.1"	462	"	"T/C"	"55,1/44,9"	"27/22"	49	stress_45	"POPTR_0002s08150.1"	462	"	"C/T"	"56,7/43,3"	"68/52"	120
controllo_3	"POPTR_0002s08010.1"	1068	"	"G/A"	"55,1/44,9"	"98/80"	178	stress_12bis	"POPTR_0002s08010.1"	1068	"	"G/A"	"59,0/41,0"	"23/16"	39
controllo_3	"POPTR_0002s08010.1"	1068	"	"G/A"	"55,1/44,9"	"98/80"	178	stress_45	"POPTR_0002s08010.1"	1068	"	"G/A"	"57,9/42,1"	"11/8"	19
controllo_3	"POPTR_0002s11310.1"	303	"	"T/C"	"55,1/44,9"	"81/66"	147	stress_12bis	"POPTR_0002s11310.1"	303	"	"C/T"	"65,5/34,5"	"19/10"	29
controllo_3	"POPTR_0002s11310.1"	303	"	"T/C"	"55,1/44,9"	"81/66"	147	stress_42	"POPTR_0002s11310.1"	303	"	"C/T"	"59,1/36,4"	"13/8"	22
controllo_3	"POPTR_0002s11310.1"	303	"	"T/C"	"55,1/44,9"	"81/66"	147	stress_45	"POPTR_0002s11310.1"	303	"	"C/T"	"75,0/25,0"	"9/3"	12
controllo_3	"POPTR_0016s02540.1"	339	"	"C/T"	"55,1/44,9"	"124/101"	225	stress_12bis	"POPTR_0016s02540.1"	339	"	"T/C"	"51,9/48,1"	"55/51"	106
controllo_3	"POPTR_0016s02540.1"	339	"	"C/T"	"55,1/44,9"	"124/101"	225	stress_42	"POPTR_0016s02540.1"	339	"	"T/C"	"52,9/47,1"	"46/41"	87
controllo_3	"POPTR_0016s02540.1"	339	"	"C/T"	"55,1/44,9"	"124/101"	225	stress_45	"POPTR_0016s02540.1"	339	"	"T/C"	"50,8/49,2"	"64/62"	126
controllo_3	"POPTR_0014s09180.1"	366	"	"C/T"	"55,2/44,3"	"116/93"	210	stress_12bis	"POPTR_0014s09180.1"	366	"	"C/T"	"57,1/42,9"	"28/21"	49
controllo_3	"POPTR_0014s09180.1"	366	"	"C/T"	"55,2/44,3"	"116/93"	210	stress_45	"POPTR_0014s09180.1"	366	"	"C/T"	"58,8/41,2"	"10/7"	17
controllo_3	"POPTR_0001s24450.1"	1156	"	"A/G"	"55,2/44,3"	"106/85"	192	stress_12bis	"POPTR_0001s24450.1"	1156	"	"A/G"	"60,3/39,7"	"35/23"	58
controllo_3	"POPTR_0001s24450.1"	1156	"	"A/G"	"55,2/44,3"	"106/85"	192	stress_42	"POPTR_0001s24450.1"	1156	"	"A/G"	"59,1/40,9"	"13/9"	22
controllo_3	"POPTR_0001s24450.1"	1156	"	"A/G"	"55,2/44,3"	"106/85"	192	stress_45	"POPTR_0001s24450.1"	1156	"	"G/A"	"57,5/42,5"	"23/17"	40
controllo_3	"POPTR_0001s38810.1"	649	"	"T/A"	"55,2/44,6"	"296/239"	536	stress_12bis	"POPTR_0001s38810.1"	649	"	"T/A"	"53,0/47,0"	"79/70"	149
controllo_3	"POPTR_0001s38810.1"	649	"	"T/A"	"55,2/44,6"	"296/239"	536	stress_42	"POPTR_0001s38810.1"	649	"	"A/T"	"62,4/37,6"	"126/76"	202
controllo_3	"POPTR_0001s38810.1"	649	"	"T/A"	"55,2/44,6"	"296/239"	536	stress_45	"POPTR_0001s38810.1"	649	"	"A/T"	"63,9/36,1"	"154/87"	241
controllo_3	"POPTR_0005s22830.1"	589	"	"G/A"	"55,2/44,8"	"165/134"	299	stress_12bis	"POPTR_0005s22830.1"	589	"	"G/A"	"58,6/41,4"	"92/65"	157
controllo_3	"POPTR_0005s22830.1"	589	"	"G/A"	"55,2/44,8"	"165/134"	299	stress_42	"POPTR_0005s22830.1"	589	"	"A/G"	"58,1/41,9"	"54/39"	93
controllo_3	"POPTR_0005s22830.1"	589	"	"G/A"	"55,2/44,8"	"165/134"	299	stress_45	"POPTR_0005s22830.1"	589	"	"G/A"	"60,2/39,8"	"50/33"	83
controllo_3	"POPTR_0005s26610.1"	155	"	"C/T"	"55,2/44,8"	"64/52"	116	stress_12bis	"POPTR_0005s26610.1"	155	"	"C/T"	"62,5/37,5"	"45/27"	72
controllo_3	"POPTR_0005s26610.1"	155	"	"C/T"	"55,2/44,8"	"64/52"	116	stress_42	"POPTR_0005s26610.1"	155	"	"C/T"	"53,8/46,2"	"42/36"	78
controllo_3	"POPTR_0005s26610.1"	155	"	"C/T"	"55,2/44,8"	"64/52"	116	stress_45	"POPTR_0005s26610.1"	155	"	"C/T"	"66,7/33,3"	"54/27"	81
controllo_3	"POPTR_0005s26610.1"	645	"	"G/T"	"55,2/44,8"	"58/47"	105	stress_12bis	"POPTR_0005s26610.1"	645	"	"G/T"	"57,4/42,6"	"27/20"	47
controllo_3	"POPTR_0005s26610.1"	645	"	"G/T"	"55,2/44,8"	"58/47"	105	stress_42	"POPTR_0005s26610.1"	645	"	"G/T"	"51,7/48,3"	"60/56"	116
controllo_3	"POPTR_0005s26610.1"	645	"	"G/T"	"55,2/44,8"	"58/47"	105	stress_45	"POPTR_0005s26610.1"	645	"	"G/T"	"66,7/33,3"	"64/32"	96
controllo_3	"POPTR_0003s20890.1"	681	"	"A/G"	"55,2/44,8"	"74/60"	134	stress_12bis	"POPTR_0003s20890.1"	681	"	"G/A"	"52,4/47,6"	"11/10"	21
controllo_3	"POPTR_0003s17030.1"	138	"	"T/A"	"55,2/44,8"	"80/65"	145	stress_12bis	"POPTR_0003s17030.1"	138	"	"T/A"	"62,9/37,1"	"22/13"	35
controllo_3	"POPTR_0003s17030.1"	138	"	"T/A"	"55,2/44,8"	"80/65"	145	stress_42	"POPTR_0003s17030.1"	138	"	"T/A"	"69,2/30,8"	"27/12"	39
controllo_3	"POPTR_0003s17030.1"	138	"	"T/A"	"55,2/44,8"	"80/65"	145	stress_45	"POPTR_0003s17030.1"	138	"	"T/A"	"51,9/48,1"	"14/13"	27
controllo_3	"POPTR_0003s09830.1"	948	"	"C/T"	"55,2/44,8"	"460/373"	833	stress_12bis	"POPTR_0003s09830.1"	948	"	"C/T"	"56,8/43,2"	"109/83"	192
controllo_3	"POPTR_0003s09830.1"	948	"	"C/T"	"55,2/44,8"	"460/373"	833	stress_42	"POPTR_0003s09830.1"	948	"	"T/C"	"60,0/40,0"	"21/14"	35
controllo_3	"POPTR_0003s09830.1"	948	"	"C/T"	"55,2/44,8"	"460/373"	833	stress_45	"POPTR_0003s09830.1"	948	"	"C/T"	"55,3/44,7"	"26/21"	47
controllo_3	"POPTR_0013s07050.1"	559	"	"T/C"	"55,2/44,8"	"69/56"	125	stress_12bis	"POPTR_0013s07050.1"	559	"	"T/C"	"54,8/45,2"	"23/19"	42
controllo_3	"POPTR_0013s07050.1"	559	"	"T/C"	"55,2/44,8"	"69/56"	125	stress_42	"POPTR_0013s07050.1"	559	"	"T/C"	"81,8/18,2"	"27/6"	33
controllo_3	"POPTR_0013s07050.1"	559	"	"T/C"	"55,2/44,8"	"69/56"	125	stress_45	"POPTR_0013s07050.1"	559	"	"T/C"	"60,7/39,3"	"34/22"	56
controllo_3	"POPTR_0013s07620.1"	52	"	"T/A"	"55,2/44,8"	"58/47"	105	stress_12bis	"POPTR_0013s07620.1"	52	"	"T/A"	"59,1/40,9"	"13/9"	22
controllo_3	"POPTR_0013s07620.1"	52	"	"T/A"	"55,2/44,8"	"58/47"	105	stress_45	"POPTR_0013s07620.1"	52	"	"A/T"	"56,2/43,8"	"9/7"	16
controllo_3	"POPTR_0013s04210.1"	1332	"	"A/G"	"55,2/44,8"	"64/52"	116	stress_12bis	"POPTR_0013s04210.1"	1332	"	"A/G"	"64,9/35,1"	"24/13"	37
controllo_3	"POPTR_0013s04210.1"	1332	"	"A/G"	"55,2/44,8"	"64/52"	116	stress_42	"POPTR_0013s04210.1"	1332	"	"G/A"	"61,1/38,9"	"11/7"	18
controllo_3	"POPTR_0013s04210.1"	1332	"	"A/G"	"55,2/44,8"	"64/52"	116	stress_45	"POPTR_0013s04210.1"	1332	"	"A/G"	"60,7/39,3"	"17/11"	28
controllo_3	"POPTR_0013s01080.1"	326	"	"G/C"	"55,2/44,8"	"79/64"	143	stress_12bis	"POPTR_0013s01080.1"	326	"	"G/C"	"64,3/33,9"	"36/19"	56
controllo_3	"POPTR_0013s01080.1"	326	"	"G/C"	"55,2/44,8"	"79/64"	143	stress_42	"POPTR_0013s01080.1"	326	"	"G/C"	"62,5/37,5"	"15/9"	24
controllo_3	"POPTR_0013s01080.1"	326	"	"G/C"	"55,2/44,8"	"79/64"	143	stress_45	"POPTR_0013s01080.1"	326	"	"C/G"	"50,0/50,0"	"7/7"	14
controllo_3	"POPTR_0013s01080.1"	2218	"	"C/T"	"55,2/44,8"	"69/56"	125	stress_12bis	"POPTR_0013s01080.1"	2218	"	"C/T"	"51,1/48,9"	"24/23"	47
controllo_3	"POPTR_0013s01080.1"	2218	"	"C/T"	"55,2/44,8"	"69/56"	125	stress_42	"POPTR_0013s01080.1"	2218	"	"T/C"	"57,1/42,9"	"24/18"	42
controllo_3	"POPTR_0013s01080.1"	2218	"	"C/T"	"55,2/44,8"	"69/56"	125	stress_45	"POPTR_0013s01080.1"	2218	"	"T/C"	"54,5/45,5"	"18/15"	33
controllo_3	"POPTR_0014s13560.1"	59	"	"G/A"	"55,2/44,8"	"185/150"	335	stress_12bis	"POPTR_0014s13560.1"	59	"	"G/A"	"60,9/39,1"	"70/45"	115
controllo_3	"POPTR_0014s13560.1"	59	"	"G/A"	"55,2/44,8"	"185/150"	335	stress_42	"POPTR_0014s13560.1"	59	"	"G/A"	"56,1/43,9"	"23/18"	41
controllo_3	"POPTR_0014s13560.1"	59	"	"G/A"	"55,2/44,8"	"185/150"	335	stress_45	"POPTR_0014s13560.1"	59	"	"G/A"	"54,8/45,2"	"51/42"	93
controllo_3	"POPTR_0014s02550.1"	1761	"	"G/A"	"55,2/44,8"	"123/100"	223	stress_12bis	"POPTR_0014s02550.1"	1761	"	"G/A"	"58,9/41,1"	"43/30"	73
controllo_3	"POPTR_0014s02550.1"	1761	"	"G/A"	"55,2/44,8"	"123/100"	223	stress_42	"POPTR_0014s02550.1"	1761	"	"G/A"	"56,5/43,5"	"74/57"	131
controllo_3	"POPTR_0014s02550.1"	1761	"	"G/A"	"55,2/44,8"	"123/100"	223	stress_45	"POPTR_0014s02550.1"	1761	"	"G/A"	"52,2/47,2"	"94/85"	180
controllo_3	"POPTR_0014s01970.1"	499	"	"T/A"	"55,2/44,8"	"53/43"	96	stress_42	"POPTR_0014s01970.1"	499	"	"A/T"	"53,3/46,7"	"56/49"	105
controllo_3	"POPTR_0014s01970.1"	499	"	"T/A"	"55,2/44,8"	"53/43"	96	stress_45	"POPTR_0014s01970.1"	499	"	"T/A"	"53,8/46,2"	"63/54"	117
controllo_3	"POPTR_0009s03440.1"	702	"	"C/T"	"55,2/44,8"	"58/47"	105	stress_12bis	"POPTR_0009s03440.1"	702	"	"C/T"	"61,1/38,9"	"22/14"	36
controllo_3	"POPTR_0009s03440.1"	702	"	"C/T"	"55,2/44,8"	"58/47"	105	stress_42	"POPTR_0009s03440.1"	702	"	"T/C"	"63,6/36,4"	"7/4"	11
controllo_3	"POPTR_0009s09240.1"	56	"	"C/T"	"55,2/44,8"	"90/73"	163	stress_12bis	"POPTR_0009s09240.1"	56	"	"C/T"	"64,4/35,6"	"56/31"	87
controllo_3	"POPTR_0009s09240.1"	56	"	"C/T"	"55,2/44,8"	"90/73"	163	stress_42	"POPTR_0009s09240.1"	56	"	"C/T"	"56,2/43,8"	"9/7"	16
controllo_3	"POPTR_0009s09240.1"	56	"	"C/T"	"55,2/44,8"	"90/73"	163	stress_45	"POPTR_0009s09240.1"	56	"	"T/C"	"54,5/45,5"	"18/15"	33
controllo_3	"POPTR_0001s34410.1"	405	"	"T/C"	"55,2/44,8"	"137/111"	248	stress_12bis	"POPTR_0001s34410.1"	405	"	"C/T"	"57,1/42,9"	"36/27"	63
controllo_3	"POPTR_0001s34410.1"	405	"	"T/C"	"55,2/44,8"	"137/111"	248	stress_42	"POPTR_0001s34410.1"	405	"	"T/C"	"55,6/44,4"	"20/16"	36
controllo_3	"POPTR_0001s34410.1"	405	"	"T/C"	"55,2/44,8"	"137/111"	248	stress_45	"POPTR_0001s34410.1"	405	"	"T/C"	"69,0/31,0"	"29/13"	42
controllo_3	"POPTR_0001s33710.1"	501	"	"G/A"	"55,2/44,8"	"139/113"	252	stress_12bis	"POPTR_0001s33710.1"	501	"	"G/A"	"51,6/48,4"	"32/30"	62
controllo_3	"POPTR_0001s33710.1"	501	"	"G/A"	"55,2/44,8"	"139/113"	252	stress_42	"POPTR_0001s33710.1"	501	"	"G/A"	"72,7/27,3"	"8/3"	11
controllo_3	"POPTR_0001s33710.1"	501	"	"G/A"	"55,2/44,8"	"139/113"	252	stress_45	"POPTR_0001s33710.1"	501	"	"G/A"	"58,8/41,2"	"10/7"	17
controllo_3	"POPTR_0001s35220.1"	1278	"	"T/A"	"55,2/44,8"	"69/56"	125	stress_12bis	"POPTR_0001s35220.1"	1278	"	"A/T"	"50,0/50,0"	"20/20"	40
controllo_3	"POPTR_0001s35220.1"	1278	"	"T/A"	"55,2/44,8"	"69/56"	125	stress_42	"POPTR_0001s35220.1"	1278	"	"T/A"	"63,6/36,4"	"7/4"	11
controllo_3	"POPTR_0001s35220.1"	1278	"	"T/A"	"55,2/44,8"	"69/56"	125	stress_45	"POPTR_0001s35220.1"	1278	"	"T/A"	"83,3/16,7"	"15/3"	18
controllo_3	"POPTR_0001s41780.1"	121	"	"A/G"	"55,2/44,8"	"197/160"	357	stress_12bis	"POPTR_0001s41780.1"	121	"	"G/A"	"62,1/37,9"	"41/25"	66
controllo_3	"POPTR_0001s41780.1"	121	"	"A/G"	"55,2/44,8"	"197/160"	357	stress_42	"POPTR_0001s41780.1"	121	"	"G/A"	"59,5/40,5"	"25/17"	42
controllo_3	"POPTR_0001s41780.1"	121	"	"A/G"	"55,2/44,8"	"197/160"	357	stress_45	"POPTR_0001s41780.1"	121	"	"A/G"	"55,4/44,6"	"31/25"	56
controllo_3	"POPTR_0010s09740.1"	116	"	"C/T"	"55,2/44,8"	"58/47"	105	stress_12bis	"POPTR_0010s09740.1"	116	"	"T/C"	"59,4/40,6"	"19/13"	32
controllo_3	"POPTR_0010s14080.1"	2091	"	"G/A"	"55,2/44,8"	"137/111"	248	stress_12bis	"POPTR_0010s14080.1"	2091	"	"G/A"	"63,6/36,4"	"63/36"	99
controllo_3	"POPTR_0010s14080.1"	2091	"	"G/A"	"55,2/44,8"	"137/111"	248	stress_42	"POPTR_0010s14080.1"	2091	"	"G/A"	"81,8/18,2"	"27/6"	33
controllo_3	"POPTR_0010s14080.1"	2091	"	"G/A"	"55,2/44,8"	"137/111"	248	stress_45	"POPTR_0010s14080.1"	2091	"	"G/A"	"71,4/28,6"	"40/16"	56
controllo_3	"POPTR_0007s06620.1"	1245	"	"T/C"	"55,2/44,8"	"79/64"	143	stress_12bis	"POPTR_0007s06620.1"	1245	"	"T/C"	"67,6/32,4"	"23/11"	34
controllo_3	"POPTR_0007s06620.1"	1245	"	"T/C"	"55,2/44,8"	"79/64"	143	stress_45	"POPTR_0007s06620.1"	1245	"	"T/C"	"53,3/46,7"	"8/7"	15
controllo_3	"POPTR_0007s15080.1"	1404	"	"A/G"	"55,2/44,8"	"132/107"	239	stress_12bis	"POPTR_0007s15080.1"	1404	"	"A/G"	"59,7/40,3"	"40/27"	67
controllo_3	"POPTR_0007s15080.1"	1404	"	"A/G"	"55,2/44,8"	"132/107"	239	stress_42	"POPTR_0007s15080.1"	1404	"	"G/A"	"57,1/42,9"	"8/6"	14
controllo_3	"POPTR_0007s15080.1"	1404	"	"A/G"	"55,2/44,8"	"132/107"	239	stress_45	"POPTR_0007s15080.1"	1404	"	"A/G"	"53,3/46,7"	"16/14"	30
controllo_3	"POPTR_0002s07390.1"	342	"	"A/T"	"55,2/44,8"	"79/64"	143	stress_12bis	"POPTR_0002s07390.1"	342	"	"A/T"	"60,6/39,4"	"20/13"	33
controllo_3	"POPTR_0002s01320.1"	849	"	"T/G"	"55,2/44,8"	"362/294"	656	stress_12bis	"POPTR_0002s01320.1"	849	"	"T/G"	"59,8/40,2"	"110/74"	184
controllo_3	"POPTR_0002s01320.1"	849	"	"T/G"	"55,2/44,8"	"362/294"	656	stress_42	"POPTR_0002s01320.1"	849	"	"T/G"	"61,6/38,4"	"45/28"	73
controllo_3	"POPTR_0002s01320.1"	849	"	"T/G"	"55,2/44,8"	"362/294"	656	stress_45	"POPTR_0002s01320.1"	849	"	"T/G"	"54,9/45,1"	"62/51"	113
controllo_3	"POPTR_0002s08900.1"	255	"	"G/A"	"55,2/44,8"	"64/52"	116	stress_12bis	"POPTR_0002s08900.1"	255	"	"G/A"	"69,0/31,0"	"29/13"	42
controllo_3	"POPTR_0002s08900.1"	255	"	"G/A"	"55,2/44,8"	"64/52"	116	stress_42	"POPTR_0002s08900.1"	255	"	"G/A"	"76,9/23,1"	"10/3"	13
controllo_3	"POPTR_0002s08900.1"	255	"	"G/A"	"55,2/44,8"	"64/52"	116	stress_45	"POPTR_0002s08900.1"	255	"	"G/A"	"61,5/38,5"	"8/5"	13
controllo_3	"POPTR_0002s05840.1"	610	"	"T/G"	"55,2/44,8"	"123/100"	223	stress_12bis	"POPTR_0002s05840.1"	610	"	"T/G"	"56,4/43,6"	"44/34"	78
controllo_3	"POPTR_0002s05840.1"	610	"	"T/G"	"55,2/44,8"	"123/100"	223	stress_42	"POPTR_0002s05840.1"	610	"	"T/G"	"67,7/32,3"	"88/42"	130
controllo_3	"POPTR_0002s05840.1"	610	"	"T/G"	"55,2/44,8"	"123/100"	223	stress_45	"POPTR_0002s05840.1"	610	"	"T/G"	"65,5/34,5"	"110/58"	168
controllo_3	"POPTR_0008s03160.1"	1296	"	"G/A"	"55,2/44,8"	"144/117"	261	stress_12bis	"POPTR_0008s03160.1"	1296	"	"G/A"	"58,2/41,8"	"46/33"	79
controllo_3	"POPTR_0008s03160.1"	1296	"	"G/A"	"55,2/44,8"	"144/117"	261	stress_42	"POPTR_0008s03160.1"	1296	"	"G/A"	"55,3/44,7"	"21/17"	38
controllo_3	"POPTR_0008s03160.1"	1296	"	"G/A"	"55,2/44,8"	"144/117"	261	stress_45	"POPTR_0008s03160.1"	1296	"	"G/A"	"62,5/37,5"	"35/21"	56
controllo_3	"POPTR_0016s07280.1"	672	"	"C/T"	"55,2/44,8"	"280/227"	507	stress_12bis	"POPTR_0016s07280.1"	672	"	"T/C"	"50,0/49,2"	"59/58"	118
controllo_3	"POPTR_0016s07280.1"	672	"	"C/T"	"55,2/44,8"	"280/227"	507	stress_42	"POPTR_0016s07280.1"	672	"	"C/T"	"55,0/45,0"	"22/18"	40
controllo_3	"POPTR_0016s07280.1"	672	"	"C/T"	"55,2/44,8"	"280/227"	507	stress_45	"POPTR_0016s07280.1"	672	"	"C/T"	"61,8/38,2"	"34/21"	55
controllo_3	"POPTR_0006s23580.1"	356	"	"T/A"	"55,3/43,9"	"194/154"	351	stress_12bis	"POPTR_0006s23580.1"	356	"	"A/T"	"50,0/50,0"	"51/51"	102
controllo_3	"POPTR_0006s23580.1"	356	"	"T/A"	"55,3/43,9"	"194/154"	351	stress_42	"POPTR_0006s23580.1"	356	"	"T/A"	"55,8/44,2"	"111/88"	199
controllo_3	"POPTR_0006s23580.1"	356	"	"T/A"	"55,3/43,9"	"194/154"	351	stress_45	"POPTR_0006s23580.1"	356	"	"A/T"	"54,6/45,0"	"136/112"	249
controllo_3	"POPTR_0010s24290.1"	225	"	"C/A"	"55,3/44,6"	"2098/1692"	3793	stress_12bis	"POPTR_0010s24290.1"	225	"	"A/C"	"53,9/46,1"	"521/445"	966
controllo_3	"POPTR_0010s24290.1"	225	"	"C/A"	"55,3/44,6"	"2098/1692"	3793	stress_42	"POPTR_0010s24290.1"	225	"	"C/A"	"57,5/42,5"	"1055/780"	1836
controllo_3	"POPTR_0010s24290.1"	225	"	"C/A"	"55,3/44,6"	"2098/1692"	3793	stress_45	"POPTR_0010s24290.1"	225	"	"C/A"	"62,7/37,1"	"864/511"	1377
controllo_3	"POPTR_0008s15100.1"	210	"	"A/G"	"55,3/44,6"	"854/688"	1544	stress_12bis	"POPTR_0008s15100.1"	210	"	"A/G"	"54,3/45,7"	"299/252"	551
controllo_3	"POPTR_0008s15100.1"	210	"	"A/G"	"55,3/44,6"	"854/688"	1544	stress_42	"POPTR_0008s15100.1"	210	"	"A/G"	"54,5/45,0"	"109/90"	200
controllo_3	"POPTR_0008s15100.1"	210	"	"A/G"	"55,3/44,6"	"854/688"	1544	stress_45	"POPTR_0008s15100.1"	210	"	"A/G"	"56,2/43,8"	"141/110"	251
controllo_3	"POPTR_0018s02960.1"	936	"	"G/A"	"55,3/44,7"	"94/76"	170	stress_12bis	"POPTR_0018s02960.1"	936	"	"G/A"	"76,9/23,1"	"10/3"	13
controllo_3	"POPTR_0018s02960.1"	936	"	"G/A"	"55,3/44,7"	"94/76"	170	stress_42	"POPTR_0018s02960.1"	936	"	"A/G"	"75,0/25,0"	"15/5"	20
controllo_3	"POPTR_0018s02960.1"	936	"	"G/A"	"55,3/44,7"	"94/76"	170	stress_45	"POPTR_0018s02960.1"	936	"	"A/G"	"60,6/39,4"	"20/13"	33
controllo_3	"POPTR_0003s20890.1"	893	"	"A/C"	"55,3/44,7"	"105/85"	190	stress_12bis	"POPTR_0003s20890.1"	893	"	"A/C"	"52,4/47,6"	"22/20"	42
controllo_3	"POPTR_0003s20890.1"	893	"	"A/C"	"55,3/44,7"	"105/85"	190	stress_45	"POPTR_0003s20890.1"	893	"	"A/C"	"84,6/15,4"	"11/2"	13
controllo_3	"POPTR_0003s01450.1"	975	"	"C/G"	"55,3/44,7"	"88/71"	159	stress_12bis	"POPTR_0003s01450.1"	975	"	"G/C"	"65,6/34,4"	"21/11"	32
controllo_3	"POPTR_0003s01450.1"	975	"	"C/G"	"55,3/44,7"	"88/71"	159	stress_42	"POPTR_0003s01450.1"	975	"	"G/C"	"61,5/38,5"	"8/5"	13
controllo_3	"POPTR_0003s01450.1"	975	"	"C/G"	"55,3/44,7"	"88/71"	159	stress_45	"POPTR_0003s01450.1"	975	"	"C/G"	"65,4/34,6"	"17/9"	26
controllo_3	"POPTR_0003s04000.1"	240	"	"T/A"	"55,3/44,7"	"88/71"	159	stress_12bis	"POPTR_0003s04000.1"	240	"	"T/A"	"53,8/46,2"	"28/24"	52
controllo_3	"POPTR_0003s04000.1"	240	"	"T/A"	"55,3/44,7"	"88/71"	159	stress_42	"POPTR_0003s04000.1"	240	"	"A/T"	"58,5/41,5"	"24/17"	41
controllo_3	"POPTR_0003s04000.1"	240	"	"T/A"	"55,3/44,7"	"88/71"	159	stress_45	"POPTR_0003s04000.1"	240	"	"A/T"	"50,8/49,2"	"31/30"	61
controllo_3	"POPTR_0014s11000.1"	462	"	"A/G"	"55,3/44,7"	"73/59"	132	stress_12bis	"POPTR_0014s11000.1"	462	"	"A/G"	"72,7/27,3"	"8/3"	11
controllo_3	"POPTR_0014s11000.1"	462	"	"A/G"	"55,3/44,7"	"73/59"	132	stress_42	"POPTR_0014s11000.1"	462	"	"G/A"	"71,4/28,6"	"10/4"	14
controllo_3	"POPTR_0014s11000.1"	462	"	"A/G"	"55,3/44,7"	"73/59"	132	stress_45	"POPTR_0014s11000.1"	462	"	"G/A"	"61,5/38,5"	"24/15"	39
controllo_3	"POPTR_0014s00810.1"	153	"	"A/G"	"55,3/44,7"	"263/213"	476	stress_12bis	"POPTR_0014s00810.1"	153	"	"A/G"	"52,3/47,7"	"127/116"	243
controllo_3	"POPTR_0014s00810.1"	153	"	"A/G"	"55,3/44,7"	"263/213"	476	stress_42	"POPTR_0014s00810.1"	153	"	"A/G"	"83,5/16,5"	"269/53"	322
controllo_3	"POPTR_0014s00810.1"	153	"	"A/G"	"55,3/44,7"	"263/213"	476	stress_45	"POPTR_0014s00810.1"	153	"	"A/G"	"80,6/19,4"	"199/48"	247
controllo_3	"POPTR_0004s14960.1"	366	"	"C/T"	"55,3/44,7"	"68/55"	123	stress_12bis	"POPTR_0004s14960.1"	366	"	"T/C"	"57,6/42,4"	"19/14"	33
controllo_3	"POPTR_0004s14960.1"	366	"	"C/T"	"55,3/44,7"	"68/55"	123	stress_45	"POPTR_0004s14960.1"	366	"	"C/T"	"65,2/34,8"	"15/8"	23
controllo_3	"POPTR_0009s02070.1"	705	"	"C/T"	"55,3/44,7"	"270/218"	488	stress_12bis	"POPTR_0009s02070.1"	705	"	"T/C"	"53,6/46,4"	"45/39"	84
controllo_3	"POPTR_0009s02070.1"	705	"	"C/T"	"55,3/44,7"	"270/218"	488	stress_42	"POPTR_0009s02070.1"	705	"	"C/T"	"52,1/47,9"	"73/67"	140
controllo_3	"POPTR_0009s02070.1"	705	"	"C/T"	"55,3/44,7"	"270/218"	488	stress_45	"POPTR_0009s02070.1"	705	"	"C/T"	"58,4/41,6"	"97/69"	166
controllo_3	"POPTR_0009s08520.1"	738	"	"A/C"	"55,3/44,7"	"286/231"	517	stress_12bis	"POPTR_0009s08520.1"	738	"	"A/C"	"58,6/41,4"	"123/87"	210
controllo_3	"POPTR_0009s08520.1"	738	"	"A/C"	"55,3/44,7"	"286/231"	517	stress_42	"POPTR_0009s08520.1"	738	"	"C/A"	"55,9/44,1"	"19/15"	34
controllo_3	"POPTR_0009s08520.1"	738	"	"A/C"	"55,3/44,7"	"286/231"	517	stress_45	"POPTR_0009s08520.1"	738	"	"A/C"	"50,0/50,0"	"13/13"	26
controllo_3	"POPTR_0012s01430.1"	963	"	"T/C"	"55,3/44,7"	"57/46"	103	stress_12bis	"POPTR_0012s01430.1"	963	"	"T/C"	"75,0/25,0"	"21/7"	28
controllo_3	"POPTR_0012s01430.1"	963	"	"T/C"	"55,3/44,7"	"57/46"	103	stress_42	"POPTR_0012s01430.1"	963	"	"T/C"	"61,5/38,5"	"8/5"	13
controllo_3	"POPTR_0012s01430.1"	963	"	"T/C"	"55,3/44,7"	"57/46"	103	stress_45	"POPTR_0012s01430.1"	963	"	"C/T"	"56,5/43,5"	"13/10"	23
controllo_3	"POPTR_0015s06950.1"	225	"	"G/A"	"55,3/44,7"	"178/144"	322	stress_12bis	"POPTR_0015s06950.1"	225	"	"G/A"	"59,5/40,5"	"22/15"	37
controllo_3	"POPTR_0015s06950.1"	225	"	"G/A"	"55,3/44,7"	"178/144"	322	stress_42	"POPTR_0015s06950.1"	225	"	"A/G"	"62,5/37,5"	"10/6"	16
controllo_3	"POPTR_0015s06950.1"	225	"	"G/A"	"55,3/44,7"	"178/144"	322	stress_45	"POPTR_0015s06950.1"	225	"	"G/A"	"52,0/48,0"	"13/12"	25
controllo_3	"POPTR_0015s11940.1"	95	"	"G/C"	"55,3/44,7"	"109/88"	197	stress_12bis	"POPTR_0015s11940.1"	95	"	"G/C"	"58,8/41,2"	"30/21"	51
controllo_3	"POPTR_0015s11940.1"	95	"	"G/C"	"55,3/44,7"	"109/88"	197	stress_42	"POPTR_0015s11940.1"	95	"	"G/C"	"61,5/38,5"	"16/10"	26
controllo_3	"POPTR_0015s11940.1"	95	"	"G/C"	"55,3/44,7"	"109/88"	197	stress_45	"POPTR_0015s11940.1"	95	"	"G/C"	"63,2/36,8"	"12/7"	19
controllo_3	"POPTR_0001s11600.1"	378	"	"T/C"	"55,3/44,7"	"454/367"	821	stress_12bis	"POPTR_0001s11600.1"	378	"	"T/C"	"52,6/46,6"	"130/115"	247
controllo_3	"POPTR_0001s11600.1"	378	"	"T/C"	"55,3/44,7"	"454/367"	821	stress_42	"POPTR_0001s11600.1"	378	"	"T/C"	"57,9/42,1"	"44/32"	76
controllo_3	"POPTR_0001s11600.1"	378	"	"T/C"	"55,3/44,7"	"454/367"	821	stress_45	"POPTR_0001s11600.1"	378	"	"T/C"	"52,9/47,1"	"37/33"	70
controllo_3	"POPTR_0001s34690.1"	54	"	"A/C"	"55,3/44,7"	"110/89"	199	stress_12bis	"POPTR_0001s34690.1"	54	"	"A/C"	"50,0/50,0"	"23/23"	46
controllo_3	"POPTR_0001s40480.1"	785	"	"T/C"	"55,3/44,7"	"684/554"	1238	stress_12bis	"POPTR_0001s40480.1"	785	"	"T/C"	"57,6/42,4"	"254/187"	441
controllo_3	"POPTR_0001s40480.1"	785	"	"T/C"	"55,3/44,7"	"684/554"	1238	stress_42	"POPTR_0001s40480.1"	785	"	"T/C"	"84,3/15,7"	"43/8"	51
controllo_3	"POPTR_0001s40480.1"	785	"	"T/C"	"55,3/44,7"	"684/554"	1238	stress_45	"POPTR_0001s40480.1"	785	"	"T/C"	"62,7/37,3"	"42/25"	67
controllo_3	"POPTR_0002s07390.1"	327	"	"G/A"	"55,3/44,7"	"83/67"	150	stress_12bis	"POPTR_0002s07390.1"	327	"	"G/A"	"76,7/23,3"	"23/7"	30
controllo_3	"POPTR_0008s08940.1"	216	"	"T/C"	"55,3/44,7"	"57/46"	103	stress_12bis	"POPTR_0008s08940.1"	216	"	"T/C"	"69,6/30,4"	"16/7"	23
controllo_3	"POPTR_0008s08940.1"	216	"	"T/C"	"55,3/44,7"	"57/46"	103	stress_42	"POPTR_0008s08940.1"	216	"	"T/C"	"71,4/28,6"	"15/6"	21
controllo_3	"POPTR_0008s08940.1"	216	"	"T/C"	"55,3/44,7"	"57/46"	103	stress_45	"POPTR_0008s08940.1"	216	"	"T/C"	"61,3/38,7"	"19/12"	31
controllo_3	"POPTR_0001s36330.1"	726	"	"C/T"	"55,4/43,8"	"62/49"	112	stress_12bis	"POPTR_0001s36330.1"	726	"	"T/C"	"58,6/41,4"	"41/29"	70
controllo_3	"POPTR_0001s36330.1"	726	"	"C/T"	"55,4/43,8"	"62/49"	112	stress_42	"POPTR_0001s36330.1"	726	"	"T/C"	"66,7/33,3"	"18/9"	27
controllo_3	"POPTR_0001s36330.1"	726	"	"C/T"	"55,4/43,8"	"62/49"	112	stress_45	"POPTR_0001s36330.1"	726	"	"T/C"	"67,4/32,6"	"29/14"	43
controllo_3	"POPTR_0014s10260.1"	756	"	"T/C"	"55,4/44,1"	"113/90"	204	stress_12bis	"POPTR_0014s10260.1"	756	"	"T/C"	"60,9/39,1"	"28/18"	46
controllo_3	"POPTR_0014s10260.1"	756	"	"T/C"	"55,4/44,1"	"113/90"	204	stress_42	"POPTR_0014s10260.1"	756	"	"C/T"	"58,1/41,9"	"18/13"	31
controllo_3	"POPTR_0014s10260.1"	756	"	"T/C"	"55,4/44,1"	"113/90"	204	stress_45	"POPTR_0014s10260.1"	756	"	"T/C"	"51,1/48,9"	"24/23"	47
controllo_3	"POPTR_0006s14400.1"	740	"	"G/A"	"55,4/44,5"	"968/777"	1746	stress_12bis	"POPTR_0006s14400.1"	740	"	"G/A"	"55,1/44,9"	"249/203"	452
controllo_3	"POPTR_0006s14400.1"	740	"	"G/A"	"55,4/44,5"	"968/777"	1746	stress_42	"POPTR_0006s14400.1"	740	"	"A/G"	"76,2/23,6"	"682/211"	895
controllo_3	"POPTR_0006s14400.1"	740	"	"G/A"	"55,4/44,5"	"968/777"	1746	stress_45	"POPTR_0006s14400.1"	740	"	"A/G"	"75,8/24,2"	"816/261"	1077
controllo_3	"POPTR_0005s13860.1"	856	"	"C/T"	"55,4/44,6"	"483/389"	872	stress_12bis	"POPTR_0005s13860.1"	856	"	"C/T"	"58,7/40,7"	"111/77"	189
controllo_3	"POPTR_0005s13860.1"	856	"	"C/T"	"55,4/44,6"	"483/389"	872	stress_42	"POPTR_0005s13860.1"	856	"	"T/C"	"54,8/45,2"	"34/28"	62
controllo_3	"POPTR_0005s13860.1"	856	"	"C/T"	"55,4/44,6"	"483/389"	872	stress_45	"POPTR_0005s13860.1"	856	"	"C/T"	"52,8/45,8"	"38/33"	72
controllo_3	"POPTR_0005s05130.1"	783	"	"C/G"	"55,4/44,6"	"56/45"	101	stress_45	"POPTR_0005s05130.1"	783	"	"G/C"	"72,7/27,3"	"8/3"	11
controllo_3	"POPTR_0017s00850.1"	678	"	"G/A"	"55,4/44,6"	"92/74"	166	stress_12bis	"POPTR_0017s00850.1"	678	"	"G/A"	"81,2/18,8"	"13/3"	16
controllo_3	"POPTR_0017s00850.1"	678	"	"G/A"	"55,4/44,6"	"92/74"	166	stress_42	"POPTR_0017s00850.1"	678	"	"G/A"	"63,0/37,0"	"46/27"	73
controllo_3	"POPTR_0017s00850.1"	678	"	"G/A"	"55,4/44,6"	"92/74"	166	stress_45	"POPTR_0017s00850.1"	678	"	"G/A"	"64,0/36,0"	"64/36"	100
controllo_3	"POPTR_0003s10720.1"	315	"	"G/A"	"55,4/44,6"	"56/45"	101	stress_12bis	"POPTR_0003s10720.1"	315	"	"G/A"	"63,0/37,0"	"34/20"	54
controllo_3	"POPTR_0003s10720.1"	315	"	"G/A"	"55,4/44,6"	"56/45"	101	stress_42	"POPTR_0003s10720.1"	315	"	"A/G"	"50,0/50,0"	"21/21"	42
controllo_3	"POPTR_0003s10720.1"	315	"	"G/A"	"55,4/44,6"	"56/45"	101	stress_45	"POPTR_0003s10720.1"	315	"	"G/A"	"51,3/48,7"	"40/38"	78
controllo_3	"POPTR_0003s20890.1"	891	"	"T/C"	"55,4/44,6"	"108/87"	195	stress_12bis	"POPTR_0003s20890.1"	891	"	"T/C"	"53,7/46,3"	"22/19"	41
controllo_3	"POPTR_0003s20890.1"	891	"	"T/C"	"55,4/44,6"	"108/87"	195	stress_45	"POPTR_0003s20890.1"	891	"	"T/C"	"84,6/15,4"	"11/2"	13
controllo_3	"POPTR_0003s21190.1"	1139	"	"T/C"	"55,4/44,6"	"62/50"	112	stress_12bis	"POPTR_0003s21190.1"	1139	"	"T/C"	"55,8/44,2"	"24/19"	43
controllo_3	"POPTR_0014s16990.1"	201	"	"T/G"	"55,4/44,6"	"56/45"	101	stress_12bis	"POPTR_0014s16990.1"	201	"	"G/T"	"63,6/36,4"	"14/8"	22
controllo_3	"POPTR_0004s21940.1"	2442	"	"C/T"	"55,4/44,6"	"56/45"	101	stress_12bis	"POPTR_0004s21940.1"	2442	"	"T/C"	"63,4/36,6"	"26/15"	41
controllo_3	"POPTR_0004s21940.1"	2442	"	"C/T"	"55,4/44,6"	"56/45"	101	stress_42	"POPTR_0004s21940.1"	2442	"	"C/T"	"64,3/35,7"	"9/5"	14
controllo_3	"POPTR_0004s21940.1"	2442	"	"C/T"	"55,4/44,6"	"56/45"	101	stress_45	"POPTR_0004s21940.1"	2442	"	"C/T"	"64,7/35,3"	"11/6"	17
controllo_3	"POPTR_0004s23490.1"	990	"	"C/T"	"55,4/44,6"	"98/79"	177	stress_12bis	"POPTR_0004s23490.1"	990	"	"C/T"	"69,6/30,4"	"32/14"	46
controllo_3	"POPTR_0004s23490.1"	990	"	"C/T"	"55,4/44,6"	"98/79"	177	stress_42	"POPTR_0004s23490.1"	990	"	"C/T"	"56,4/43,6"	"31/24"	55
controllo_3	"POPTR_0004s23490.1"	990	"	"C/T"	"55,4/44,6"	"98/79"	177	stress_45	"POPTR_0004s23490.1"	990	"	"T/C"	"54,1/45,9"	"53/45"	98
controllo_3	"POPTR_0004s08380.1"	155	"	"C/A"	"55,4/44,6"	"1005/810"	1815	stress_12bis	"POPTR_0004s08380.1"	155	"	"A/C"	"51,0/48,8"	"226/216"	443
controllo_3	"POPTR_0004s08380.1"	155	"	"C/A"	"55,4/44,6"	"1005/810"	1815	stress_42	"POPTR_0004s08380.1"	155	"	"A/C"	"58,2/41,8"	"32/23"	55
controllo_3	"POPTR_0004s08380.1"	155	"	"C/A"	"55,4/44,6"	"1005/810"	1815	stress_45	"POPTR_0004s08380.1"	155	"	"C/A"	"57,4/42,6"	"39/29"	68
controllo_3	"POPTR_0009s07030.1"	378	"	"G/A"	"55,4/44,6"	"72/58"	130	stress_12bis	"POPTR_0009s07030.1"	378	"	"G/A"	"57,4/40,7"	"31/22"	54
controllo_3	"POPTR_0009s07030.1"	378	"	"G/A"	"55,4/44,6"	"72/58"	130	stress_42	"POPTR_0009s07030.1"	378	"	"G/A"	"60,0/40,0"	"12/8"	20
controllo_3	"POPTR_0009s07030.1"	378	"	"G/A"	"55,4/44,6"	"72/58"	130	stress_45	"POPTR_0009s07030.1"	378	"	"A/G"	"52,9/47,1"	"9/8"	17
controllo_3	"POPTR_0009s14830.1"	1102	"	"C/A"	"55,4/44,6"	"56/45"	101	stress_12bis	"POPTR_0009s14830.1"	1102	"	"C/A"	"51,3/48,7"	"20/19"	39
controllo_3	"POPTR_0009s14830.1"	1102	"	"C/A"	"55,4/44,6"	"56/45"	101	stress_42	"POPTR_0009s14830.1"	1102	"	"C/A"	"63,2/36,8"	"12/7"	19
controllo_3	"POPTR_0009s14830.1"	1102	"	"C/A"	"55,4/44,6"	"56/45"	101	stress_45	"POPTR_0009s14830.1"	1102	"	"C/A"	"73,3/26,7"	"11/4"	15
controllo_3	"POPTR_0009s11480.1"	388	"	"A/C"	"55,4/44,6"	"112/90"	202	stress_12bis	"POPTR_0009s11480.1"	388	"	"A/C"	"50,0/50,0"	"45/45"	90
controllo_3	"POPTR_0009s11480.1"	388	"	"A/C"	"55,4/44,6"	"112/90"	202	stress_42	"POPTR_0009s11480.1"	388	"	"A/C"	"50,0/50,0"	"5/5"	10
controllo_3	"POPTR_0009s11480.1"	388	"	"A/C"	"55,4/44,6"	"112/90"	202	stress_45	"POPTR_0009s11480.1"	388	"	"A/C"	"58,1/41,9"	"18/13"	31
controllo_3	"POPTR_0009s15140.1"	128	"	"C/G"	"55,4/44,6"	"62/50"	112	stress_12bis	"POPTR_0009s15140.1"	128	"	"C/G"	"62,5/37,5"	"20/12"	32
controllo_3	"POPTR_0009s15140.1"	128	"	"C/G"	"55,4/44,6"	"62/50"	112	stress_42	"POPTR_0009s15140.1"	128	"	"G/C"	"60,0/40,0"	"30/20"	50
controllo_3	"POPTR_0009s15140.1"	128	"	"C/G"	"55,4/44,6"	"62/50"	112	stress_45	"POPTR_0009s15140.1"	128	"	"C/G"	"57,5/42,5"	"42/31"	73
controllo_3	"POPTR_0001s40250.1"	1899	"	"A/G"	"55,4/44,6"	"41/33"	74	stress_45	"POPTR_0001s40250.1"	1899	"	"A/G"	"78,6/21,4"	"110/30"	140
controllo_3	"POPTR_0001s02570.1"	884	"	"C/A"	"55,4/44,6"	"62/50"	112	stress_12bis	"POPTR_0001s02570.1"	884	"	"C/A"	"69,2/30,8"	"9/4"	13
controllo_3	"POPTR_0001s02570.1"	884	"	"C/A"	"55,4/44,6"	"62/50"	112	stress_42	"POPTR_0001s02570.1"	884	"	"C/A"	"66,7/33,3"	"8/4"	12
controllo_3	"POPTR_0001s07870.1"	1054	"	"C/A"	"55,4/44,6"	"82/66"	148	stress_12bis	"POPTR_0001s07870.1"	1054	"	"A/C"	"50,0/50,0"	"12/12"	24
controllo_3	"POPTR_0001s07870.1"	1054	"	"C/A"	"55,4/44,6"	"82/66"	148	stress_42	"POPTR_0001s07870.1"	1054	"	"C/A"	"70,8/29,2"	"17/7"	24
controllo_3	"POPTR_0001s07870.1"	1054	"	"C/A"	"55,4/44,6"	"82/66"	148	stress_45	"POPTR_0001s07870.1"	1054	"	"C/A"	"68,9/31,1"	"31/14"	45
controllo_3	"POPTR_0010s07340.1"	181	"	"C/A"	"55,4/44,6"	"62/50"	112	stress_12bis	"POPTR_0010s07340.1"	181	"	"A/C"	"74,4/25,6"	"32/11"	43
controllo_3	"POPTR_0010s07340.1"	181	"	"C/A"	"55,4/44,6"	"62/50"	112	stress_42	"POPTR_0010s07340.1"	181	"	"C/A"	"52,4/47,6"	"22/20"	42
controllo_3	"POPTR_0010s07340.1"	181	"	"C/A"	"55,4/44,6"	"62/50"	112	stress_45	"POPTR_0010s07340.1"	181	"	"A/C"	"50,8/49,2"	"33/32"	65
controllo_3	"POPTR_0007s06220.1"	363	"	"A/G"	"55,4/44,6"	"51/41"	92	stress_45	"POPTR_0007s06220.1"	363	"	"A/G"	"54,0/46,0"	"61/52"	113
controllo_3	"POPTR_0002s01740.1"	339	"	"C/T"	"55,4/44,6"	"615/496"	1111	stress_12bis	"POPTR_0002s01740.1"	339	"	"C/T"	"54,2/45,8"	"122/103"	225
controllo_3	"POPTR_0002s01740.1"	339	"	"C/T"	"55,4/44,6"	"615/496"	1111	stress_42	"POPTR_0002s01740.1"	339	"	"C/T"	"58,7/41,3"	"44/31"	75
controllo_3	"POPTR_0002s01740.1"	339	"	"C/T"	"55,4/44,6"	"615/496"	1111	stress_45	"POPTR_0002s01740.1"	339	"	"T/C"	"58,1/41,9"	"36/26"	62
controllo_3	"POPTR_0002s08010.1"	1815	"	"T/C"	"55,4/44,6"	"92/74"	166	stress_12bis	"POPTR_0002s08010.1"	1815	"	"T/C"	"57,1/42,9"	"16/12"	28
controllo_3	"POPTR_0002s08010.1"	1815	"	"T/C"	"55,4/44,6"	"92/74"	166	stress_45	"POPTR_0002s08010.1"	1815	"	"T/C"	"61,5/38,5"	"8/5"	13
controllo_3	"POPTR_0002s05910.1"	66	"	"C/T"	"55,4/44,6"	"67/54"	121	stress_12bis	"POPTR_0002s05910.1"	66	"	"C/T"	"57,6/42,4"	"19/14"	33
controllo_3	"POPTR_0002s05910.1"	66	"	"C/T"	"55,4/44,6"	"67/54"	121	stress_42	"POPTR_0002s05910.1"	66	"	"T/C"	"76,9/23,1"	"10/3"	13
controllo_3	"POPTR_0002s05910.1"	66	"	"C/T"	"55,4/44,6"	"67/54"	121	stress_45	"POPTR_0002s05910.1"	66	"	"T/C"	"54,5/45,5"	"6/5"	11
controllo_3	"POPTR_0008s17390.1"	824	"	"A/C"	"55,4/44,6"	"56/45"	101	stress_12bis	"POPTR_0008s17390.1"	824	"	"A/C"	"52,6/47,4"	"10/9"	19
controllo_3	"POPTR_0008s17390.1"	824	"	"A/C"	"55,4/44,6"	"56/45"	101	stress_45	"POPTR_0008s17390.1"	824	"	"A/C"	"83,3/16,7"	"10/2"	12
controllo_3	"POPTR_0016s10780.1"	180	"	"C/T"	"55,4/44,6"	"214/172"	386	stress_12bis	"POPTR_0016s10780.1"	180	"	"T/C"	"76,2/23,8"	"32/10"	42
controllo_3	"POPTR_0016s10780.1"	180	"	"C/T"	"55,4/44,6"	"214/172"	386	stress_45	"POPTR_0016s10780.1"	180	"	"T/C"	"80,0/20,0"	"8/2"	10
controllo_3	"POPTR_0006s10130.1"	6	"	"A/T"	"55,5/42,9"	"66/51"	119	stress_12bis	"POPTR_0006s10130.1"	6	"	"A/T"	"63,6/36,4"	"7/4"	11
controllo_3	"POPTR_0006s10130.1"	6	"	"A/T"	"55,5/42,9"	"66/51"	119	stress_45	"POPTR_0006s10130.1"	6	"	"A/T"	"66,7/33,3"	"10/5"	15
controllo_3	"POPTR_0002s05910.1"	160	"	"T/G"	"55,5/43,6"	"61/48"	110	stress_12bis	"POPTR_0002s05910.1"	160	"	"G/T"	"50,0/50,0"	"12/12"	24
controllo_3	"POPTR_0002s05910.1"	160	"	"T/G"	"55,5/43,6"	"61/48"	110	stress_42	"POPTR_0002s05910.1"	160	"	"G/T"	"50,0/50,0"	"6/6"	12
controllo_3	"POPTR_0002s05910.1"	160	"	"T/G"	"55,5/43,6"	"61/48"	110	stress_45	"POPTR_0002s05910.1"	160	"	"G/T"	"53,8/46,2"	"7/6"	13
controllo_3	"POPTR_0004s14960.1"	2226	"	"T/A"	"55,5/43,9"	"96/76"	173	stress_12bis	"POPTR_0004s14960.1"	2226	"	"A/T"	"49,0/49,0"	"24/24"	49
controllo_3	"POPTR_0004s14960.1"	2226	"	"T/A"	"55,5/43,9"	"96/76"	173	stress_42	"POPTR_0004s14960.1"	2226	"	"A/T"	"61,1/38,9"	"11/7"	18
controllo_3	"POPTR_0004s14960.1"	2226	"	"T/A"	"55,5/43,9"	"96/76"	173	stress_45	"POPTR_0004s14960.1"	2226	"	"A/T"	"50,0/50,0"	"17/17"	34
controllo_3	"POPTR_0001s36560.1"	519	"	"T/G"	"55,5/44,0"	"332/263"	598	stress_12bis	"POPTR_0001s36560.1"	519	"	"T/G"	"62,2/37,3"	"115/69"	185
controllo_3	"POPTR_0001s36560.1"	519	"	"T/G"	"55,5/44,0"	"332/263"	598	stress_42	"POPTR_0001s36560.1"	519	"	"G/T"	"55,6/44,4"	"10/8"	18
controllo_3	"POPTR_0001s36560.1"	519	"	"T/G"	"55,5/44,0"	"332/263"	598	stress_45	"POPTR_0001s36560.1"	519	"	"T/G"	"53,5/46,5"	"38/33"	71
controllo_3	"POPTR_0017s08610.1"	408	"	"T/C"	"55,5/44,5"	"81/65"	146	stress_12bis	"POPTR_0017s08610.1"	408	"	"C/T"	"56,2/43,8"	"9/7"	16
controllo_3	"POPTR_0017s08610.1"	408	"	"T/C"	"55,5/44,5"	"81/65"	146	stress_42	"POPTR_0017s08610.1"	408	"	"T/C"	"73,5/26,5"	"97/35"	132
controllo_3	"POPTR_0017s08610.1"	408	"	"T/C"	"55,5/44,5"	"81/65"	146	stress_45	"POPTR_0017s08610.1"	408	"	"T/C"	"63,2/36,8"	"184/107"	291
controllo_3	"POPTR_0018s11170.1"	154	"	"G/C"	"55,5/44,5"	"111/89"	200	stress_12bis	"POPTR_0018s11170.1"	154	"	"C/G"	"51,0/49,0"	"25/24"	49
controllo_3	"POPTR_0018s11170.1"	154	"	"G/C"	"55,5/44,5"	"111/89"	200	stress_42	"POPTR_0018s11170.1"	154	"	"G/C"	"72,2/27,8"	"13/5"	18
controllo_3	"POPTR_0018s11170.1"	154	"	"G/C"	"55,5/44,5"	"111/89"	200	stress_45	"POPTR_0018s11170.1"	154	"	"C/G"	"71,4/28,6"	"15/6"	21
controllo_3	"POPTR_0003s05110.1"	111	"	"C/A"	"55,5/44,5"	"1136/911"	2047	stress_12bis	"POPTR_0003s05110.1"	111	"	"C/A"	"59,9/40,1"	"396/265"	661
controllo_3	"POPTR_0003s05110.1"	111	"	"C/A"	"55,5/44,5"	"1136/911"	2047	stress_42	"POPTR_0003s05110.1"	111	"	"C/A"	"62,7/37,3"	"133/79"	212
controllo_3	"POPTR_0003s05110.1"	111	"	"C/A"	"55,5/44,5"	"1136/911"	2047	stress_45	"POPTR_0003s05110.1"	111	"	"C/A"	"51,1/48,9"	"90/86"	176
controllo_3	"POPTR_0003s09830.1"	56	"	"C/A"	"55,5/44,5"	"328/263"	591	stress_12bis	"POPTR_0003s09830.1"	56	"	"C/A"	"58,8/41,2"	"67/47"	114
controllo_3	"POPTR_0003s09830.1"	56	"	"C/A"	"55,5/44,5"	"328/263"	591	stress_42	"POPTR_0003s09830.1"	56	"	"A/C"	"62,5/37,5"	"10/6"	16
controllo_3	"POPTR_0003s09830.1"	56	"	"C/A"	"55,5/44,5"	"328/263"	591	stress_45	"POPTR_0003s09830.1"	56	"	"A/C"	"58,3/41,7"	"21/15"	36
controllo_3	"POPTR_0019s09140.1"	345	"	"C/A"	"55,5/44,5"	"953/763"	1716	stress_12bis	"POPTR_0019s09140.1"	345	"	"A/C"	"51,2/48,8"	"312/297"	609
controllo_3	"POPTR_0019s09140.1"	345	"	"C/A"	"55,5/44,5"	"953/763"	1716	stress_42	"POPTR_0019s09140.1"	345	"	"C/A"	"54,7/45,3"	"94/78"	172
controllo_3	"POPTR_0019s09140.1"	345	"	"C/A"	"55,5/44,5"	"953/763"	1716	stress_45	"POPTR_0019s09140.1"	345	"	"C/A"	"55,5/44,5"	"116/93"	209
controllo_3	"POPTR_0019s12320.1"	1548	"	"G/T"	"55,5/44,5"	"127/102"	229	stress_12bis	"POPTR_0019s12320.1"	1548	"	"G/T"	"70,4/29,6"	"57/24"	81
controllo_3	"POPTR_0013s04210.1"	463	"	"T/A"	"55,5/44,5"	"61/49"	110	stress_12bis	"POPTR_0013s04210.1"	463	"	"A/T"	"66,7/33,3"	"30/15"	45
controllo_3	"POPTR_0013s04210.1"	463	"	"T/A"	"55,5/44,5"	"61/49"	110	stress_45	"POPTR_0013s04210.1"	463	"	"T/A"	"60,0/40,0"	"12/8"	20
controllo_3	"POPTR_0014s13660.1"	195	"	"C/T"	"55,5/44,5"	"525/421"	946	stress_12bis	"POPTR_0014s13660.1"	195	"	"C/T"	"54,0/46,0"	"116/99"	215
controllo_3	"POPTR_0014s13660.1"	195	"	"C/T"	"55,5/44,5"	"525/421"	946	stress_42	"POPTR_0014s13660.1"	195	"	"C/T"	"59,6/40,4"	"34/23"	57
controllo_3	"POPTR_0014s13660.1"	195	"	"C/T"	"55,5/44,5"	"525/421"	946	stress_45	"POPTR_0014s13660.1"	195	"	"C/T"	"68,0/32,0"	"51/24"	75
controllo_3	"POPTR_0014s14370.1"	656	"	"T/A"	"55,5/44,5"	"186/149"	335	stress_12bis	"POPTR_0014s14370.1"	656	"	"T/A"	"53,8/46,2"	"28/24"	52
controllo_3	"POPTR_0014s14370.1"	656	"	"T/A"	"55,5/44,5"	"186/149"	335	stress_42	"POPTR_0014s14370.1"	656	"	"T/A"	"58,3/41,7"	"21/15"	36
controllo_3	"POPTR_0014s14370.1"	656	"	"T/A"	"55,5/44,5"	"186/149"	335	stress_45	"POPTR_0014s14370.1"	656	"	"A/T"	"59,2/40,8"	"29/20"	49
controllo_3	"POPTR_0004s15960.1"	432	"	"C/A"	"55,5/44,5"	"86/69"	155	stress_42	"POPTR_0004s15960.1"	432	"	"C/A"	"62,5/37,5"	"10/6"	16
controllo_3	"POPTR_0004s15960.1"	432	"	"C/A"	"55,5/44,5"	"86/69"	155	stress_45	"POPTR_0004s15960.1"	432	"	"C/A"	"66,7/33,3"	"8/4"	12
controllo_3	"POPTR_0004s01990.1"	699	"	"C/T"	"55,5/44,5"	"293/235"	528	stress_12bis	"POPTR_0004s01990.1"	699	"	"C/T"	"64,4/35,6"	"65/36"	101
controllo_3	"POPTR_0004s18190.1"	372	"	"A/T"	"55,5/44,5"	"428/343"	771	stress_12bis	"POPTR_0004s18190.1"	372	"	"A/T"	"52,3/47,4"	"181/164"	346
controllo_3	"POPTR_0004s18190.1"	372	"	"A/T"	"55,5/44,5"	"428/343"	771	stress_42	"POPTR_0004s18190.1"	372	"	"A/T"	"54,7/45,3"	"35/29"	64
controllo_3	"POPTR_0004s18190.1"	372	"	"A/T"	"55,5/44,5"	"428/343"	771	stress_45	"POPTR_0004s18190.1"	372	"	"A/T"	"61,3/38,7"	"38/24"	62
controllo_3	"POPTR_0009s01320.1"	1752	"	"T/C"	"55,5/44,5"	"146/117"	263	stress_12bis	"POPTR_0009s01320.1"	1752	"	"T/C"	"60,2/39,8"	"153/101"	254
controllo_3	"POPTR_0009s01320.1"	1752	"	"T/C"	"55,5/44,5"	"146/117"	263	stress_42	"POPTR_0009s01320.1"	1752	"	"T/C"	"59,8/40,2"	"231/155"	386
controllo_3	"POPTR_0009s01320.1"	1752	"	"T/C"	"55,5/44,5"	"146/117"	263	stress_45	"POPTR_0009s01320.1"	1752	"	"T/C"	"58,1/41,9"	"211/152"	363
controllo_3	"POPTR_0009s08520.1"	384	"	"G/A"	"55,5/44,5"	"397/318"	715	stress_12bis	"POPTR_0009s08520.1"	384	"	"G/A"	"61,2/38,8"	"145/92"	237
controllo_3	"POPTR_0009s08520.1"	384	"	"G/A"	"55,5/44,5"	"397/318"	715	stress_42	"POPTR_0009s08520.1"	384	"	"G/A"	"58,3/41,7"	"14/10"	24
controllo_3	"POPTR_0009s08520.1"	384	"	"G/A"	"55,5/44,5"	"397/318"	715	stress_45	"POPTR_0009s08520.1"	384	"	"A/G"	"52,5/47,5"	"21/19"	40
controllo_3	"POPTR_0012s09200.1"	993	"	"T/C"	"55,5/44,5"	"156/125"	281	stress_12bis	"POPTR_0012s09200.1"	993	"	"T/C"	"65,4/34,6"	"53/28"	81
controllo_3	"POPTR_0012s09200.1"	993	"	"T/C"	"55,5/44,5"	"156/125"	281	stress_42	"POPTR_0012s09200.1"	993	"	"T/C"	"64,7/35,3"	"22/12"	34
controllo_3	"POPTR_0012s09200.1"	993	"	"T/C"	"55,5/44,5"	"156/125"	281	stress_45	"POPTR_0012s09200.1"	993	"	"T/C"	"65,5/34,5"	"38/20"	58
controllo_3	"POPTR_0011s12680.1"	262	"	"G/A"	"55,5/44,5"	"202/162"	364	stress_12bis	"POPTR_0011s12680.1"	262	"	"G/A"	"62,1/37,9"	"59/36"	95
controllo_3	"POPTR_0011s12680.1"	262	"	"G/A"	"55,5/44,5"	"202/162"	364	stress_42	"POPTR_0011s12680.1"	262	"	"G/A"	"56,9/43,1"	"29/22"	51
controllo_3	"POPTR_0011s12680.1"	262	"	"G/A"	"55,5/44,5"	"202/162"	364	stress_45	"POPTR_0011s12680.1"	262	"	"G/A"	"56,4/43,6"	"31/24"	55
controllo_3	"POPTR_0011s08940.1"	1203	"	"C/T"	"55,5/44,5"	"778/625"	1403	stress_12bis	"POPTR_0011s08940.1"	1203	"	"C/T"	"51,0/49,0"	"202/194"	396
controllo_3	"POPTR_0011s08940.1"	1203	"	"C/T"	"55,5/44,5"	"778/625"	1403	stress_42	"POPTR_0011s08940.1"	1203	"	"T/C"	"68,1/31,9"	"79/37"	116
controllo_3	"POPTR_0011s08940.1"	1203	"	"C/T"	"55,5/44,5"	"778/625"	1403	stress_45	"POPTR_0011s08940.1"	1203	"	"T/C"	"59,1/40,9"	"110/76"	186
controllo_3	"POPTR_0015s08540.1"	344	"	"G/A"	"55,5/44,5"	"101/81"	182	stress_12bis	"POPTR_0015s08540.1"	344	"	"A/G"	"55,0/45,0"	"33/27"	60
controllo_3	"POPTR_0015s08540.1"	344	"	"G/A"	"55,5/44,5"	"101/81"	182	stress_42	"POPTR_0015s08540.1"	344	"	"A/G"	"60,0/40,0"	"9/6"	15
controllo_3	"POPTR_0015s08540.1"	344	"	"G/A"	"55,5/44,5"	"101/81"	182	stress_45	"POPTR_0015s08540.1"	344	"	"A/G"	"63,6/36,4"	"7/4"	11
controllo_3	"POPTR_0015s08540.1"	456	"	"T/C"	"55,5/44,5"	"116/93"	209	stress_12bis	"POPTR_0015s08540.1"	456	"	"C/T"	"74,0/26,0"	"57/20"	77
controllo_3	"POPTR_0015s08540.1"	456	"	"T/C"	"55,5/44,5"	"116/93"	209	stress_42	"POPTR_0015s08540.1"	456	"	"C/T"	"60,0/40,0"	"9/6"	15
controllo_3	"POPTR_0015s08540.1"	456	"	"T/C"	"55,5/44,5"	"116/93"	209	stress_45	"POPTR_0015s08540.1"	456	"	"C/T"	"60,9/39,1"	"14/9"	23
controllo_3	"POPTR_0015s09810.1"	165	"	"C/A"	"55,5/44,5"	"76/61"	137	stress_12bis	"POPTR_0015s09810.1"	165	"	"A/C"	"55,3/44,7"	"26/21"	47
controllo_3	"POPTR_0015s09810.1"	165	"	"C/A"	"55,5/44,5"	"76/61"	137	stress_42	"POPTR_0015s09810.1"	165	"	"A/C"	"71,4/28,6"	"10/4"	14
controllo_3	"POPTR_0015s09810.1"	165	"	"C/A"	"55,5/44,5"	"76/61"	137	stress_45	"POPTR_0015s09810.1"	165	"	"C/A"	"55,6/44,4"	"20/16"	36
controllo_3	"POPTR_0001s47590.1"	136	"	"A/G"	"55,5/44,5"	"708/568"	1276	stress_12bis	"POPTR_0001s47590.1"	136	"	"A/G"	"53,1/46,9"	"187/165"	352
controllo_3	"POPTR_0001s47590.1"	136	"	"A/G"	"55,5/44,5"	"708/568"	1276	stress_42	"POPTR_0001s47590.1"	136	"	"A/G"	"52,0/48,0"	"78/72"	150
controllo_3	"POPTR_0001s47590.1"	136	"	"A/G"	"55,5/44,5"	"708/568"	1276	stress_45	"POPTR_0001s47590.1"	136	"	"A/G"	"55,9/44,1"	"76/60"	136
controllo_3	"POPTR_0001s47210.1"	114	"	"G/T"	"55,5/44,5"	"147/118"	265	stress_12bis	"POPTR_0001s47210.1"	114	"	"G/T"	"70,7/29,3"	"29/12"	41
controllo_3	"POPTR_0001s25520.1"	514	"	"T/C"	"55,5/44,5"	"66/53"	119	stress_12bis	"POPTR_0001s25520.1"	514	"	"C/T"	"52,8/47,2"	"19/17"	36
controllo_3	"POPTR_0001s25520.1"	514	"	"T/C"	"55,5/44,5"	"66/53"	119	stress_42	"POPTR_0001s25520.1"	514	"	"C/T"	"59,4/40,6"	"19/13"	32
controllo_3	"POPTR_0001s25520.1"	514	"	"T/C"	"55,5/44,5"	"66/53"	119	stress_45	"POPTR_0001s25520.1"	514	"	"C/T"	"56,0/44,0"	"14/11"	25
controllo_3	"POPTR_0010s07560.1"	1284	"	"A/T"	"55,5/44,5"	"61/49"	110	stress_12bis	"POPTR_0010s07560.1"	1284	"	"A/T"	"62,1/37,9"	"41/25"	66
controllo_3	"POPTR_0010s07560.1"	1284	"	"A/T"	"55,5/44,5"	"61/49"	110	stress_42	"POPTR_0010s07560.1"	1284	"	"A/T"	"63,3/36,7"	"31/18"	49
controllo_3	"POPTR_0010s07560.1"	1284	"	"A/T"	"55,5/44,5"	"61/49"	110	stress_45	"POPTR_0010s07560.1"	1284	"	"A/T"	"68,1/31,9"	"32/15"	47
controllo_3	"POPTR_0002s14730.1"	1184	"	"C/T"	"55,5/44,5"	"417/335"	752	stress_12bis	"POPTR_0002s14730.1"	1184	"	"T/C"	"52,6/47,4"	"121/109"	230
controllo_3	"POPTR_0002s14730.1"	1184	"	"C/T"	"55,5/44,5"	"417/335"	752	stress_42	"POPTR_0002s14730.1"	1184	"	"T/C"	"66,7/33,3"	"16/8"	24
controllo_3	"POPTR_0002s14730.1"	1184	"	"C/T"	"55,5/44,5"	"417/335"	752	stress_45	"POPTR_0002s14730.1"	1184	"	"C/T"	"56,4/43,6"	"31/24"	55
controllo_3	"POPTR_0002s05840.1"	1278	"	"T/C"	"55,5/44,5"	"101/81"	182	stress_12bis	"POPTR_0002s05840.1"	1278	"	"C/T"	"54,1/45,9"	"40/34"	74
controllo_3	"POPTR_0002s05840.1"	1278	"	"T/C"	"55,5/44,5"	"101/81"	182	stress_42	"POPTR_0002s05840.1"	1278	"	"T/C"	"55,1/44,3"	"92/74"	167
controllo_3	"POPTR_0002s05840.1"	1278	"	"T/C"	"55,5/44,5"	"101/81"	182	stress_45	"POPTR_0002s05840.1"	1278	"	"T/C"	"57,6/42,4"	"91/67"	158
controllo_3	"POPTR_0008s22310.1"	121	"	"C/G"	"55,5/44,5"	"101/81"	182	stress_12bis	"POPTR_0008s22310.1"	121	"	"C/G"	"68,7/31,3"	"136/62"	198
controllo_3	"POPTR_0008s22310.1"	121	"	"C/G"	"55,5/44,5"	"101/81"	182	stress_42	"POPTR_0008s22310.1"	121	"	"C/G"	"64,8/35,2"	"68/37"	105
controllo_3	"POPTR_0008s22310.1"	121	"	"C/G"	"55,5/44,5"	"101/81"	182	stress_45	"POPTR_0008s22310.1"	121	"	"C/G"	"51,8/48,2"	"73/68"	141
controllo_3	"POPTR_0008s20590.1"	492	"	"A/T"	"55,5/44,5"	"117/94"	211	stress_12bis	"POPTR_0008s20590.1"	492	"	"T/A"	"63,3/36,7"	"62/36"	98
controllo_3	"POPTR_0008s20590.1"	492	"	"A/T"	"55,5/44,5"	"117/94"	211	stress_42	"POPTR_0008s20590.1"	492	"	"A/T"	"50,0/50,0"	"42/42"	84
controllo_3	"POPTR_0008s20590.1"	492	"	"A/T"	"55,5/44,5"	"117/94"	211	stress_45	"POPTR_0008s20590.1"	492	"	"T/A"	"51,7/48,3"	"74/69"	143
controllo_3	"POPTR_0008s19960.1"	655	"	"C/T"	"55,5/44,5"	"71/57"	128	stress_12bis	"POPTR_0008s19960.1"	655	"	"C/T"	"57,1/42,9"	"12/9"	21
controllo_3	"POPTR_0008s19960.1"	1065	"	"T/C"	"55,5/44,5"	"61/49"	110	stress_12bis	"POPTR_0008s19960.1"	1065	"	"C/T"	"50,0/50,0"	"10/10"	20
controllo_3	"POPTR_0008s11750.1"	101	"	"G/C"	"55,5/44,5"	"76/61"	137	stress_12bis	"POPTR_0008s11750.1"	101	"	"G/C"	"52,8/47,2"	"28/25"	53
controllo_3	"POPTR_0008s11750.1"	101	"	"G/C"	"55,5/44,5"	"76/61"	137	stress_42	"POPTR_0008s11750.1"	101	"	"C/G"	"50,0/50,0"	"16/16"	32
controllo_3	"POPTR_0008s11750.1"	101	"	"G/C"	"55,5/44,5"	"76/61"	137	stress_45	"POPTR_0008s11750.1"	101	"	"C/G"	"50,0/50,0"	"12/12"	24
controllo_3	"POPTR_0016s08580.1"	258	"	"G/A"	"55,5/44,5"	"216/173"	389	stress_12bis	"POPTR_0016s08580.1"	258	"	"G/A"	"59,4/40,6"	"57/39"	96
controllo_3	"POPTR_0016s08580.1"	258	"	"G/A"	"55,5/44,5"	"216/173"	389	stress_42	"POPTR_0016s08580.1"	258	"	"G/A"	"55,2/44,8"	"32/26"	58
controllo_3	"POPTR_0016s08580.1"	258	"	"G/A"	"55,5/44,5"	"216/173"	389	stress_45	"POPTR_0016s08580.1"	258	"	"G/A"	"65,0/35,0"	"65/35"	100
controllo_3	"POPTR_0001s29320.1"	486	"	"A/T"	"55,6/43,6"	"74/58"	133	stress_12bis	"POPTR_0001s29320.1"	486	"	"A/T"	"57,4/42,6"	"31/23"	54
controllo_3	"POPTR_0001s29320.1"	486	"	"A/T"	"55,6/43,6"	"74/58"	133	stress_42	"POPTR_0001s29320.1"	486	"	"A/T"	"70,4/29,6"	"19/8"	27
controllo_3	"POPTR_0001s29320.1"	486	"	"A/T"	"55,6/43,6"	"74/58"	133	stress_45	"POPTR_0001s29320.1"	486	"	"A/T"	"50,0/50,0"	"14/14"	28
controllo_3	"POPTR_0018s08790.1"	1410	"	"T/G"	"55,6/43,8"	"80/63"	144	stress_12bis	"POPTR_0018s08790.1"	1410	"	"T/G"	"51,2/48,8"	"22/21"	43
controllo_3	"POPTR_0018s08790.1"	1410	"	"T/G"	"55,6/43,8"	"80/63"	144	stress_42	"POPTR_0018s08790.1"	1410	"	"G/T"	"55,8/44,2"	"24/19"	43
controllo_3	"POPTR_0018s08790.1"	1410	"	"T/G"	"55,6/43,8"	"80/63"	144	stress_45	"POPTR_0018s08790.1"	1410	"	"G/T"	"61,7/38,3"	"37/23"	60
controllo_3	"POPTR_0006s13310.1"	510	"	"T/C"	"55,6/44,1"	"203/161"	365	stress_12bis	"POPTR_0006s13310.1"	510	"	"T/C"	"57,4/42,6"	"198/147"	345
controllo_3	"POPTR_0006s13310.1"	510	"	"T/C"	"55,6/44,1"	"203/161"	365	stress_42	"POPTR_0006s13310.1"	510	"	"T/C"	"57,6/42,4"	"117/86"	203
controllo_3	"POPTR_0006s13310.1"	510	"	"T/C"	"55,6/44,1"	"203/161"	365	stress_45	"POPTR_0006s13310.1"	510	"	"T/C"	"54,4/45,6"	"206/173"	379
controllo_3	"POPTR_0005s11190.1"	63	"	"A/G"	"55,6/44,4"	"70/56"	126	stress_12bis	"POPTR_0005s11190.1"	63	"	"A/G"	"61,9/38,1"	"26/16"	42
controllo_3	"POPTR_0005s11190.1"	63	"	"A/G"	"55,6/44,4"	"70/56"	126	stress_42	"POPTR_0005s11190.1"	63	"	"A/G"	"54,2/45,8"	"13/11"	24
controllo_3	"POPTR_0005s11190.1"	63	"	"A/G"	"55,6/44,4"	"70/56"	126	stress_45	"POPTR_0005s11190.1"	63	"	"G/A"	"56,4/43,6"	"22/17"	39
controllo_3	"POPTR_0005s11860.1"	414	"	"C/T"	"55,6/44,4"	"70/56"	126	stress_12bis	"POPTR_0005s11860.1"	414	"	"T/C"	"52,9/47,1"	"27/24"	51
controllo_3	"POPTR_0005s11860.1"	414	"	"C/T"	"55,6/44,4"	"70/56"	126	stress_42	"POPTR_0005s11860.1"	414	"	"C/T"	"69,2/30,8"	"9/4"	13
controllo_3	"POPTR_0005s11860.1"	414	"	"C/T"	"55,6/44,4"	"70/56"	126	stress_45	"POPTR_0005s11860.1"	414	"	"T/C"	"64,0/36,0"	"16/9"	25
controllo_3	"POPTR_0005s00910.1"	498	"	"T/C"	"55,6/44,4"	"124/99"	223	stress_12bis	"POPTR_0005s00910.1"	498	"	"T/C"	"51,7/48,3"	"31/29"	60
controllo_3	"POPTR_0005s00910.1"	498	"	"T/C"	"55,6/44,4"	"124/99"	223	stress_42	"POPTR_0005s00910.1"	498	"	"T/C"	"64,6/35,4"	"51/28"	79
controllo_3	"POPTR_0005s00910.1"	498	"	"T/C"	"55,6/44,4"	"124/99"	223	stress_45	"POPTR_0005s00910.1"	498	"	"T/C"	"54,8/45,2"	"34/28"	62
controllo_3	"POPTR_0017s05700.1"	350	"	"T/A"	"55,6/44,4"	"175/140"	315	stress_12bis	"POPTR_0017s05700.1"	350	"	"T/A"	"52,3/47,7"	"46/42"	88
controllo_3	"POPTR_0017s05700.1"	350	"	"T/A"	"55,6/44,4"	"175/140"	315	stress_42	"POPTR_0017s05700.1"	350	"	"A/T"	"72,3/27,7"	"34/13"	47
controllo_3	"POPTR_0017s05700.1"	350	"	"T/A"	"55,6/44,4"	"175/140"	315	stress_45	"POPTR_0017s05700.1"	350	"	"A/T"	"55,4/44,6"	"41/33"	74
controllo_3	"POPTR_0017s06920.1"	544	"	"G/A"	"55,6/44,4"	"365/291"	656	stress_12bis	"POPTR_0017s06920.1"	544	"	"G/A"	"54,4/45,6"	"117/98"	215
controllo_3	"POPTR_0006s00470.1"	1269	"	"C/T"	"55,6/44,4"	"75/60"	135	stress_12bis	"POPTR_0006s00470.1"	1269	"	"C/T"	"57,1/42,9"	"16/12"	28
controllo_3	"POPTR_0006s00470.1"	1269	"	"C/T"	"55,6/44,4"	"75/60"	135	stress_45	"POPTR_0006s00470.1"	1269	"	"C/T"	"55,9/44,1"	"19/15"	34
controllo_3	"POPTR_0006s04960.1"	3799	"	"A/G"	"55,6/44,4"	"263/210"	473	stress_12bis	"POPTR_0006s04960.1"	3799	"	"G/A"	"53,9/46,1"	"48/41"	89
controllo_3	"POPTR_0006s04960.1"	3799	"	"A/G"	"55,6/44,4"	"263/210"	473	stress_42	"POPTR_0006s04960.1"	3799	"	"A/G"	"58,1/41,9"	"18/13"	31
controllo_3	"POPTR_0006s04960.1"	3799	"	"A/G"	"55,6/44,4"	"263/210"	473	stress_45	"POPTR_0006s04960.1"	3799	"	"G/A"	"53,8/46,2"	"28/24"	52
controllo_3	"POPTR_0003s18530.1"	573	"	"T/C"	"55,6/44,4"	"109/87"	196	stress_12bis	"POPTR_0003s18530.1"	573	"	"T/C"	"58,3/41,7"	"49/35"	84
controllo_3	"POPTR_0003s18530.1"	573	"	"T/C"	"55,6/44,4"	"109/87"	196	stress_42	"POPTR_0003s18530.1"	573	"	"C/T"	"57,6/42,4"	"34/25"	59
controllo_3	"POPTR_0003s18530.1"	573	"	"T/C"	"55,6/44,4"	"109/87"	196	stress_45	"POPTR_0003s18530.1"	573	"	"T/C"	"51,4/48,6"	"38/36"	74
controllo_3	"POPTR_0003s09830.1"	921	"	"T/C"	"55,6/44,4"	"365/291"	656	stress_12bis	"POPTR_0003s09830.1"	921	"	"T/C"	"55,3/44,7"	"73/59"	132
controllo_3	"POPTR_0003s09830.1"	921	"	"T/C"	"55,6/44,4"	"365/291"	656	stress_42	"POPTR_0003s09830.1"	921	"	"C/T"	"52,0/48,0"	"13/12"	25
controllo_3	"POPTR_0003s09830.1"	921	"	"T/C"	"55,6/44,4"	"365/291"	656	stress_45	"POPTR_0003s09830.1"	921	"	"T/C"	"54,8/45,2"	"17/14"	31
controllo_3	"POPTR_0022s00530.1"	46	"	"G/A"	"55,6/44,4"	"84/67"	151	stress_12bis	"POPTR_0022s00530.1"	46	"	"G/A"	"59,4/40,6"	"19/13"	32
controllo_3	"POPTR_0022s00530.1"	46	"	"G/A"	"55,6/44,4"	"84/67"	151	stress_42	"POPTR_0022s00530.1"	46	"	"A/G"	"50,0/50,0"	"5/5"	10
controllo_3	"POPTR_0022s00530.1"	46	"	"G/A"	"55,6/44,4"	"84/67"	151	stress_45	"POPTR_0022s00530.1"	46	"	"G/A"	"63,4/36,6"	"26/15"	41
controllo_3	"POPTR_0019s05540.1"	381	"	"T/G"	"55,6/44,4"	"65/52"	117	stress_12bis	"POPTR_0019s05540.1"	381	"	"T/G"	"55,6/44,4"	"25/20"	45
controllo_3	"POPTR_0019s05540.1"	381	"	"T/G"	"55,6/44,4"	"65/52"	117	stress_42	"POPTR_0019s05540.1"	381	"	"T/G"	"62,7/37,3"	"32/19"	51
controllo_3	"POPTR_0019s05540.1"	381	"	"T/G"	"55,6/44,4"	"65/52"	117	stress_45	"POPTR_0019s05540.1"	381	"	"T/G"	"52,0/46,0"	"26/23"	50
controllo_3	"POPTR_0013s15560.1"	428	"	"A/G"	"55,6/44,4"	"50/40"	90	stress_42	"POPTR_0013s15560.1"	428	"	"G/A"	"59,5/40,5"	"88/60"	148
controllo_3	"POPTR_0013s15560.1"	428	"	"A/G"	"55,6/44,4"	"50/40"	90	stress_45	"POPTR_0013s15560.1"	428	"	"A/G"	"55,1/44,9"	"76/62"	138
controllo_3	"POPTR_0014s02550.1"	801	"	"T/C"	"55,6/44,4"	"85/68"	153	stress_12bis	"POPTR_0014s02550.1"	801	"	"C/T"	"60,7/39,3"	"34/22"	56
controllo_3	"POPTR_0014s02550.1"	801	"	"T/C"	"55,6/44,4"	"85/68"	153	stress_42	"POPTR_0014s02550.1"	801	"	"T/C"	"55,6/44,4"	"30/24"	54
controllo_3	"POPTR_0014s02550.1"	801	"	"T/C"	"55,6/44,4"	"85/68"	153	stress_45	"POPTR_0014s02550.1"	801	"	"C/T"	"52,0/48,0"	"51/47"	98
controllo_3	"POPTR_0004s07280.1"	105	"	"C/T"	"55,6/44,4"	"69/55"	124	stress_12bis	"POPTR_0004s07280.1"	105	"	"C/T"	"72,7/27,3"	"16/6"	22
controllo_3	"POPTR_0004s07280.1"	105	"	"C/T"	"55,6/44,4"	"69/55"	124	stress_42	"POPTR_0004s07280.1"	105	"	"C/T"	"54,3/45,7"	"19/16"	35
controllo_3	"POPTR_0004s07280.1"	105	"	"C/T"	"55,6/44,4"	"69/55"	124	stress_45	"POPTR_0004s07280.1"	105	"	"C/T"	"51,9/48,1"	"14/13"	27
controllo_3	"POPTR_0004s17020.1"	231	"	"G/T"	"55,6/44,4"	"90/72"	162	stress_12bis	"POPTR_0004s17020.1"	231	"	"G/T"	"53,0/47,0"	"44/39"	83
controllo_3	"POPTR_0004s17020.1"	231	"	"G/T"	"55,6/44,4"	"90/72"	162	stress_42	"POPTR_0004s17020.1"	231	"	"G/T"	"74,2/25,8"	"46/16"	62
controllo_3	"POPTR_0004s17020.1"	231	"	"G/T"	"55,6/44,4"	"90/72"	162	stress_45	"POPTR_0004s17020.1"	231	"	"G/T"	"77,1/22,9"	"101/30"	131
controllo_3	"POPTR_0004s01470.1"	187	"	"G/C"	"55,6/44,4"	"662/529"	1191	stress_12bis	"POPTR_0004s01470.1"	187	"	"G/C"	"58,7/41,3"	"185/130"	315
controllo_3	"POPTR_0004s01470.1"	187	"	"G/C"	"55,6/44,4"	"662/529"	1191	stress_42	"POPTR_0004s01470.1"	187	"	"G/C"	"56,4/43,6"	"57/44"	101
controllo_3	"POPTR_0004s01470.1"	187	"	"G/C"	"55,6/44,4"	"662/529"	1191	stress_45	"POPTR_0004s01470.1"	187	"	"G/C"	"59,5/40,5"	"75/51"	126
controllo_3	"POPTR_0009s05840.1"	411	"	"C/T"	"55,6/44,4"	"104/83"	187	stress_12bis	"POPTR_0009s05840.1"	411	"	"T/C"	"64,0/36,0"	"16/9"	25
controllo_3	"POPTR_0009s05840.1"	411	"	"C/T"	"55,6/44,4"	"104/83"	187	stress_42	"POPTR_0009s05840.1"	411	"	"T/C"	"68,6/31,4"	"48/22"	70
controllo_3	"POPTR_0009s05840.1"	411	"	"C/T"	"55,6/44,4"	"104/83"	187	stress_45	"POPTR_0009s05840.1"	411	"	"T/C"	"59,3/40,7"	"83/57"	140
controllo_3	"POPTR_0009s06720.1"	342	"	"A/G"	"55,6/44,4"	"80/64"	144	stress_12bis	"POPTR_0009s06720.1"	342	"	"A/G"	"58,5/41,5"	"24/17"	41
controllo_3	"POPTR_0009s06720.1"	342	"	"A/G"	"55,6/44,4"	"80/64"	144	stress_42	"POPTR_0009s06720.1"	342	"	"G/A"	"66,7/33,3"	"8/4"	12
controllo_3	"POPTR_0009s06720.1"	342	"	"A/G"	"55,6/44,4"	"80/64"	144	stress_45	"POPTR_0009s06720.1"	342	"	"G/A"	"60,0/40,0"	"15/10"	25
controllo_3	"POPTR_0009s06530.1"	1089	"	"C/T"	"55,6/44,4"	"85/68"	153	stress_12bis	"POPTR_0009s06530.1"	1089	"	"C/T"	"58,9/41,1"	"33/23"	56
controllo_3	"POPTR_0009s06530.1"	1089	"	"C/T"	"55,6/44,4"	"85/68"	153	stress_42	"POPTR_0009s06530.1"	1089	"	"T/C"	"53,8/46,2"	"7/6"	13
controllo_3	"POPTR_0009s06530.1"	1089	"	"C/T"	"55,6/44,4"	"85/68"	153	stress_45	"POPTR_0009s06530.1"	1089	"	"T/C"	"55,6/44,4"	"10/8"	18
controllo_3	"POPTR_0011s02610.1"	615	"	"G/A"	"55,6/44,4"	"70/56"	126	stress_12bis	"POPTR_0011s02610.1"	615	"	"A/G"	"51,4/48,6"	"19/18"	37
controllo_3	"POPTR_0011s02610.1"	615	"	"G/A"	"55,6/44,4"	"70/56"	126	stress_45	"POPTR_0011s02610.1"	615	"	"A/G"	"61,5/38,5"	"8/5"	13
controllo_3	"POPTR_0001s02500.1"	312	"	"T/A"	"55,6/44,4"	"149/119"	268	stress_12bis	"POPTR_0001s02500.1"	312	"	"T/A"	"61,2/38,8"	"30/19"	49
controllo_3	"POPTR_0001s02500.1"	312	"	"T/A"	"55,6/44,4"	"149/119"	268	stress_45	"POPTR_0001s02500.1"	312	"	"T/A"	"53,3/46,7"	"8/7"	15
controllo_3	"POPTR_0001s34410.1"	253	"	"G/A"	"55,6/44,4"	"124/99"	223	stress_12bis	"POPTR_0001s34410.1"	253	"	"A/G"	"52,9/47,1"	"27/24"	51
controllo_3	"POPTR_0001s34410.1"	253	"	"G/A"	"55,6/44,4"	"124/99"	223	stress_42	"POPTR_0001s34410.1"	253	"	"G/A"	"59,1/40,9"	"26/18"	44
controllo_3	"POPTR_0001s34410.1"	253	"	"G/A"	"55,6/44,4"	"124/99"	223	stress_45	"POPTR_0001s34410.1"	253	"	"G/A"	"71,7/28,3"	"38/15"	53
controllo_3	"POPTR_0001s01630.1"	24	"	"C/T"	"55,6/44,4"	"104/83"	187	stress_12bis	"POPTR_0001s01630.1"	24	"	"C/T"	"54,1/45,9"	"20/17"	37
controllo_3	"POPTR_0001s07860.1"	658	"	"T/C"	"55,6/44,4"	"75/60"	135	stress_12bis	"POPTR_0001s07860.1"	658	"	"T/C"	"73,3/26,7"	"11/4"	15
controllo_3	"POPTR_0001s07870.1"	2160	"	"G/T"	"55,6/44,4"	"84/67"	151	stress_12bis	"POPTR_0001s07870.1"	2160	"	"G/T"	"66,7/33,3"	"12/6"	18
controllo_3	"POPTR_0001s07870.1"	2160	"	"G/T"	"55,6/44,4"	"84/67"	151	stress_45	"POPTR_0001s07870.1"	2160	"	"G/T"	"64,2/35,8"	"34/19"	53
controllo_3	"POPTR_0010s20060.1"	756	"	"T/C"	"55,6/44,4"	"421/336"	757	stress_12bis	"POPTR_0010s20060.1"	756	"	"T/C"	"53,2/46,8"	"123/108"	231
controllo_3	"POPTR_0010s20060.1"	756	"	"T/C"	"55,6/44,4"	"421/336"	757	stress_42	"POPTR_0010s20060.1"	756	"	"C/T"	"54,5/45,5"	"30/25"	55
controllo_3	"POPTR_0010s20060.1"	756	"	"T/C"	"55,6/44,4"	"421/336"	757	stress_45	"POPTR_0010s20060.1"	756	"	"C/T"	"56,4/43,6"	"31/24"	55
controllo_3	"POPTR_0007s02000.1"	609	"	"C/T"	"55,6/44,4"	"60/48"	108	stress_12bis	"POPTR_0007s02000.1"	609	"	"T/C"	"51,6/48,4"	"16/15"	31
controllo_3	"POPTR_0007s02000.1"	609	"	"C/T"	"55,6/44,4"	"60/48"	108	stress_42	"POPTR_0007s02000.1"	609	"	"C/T"	"60,0/40,0"	"6/4"	10
controllo_3	"POPTR_0007s02000.1"	609	"	"C/T"	"55,6/44,4"	"60/48"	108	stress_45	"POPTR_0007s02000.1"	609	"	"C/T"	"52,9/47,1"	"9/8"	17
controllo_3	"POPTR_0007s09630.1"	85	"	"C/T"	"55,6/44,4"	"173/138"	311	stress_12bis	"POPTR_0007s09630.1"	85	"	"C/T"	"54,2/45,8"	"45/38"	83
controllo_3	"POPTR_0007s09630.1"	85	"	"C/T"	"55,6/44,4"	"173/138"	311	stress_45	"POPTR_0007s09630.1"	85	"	"C/T"	"60,9/39,1"	"14/9"	23
controllo_3	"POPTR_0002s18510.1"	990	"	"A/G"	"55,6/44,4"	"75/60"	135	stress_12bis	"POPTR_0002s18510.1"	990	"	"G/A"	"54,5/45,5"	"24/20"	44
controllo_3	"POPTR_0002s18510.1"	990	"	"A/G"	"55,6/44,4"	"75/60"	135	stress_42	"POPTR_0002s18510.1"	990	"	"A/G"	"50,9/49,1"	"29/28"	57
controllo_3	"POPTR_0002s18510.1"	990	"	"A/G"	"55,6/44,4"	"75/60"	135	stress_45	"POPTR_0002s18510.1"	990	"	"A/G"	"59,0/41,0"	"36/25"	61
controllo_3	"POPTR_0002s09480.1"	375	"	"T/G"	"55,6/44,4"	"35/28"	63	stress_45	"POPTR_0002s09480.1"	375	"	"T/G"	"54,5/45,5"	"73/61"	134
controllo_3	"POPTR_0008s19160.1"	1189	"	"T/C"	"55,6/44,4"	"135/108"	243	stress_12bis	"POPTR_0008s19160.1"	1189	"	"T/C"	"55,3/44,7"	"63/51"	114
controllo_3	"POPTR_0016s07220.1"	34	"	"A/C"	"55,6/44,4"	"95/76"	171	stress_12bis	"POPTR_0016s07220.1"	34	"	"A/C"	"62,5/37,5"	"25/15"	40
controllo_3	"POPTR_0016s07220.1"	34	"	"A/C"	"55,6/44,4"	"95/76"	171	stress_42	"POPTR_0016s07220.1"	34	"	"A/C"	"72,7/27,3"	"8/3"	11
controllo_3	"POPTR_0016s07220.1"	34	"	"A/C"	"55,6/44,4"	"95/76"	171	stress_45	"POPTR_0016s07220.1"	34	"	"C/A"	"55,6/44,4"	"10/8"	18
controllo_3	"POPTR_0014s02410.1"	771	"	"G/T"	"55,7/43,8"	"465/366"	835	stress_12bis	"POPTR_0014s02410.1"	771	"	"G/T"	"51,6/48,4"	"64/60"	124
controllo_3	"POPTR_0014s02410.1"	771	"	"G/T"	"55,7/43,8"	"465/366"	835	stress_42	"POPTR_0014s02410.1"	771	"	"G/T"	"63,6/35,8"	"110/62"	173
controllo_3	"POPTR_0014s02410.1"	771	"	"G/T"	"55,7/43,8"	"465/366"	835	stress_45	"POPTR_0014s02410.1"	771	"	"G/T"	"57,6/42,4"	"186/137"	323
controllo_3	"POPTR_0006s05160.1"	567	"	"G/A"	"55,7/43,9"	"161/127"	289	stress_12bis	"POPTR_0006s05160.1"	567	"	"G/A"	"60,2/39,8"	"50/33"	83
controllo_3	"POPTR_0006s05160.1"	567	"	"G/A"	"55,7/43,9"	"161/127"	289	stress_42	"POPTR_0006s05160.1"	567	"	"G/A"	"60,0/40,0"	"9/6"	15
controllo_3	"POPTR_0006s05160.1"	567	"	"G/A"	"55,7/43,9"	"161/127"	289	stress_45	"POPTR_0006s05160.1"	567	"	"A/G"	"65,3/34,7"	"32/17"	49
controllo_3	"POPTR_0016s10780.1"	714	"	"T/C"	"55,7/44,0"	"180/142"	323	stress_42	"POPTR_0016s10780.1"	714	"	"T/C"	"72,7/27,3"	"8/3"	11
controllo_3	"POPTR_0011s12680.1"	519	"	"G/C"	"55,7/44,1"	"288/228"	517	stress_12bis	"POPTR_0011s12680.1"	519	"	"G/C"	"57,8/42,2"	"67/49"	116
controllo_3	"POPTR_0011s12680.1"	519	"	"G/C"	"55,7/44,1"	"288/228"	517	stress_42	"POPTR_0011s12680.1"	519	"	"C/G"	"50,0/50,0"	"40/40"	80
controllo_3	"POPTR_0011s12680.1"	519	"	"G/C"	"55,7/44,1"	"288/228"	517	stress_45	"POPTR_0011s12680.1"	519	"	"G/C"	"53,4/45,6"	"55/47"	103
controllo_3	"POPTR_0010s07730.1"	115	"	"C/A"	"55,7/44,1"	"384/304"	689	stress_12bis	"POPTR_0010s07730.1"	115	"	"A/C"	"51,8/48,2"	"147/137"	284
controllo_3	"POPTR_0010s07730.1"	115	"	"C/A"	"55,7/44,1"	"384/304"	689	stress_42	"POPTR_0010s07730.1"	115	"	"C/A"	"59,3/40,7"	"54/37"	91
controllo_3	"POPTR_0010s07730.1"	115	"	"C/A"	"55,7/44,1"	"384/304"	689	stress_45	"POPTR_0010s07730.1"	115	"	"C/A"	"51,8/48,2"	"43/40"	83
controllo_3	"POPTR_0002s01320.1"	621	"	"T/C"	"55,7/44,1"	"279/221"	501	stress_12bis	"POPTR_0002s01320.1"	621	"	"T/C"	"51,8/48,2"	"71/66"	137
controllo_3	"POPTR_0002s01320.1"	621	"	"T/C"	"55,7/44,1"	"279/221"	501	stress_42	"POPTR_0002s01320.1"	621	"	"C/T"	"53,1/46,9"	"17/15"	32
controllo_3	"POPTR_0002s01320.1"	621	"	"T/C"	"55,7/44,1"	"279/221"	501	stress_45	"POPTR_0002s01320.1"	621	"	"C/T"	"54,5/45,5"	"55/46"	101
controllo_3	"POPTR_0017s06920.1"	511	"	"G/A"	"55,7/44,3"	"470/374"	844	stress_12bis	"POPTR_0017s06920.1"	511	"	"G/A"	"56,1/43,9"	"152/119"	271
controllo_3	"POPTR_0017s06920.1"	511	"	"G/A"	"55,7/44,3"	"470/374"	844	stress_45	"POPTR_0017s06920.1"	511	"	"G/A"	"69,2/30,8"	"9/4"	13
controllo_3	"POPTR_0006s06180.1"	1284	"	"C/T"	"55,7/44,3"	"118/94"	212	stress_12bis	"POPTR_0006s06180.1"	1284	"	"C/T"	"69,6/30,4"	"64/28"	92
controllo_3	"POPTR_0006s06180.1"	1284	"	"C/T"	"55,7/44,3"	"118/94"	212	stress_42	"POPTR_0006s06180.1"	1284	"	"C/T"	"53,8/46,2"	"14/12"	26
controllo_3	"POPTR_0006s06180.1"	1284	"	"C/T"	"55,7/44,3"	"118/94"	212	stress_45	"POPTR_0006s06180.1"	1284	"	"C/T"	"58,8/41,2"	"40/28"	68
controllo_3	"POPTR_0006s04960.1"	2226	"	"G/T"	"55,7/44,3"	"160/127"	287	stress_12bis	"POPTR_0006s04960.1"	2226	"	"T/G"	"52,2/47,8"	"24/22"	46
controllo_3	"POPTR_0006s04960.1"	2226	"	"G/T"	"55,7/44,3"	"160/127"	287	stress_42	"POPTR_0006s04960.1"	2226	"	"G/T"	"66,7/33,3"	"8/4"	12
controllo_3	"POPTR_0006s04960.1"	2226	"	"G/T"	"55,7/44,3"	"160/127"	287	stress_45	"POPTR_0006s04960.1"	2226	"	"G/T"	"61,5/38,5"	"16/10"	26
controllo_3	"POPTR_0006s17950.1"	217	"	"A/G"	"55,7/44,3"	"64/51"	115	stress_12bis	"POPTR_0006s17950.1"	217	"	"G/A"	"55,3/44,7"	"21/17"	38
controllo_3	"POPTR_0006s17950.1"	217	"	"A/G"	"55,7/44,3"	"64/51"	115	stress_42	"POPTR_0006s17950.1"	217	"	"A/G"	"57,1/42,9"	"8/6"	14
controllo_3	"POPTR_0006s17950.1"	217	"	"A/G"	"55,7/44,3"	"64/51"	115	stress_45	"POPTR_0006s17950.1"	217	"	"A/G"	"70,0/30,0"	"14/6"	20
controllo_3	"POPTR_0014s02550.1"	612	"	"G/A"	"55,7/44,3"	"83/66"	149	stress_12bis	"POPTR_0014s02550.1"	612	"	"G/A"	"53,3/46,7"	"24/21"	45
controllo_3	"POPTR_0014s02550.1"	612	"	"G/A"	"55,7/44,3"	"83/66"	149	stress_42	"POPTR_0014s02550.1"	612	"	"A/G"	"71,8/28,2"	"28/11"	39
controllo_3	"POPTR_0014s02550.1"	612	"	"G/A"	"55,7/44,3"	"83/66"	149	stress_45	"POPTR_0014s02550.1"	612	"	"G/A"	"56,8/43,2"	"50/38"	88
controllo_3	"POPTR_0004s01990.1"	45	"	"T/C"	"55,7/44,3"	"273/217"	490	stress_12bis	"POPTR_0004s01990.1"	45	"	"T/C"	"62,4/37,6"	"63/38"	101
controllo_3	"POPTR_0004s00480.1"	708	"	"G/C"	"55,7/44,3"	"162/129"	291	stress_12bis	"POPTR_0004s00480.1"	708	"	"G/C"	"53,8/46,2"	"86/74"	160
controllo_3	"POPTR_0004s00480.1"	708	"	"G/C"	"55,7/44,3"	"162/129"	291	stress_42	"POPTR_0004s00480.1"	708	"	"G/C"	"67,0/33,0"	"65/32"	97
controllo_3	"POPTR_0004s00480.1"	708	"	"G/C"	"55,7/44,3"	"162/129"	291	stress_45	"POPTR_0004s00480.1"	708	"	"G/C"	"62,6/37,4"	"87/52"	139
controllo_3	"POPTR_0012s01250.1"	328	"	"T/C"	"55,7/44,3"	"206/164"	370	stress_12bis	"POPTR_0012s01250.1"	328	"	"T/C"	"56,8/43,2"	"46/35"	81
controllo_3	"POPTR_0012s01250.1"	328	"	"T/C"	"55,7/44,3"	"206/164"	370	stress_42	"POPTR_0012s01250.1"	328	"	"C/T"	"61,5/38,5"	"56/35"	91
controllo_3	"POPTR_0012s01250.1"	328	"	"T/C"	"55,7/44,3"	"206/164"	370	stress_45	"POPTR_0012s01250.1"	328	"	"C/T"	"50,5/49,5"	"47/46"	93
controllo_3	"POPTR_0011s14150.1"	978	"	"T/C"	"55,7/44,3"	"64/51"	115	stress_12bis	"POPTR_0011s14150.1"	978	"	"T/C"	"55,3/44,7"	"21/17"	38
controllo_3	"POPTR_0011s14150.1"	978	"	"T/C"	"55,7/44,3"	"64/51"	115	stress_42	"POPTR_0011s14150.1"	978	"	"T/C"	"55,7/44,3"	"39/31"	70
controllo_3	"POPTR_0011s14150.1"	978	"	"T/C"	"55,7/44,3"	"64/51"	115	stress_45	"POPTR_0011s14150.1"	978	"	"T/C"	"52,8/47,2"	"38/34"	72
controllo_3	"POPTR_0015s09990.1"	54	"	"T/C"	"55,7/44,3"	"108/86"	194	stress_12bis	"POPTR_0015s09990.1"	54	"	"T/C"	"55,4/42,9"	"31/24"	56
controllo_3	"POPTR_0015s09990.1"	54	"	"T/C"	"55,7/44,3"	"108/86"	194	stress_42	"POPTR_0015s09990.1"	54	"	"T/C"	"60,0/40,0"	"6/4"	10
controllo_3	"POPTR_0001s47210.1"	804	"	"A/G"	"55,7/44,3"	"195/155"	350	stress_12bis	"POPTR_0001s47210.1"	804	"	"A/G"	"76,8/23,2"	"43/13"	56
controllo_3	"POPTR_0001s44110.1"	174	"	"T/C"	"55,7/44,3"	"73/58"	131	stress_12bis	"POPTR_0001s44110.1"	174	"	"T/C"	"67,9/32,1"	"19/9"	28
controllo_3	"POPTR_0001s44110.1"	174	"	"T/C"	"55,7/44,3"	"73/58"	131	stress_42	"POPTR_0001s44110.1"	174	"	"T/C"	"83,3/16,7"	"10/2"	12
controllo_3	"POPTR_0001s44110.1"	174	"	"T/C"	"55,7/44,3"	"73/58"	131	stress_45	"POPTR_0001s44110.1"	174	"	"C/T"	"54,5/45,5"	"6/5"	11
controllo_3	"POPTR_0001s47020.1"	2032	"	"G/T"	"55,7/44,3"	"118/94"	212	stress_12bis	"POPTR_0001s47020.1"	2032	"	"G/T"	"72,5/27,5"	"50/19"	69
controllo_3	"POPTR_0001s47020.1"	2032	"	"G/T"	"55,7/44,3"	"118/94"	212	stress_42	"POPTR_0001s47020.1"	2032	"	"G/T"	"56,9/43,1"	"41/31"	72
controllo_3	"POPTR_0001s47020.1"	2032	"	"G/T"	"55,7/44,3"	"118/94"	212	stress_45	"POPTR_0001s47020.1"	2032	"	"G/T"	"55,8/44,2"	"63/50"	113
controllo_3	"POPTR_0010s05530.1"	1281	"	"C/A"	"55,7/44,3"	"385/306"	691	stress_12bis	"POPTR_0010s05530.1"	1281	"	"C/A"	"56,6/43,4"	"151/116"	267
controllo_3	"POPTR_0010s05530.1"	1281	"	"C/A"	"55,7/44,3"	"385/306"	691	stress_42	"POPTR_0010s05530.1"	1281	"	"A/C"	"55,4/44,6"	"36/29"	65
controllo_3	"POPTR_0010s05530.1"	1281	"	"C/A"	"55,7/44,3"	"385/306"	691	stress_45	"POPTR_0010s05530.1"	1281	"	"A/C"	"57,3/42,7"	"47/35"	82
controllo_3	"POPTR_0002s04790.1"	751	"	"A/G"	"55,7/44,3"	"127/101"	228	stress_12bis	"POPTR_0002s04790.1"	751	"	"A/G"	"54,4/45,6"	"37/31"	68
controllo_3	"POPTR_0002s04790.1"	751	"	"A/G"	"55,7/44,3"	"127/101"	228	stress_42	"POPTR_0002s04790.1"	751	"	"G/A"	"62,5/37,5"	"10/6"	16
controllo_3	"POPTR_0002s04790.1"	751	"	"A/G"	"55,7/44,3"	"127/101"	228	stress_45	"POPTR_0002s04790.1"	751	"	"G/A"	"66,7/33,3"	"14/7"	21
controllo_3	"POPTR_0002s21340.1"	1448	"	"G/A"	"55,7/44,3"	"64/51"	115	stress_12bis	"POPTR_0002s21340.1"	1448	"	"G/A"	"58,1/41,9"	"25/18"	43
controllo_3	"POPTR_0002s21340.1"	1448	"	"G/A"	"55,7/44,3"	"64/51"	115	stress_42	"POPTR_0002s21340.1"	1448	"	"G/A"	"56,8/43,2"	"42/32"	74
controllo_3	"POPTR_0002s21340.1"	1448	"	"G/A"	"55,7/44,3"	"64/51"	115	stress_45	"POPTR_0002s21340.1"	1448	"	"G/A"	"56,4/43,6"	"57/44"	101
controllo_3	"POPTR_0008s05480.1"	1605	"	"C/T"	"55,7/44,3"	"532/423"	955	stress_12bis	"POPTR_0008s05480.1"	1605	"	"C/T"	"55,5/44,5"	"206/165"	371
controllo_3	"POPTR_0008s05480.1"	1605	"	"C/T"	"55,7/44,3"	"532/423"	955	stress_42	"POPTR_0008s05480.1"	1605	"	"C/T"	"52,8/47,2"	"124/111"	235
controllo_3	"POPTR_0008s05480.1"	1605	"	"C/T"	"55,7/44,3"	"532/423"	955	stress_45	"POPTR_0008s05480.1"	1605	"	"C/T"	"53,5/46,3"	"276/239"	516
controllo_3	"POPTR_0008s12550.1"	936	"	"C/T"	"55,7/44,3"	"68/54"	122	stress_12bis	"POPTR_0008s12550.1"	936	"	"T/C"	"62,5/37,5"	"20/12"	32
controllo_3	"POPTR_0008s12550.1"	936	"	"C/T"	"55,7/44,3"	"68/54"	122	stress_42	"POPTR_0008s12550.1"	936	"	"T/C"	"57,8/42,2"	"37/27"	64
controllo_3	"POPTR_0008s12550.1"	936	"	"C/T"	"55,7/44,3"	"68/54"	122	stress_45	"POPTR_0008s12550.1"	936	"	"T/C"	"53,1/46,9"	"69/61"	130
controllo_3	"POPTR_0008s19960.1"	414	"	"C/T"	"55,7/44,3"	"93/74"	167	stress_12bis	"POPTR_0008s19960.1"	414	"	"C/T"	"63,3/36,7"	"19/11"	30
controllo_3	"POPTR_0016s03630.1"	3355	"	"G/C"	"55,7/44,3"	"108/86"	194	stress_12bis	"POPTR_0016s03630.1"	3355	"	"C/G"	"51,2/48,8"	"22/21"	43
controllo_3	"POPTR_0013s07050.1"	246	"	"C/T"	"55,8/43,4"	"63/49"	113	stress_12bis	"POPTR_0013s07050.1"	246	"	"C/T"	"58,1/41,9"	"18/13"	31
controllo_3	"POPTR_0013s07050.1"	246	"	"C/T"	"55,8/43,4"	"63/49"	113	stress_42	"POPTR_0013s07050.1"	246	"	"C/T"	"52,6/47,4"	"20/18"	38
controllo_3	"POPTR_0013s07050.1"	246	"	"C/T"	"55,8/43,4"	"63/49"	113	stress_45	"POPTR_0013s07050.1"	246	"	"C/T"	"67,4/32,6"	"31/15"	46
controllo_3	"POPTR_0002s21340.1"	1236	"	"G/T"	"55,8/43,4"	"72/56"	129	stress_12bis	"POPTR_0002s21340.1"	1236	"	"G/T"	"60,5/39,5"	"26/17"	43
controllo_3	"POPTR_0002s21340.1"	1236	"	"G/T"	"55,8/43,4"	"72/56"	129	stress_42	"POPTR_0002s21340.1"	1236	"	"G/T"	"57,4/42,6"	"35/26"	61
controllo_3	"POPTR_0002s21340.1"	1236	"	"G/T"	"55,8/43,4"	"72/56"	129	stress_45	"POPTR_0002s21340.1"	1236	"	"G/T"	"53,4/46,6"	"39/34"	73
controllo_3	"POPTR_0009s01470.1"	69	"	"G/T"	"55,8/43,6"	"91/71"	163	stress_12bis	"POPTR_0009s01470.1"	69	"	"G/T"	"60,8/39,2"	"31/20"	51
controllo_3	"POPTR_0009s01470.1"	69	"	"G/T"	"55,8/43,6"	"91/71"	163	stress_42	"POPTR_0009s01470.1"	69	"	"T/G"	"72,7/27,3"	"8/3"	11
controllo_3	"POPTR_0009s01470.1"	69	"	"G/T"	"55,8/43,6"	"91/71"	163	stress_45	"POPTR_0009s01470.1"	69	"	"G/T"	"68,6/31,4"	"24/11"	35
controllo_3	"POPTR_0006s14400.1"	993	"	"C/T"	"55,8/44,0"	"1090/860"	1953	stress_12bis	"POPTR_0006s14400.1"	993	"	"C/T"	"57,3/42,7"	"267/199"	466
controllo_3	"POPTR_0006s14400.1"	993	"	"C/T"	"55,8/44,0"	"1090/860"	1953	stress_42	"POPTR_0006s14400.1"	993	"	"T/C"	"75,8/24,1"	"797/253"	1051
controllo_3	"POPTR_0006s14400.1"	993	"	"C/T"	"55,8/44,0"	"1090/860"	1953	stress_45	"POPTR_0006s14400.1"	993	"	"T/C"	"75,5/24,4"	"982/317"	1301
controllo_3	"POPTR_0005s20560.1"	378	"	"A/G"	"55,8/44,2"	"58/46"	104	stress_12bis	"POPTR_0005s20560.1"	378	"	"A/G"	"61,4/38,6"	"27/17"	44
controllo_3	"POPTR_0005s15660.1"	493	"	"A/G"	"55,8/44,2"	"9956/7886"	17849	stress_12bis	"POPTR_0005s15660.1"	493	"	"A/G"	"56,1/43,9"	"2403/1880"	4283
controllo_3	"POPTR_0005s15660.1"	493	"	"A/G"	"55,8/44,2"	"9956/7886"	17849	stress_42	"POPTR_0005s15660.1"	493	"	"A/G"	"50,1/49,8"	"654/650"	1305
controllo_3	"POPTR_0005s15660.1"	493	"	"A/G"	"55,8/44,2"	"9956/7886"	17849	stress_45	"POPTR_0005s15660.1"	493	"	"A/G"	"50,1/49,9"	"558/556"	1114
controllo_3	"POPTR_0003s11300.1"	2136	"	"A/T"	"55,8/44,2"	"135/107"	242	stress_12bis	"POPTR_0003s11300.1"	2136	"	"A/T"	"62,9/37,1"	"56/33"	89
controllo_3	"POPTR_0003s11300.1"	2136	"	"A/T"	"55,8/44,2"	"135/107"	242	stress_42	"POPTR_0003s11300.1"	2136	"	"A/T"	"59,3/40,7"	"16/11"	27
controllo_3	"POPTR_0003s11300.1"	2136	"	"A/T"	"55,8/44,2"	"135/107"	242	stress_45	"POPTR_0003s11300.1"	2136	"	"T/A"	"52,8/47,2"	"19/17"	36
controllo_3	"POPTR_0003s12870.1"	51	"	"G/A"	"55,8/44,2"	"130/103"	233	stress_12bis	"POPTR_0003s12870.1"	51	"	"G/A"	"60,8/39,2"	"48/31"	79
controllo_3	"POPTR_0003s12870.1"	51	"	"G/A"	"55,8/44,2"	"130/103"	233	stress_42	"POPTR_0003s12870.1"	51	"	"A/G"	"69,6/30,4"	"32/14"	46
controllo_3	"POPTR_0003s12870.1"	51	"	"G/A"	"55,8/44,2"	"130/103"	233	stress_45	"POPTR_0003s12870.1"	51	"	"A/G"	"56,2/43,8"	"27/21"	48
controllo_3	"POPTR_0013s13220.1"	757	"	"G/C"	"55,8/44,2"	"91/72"	163	stress_12bis	"POPTR_0013s13220.1"	757	"	"G/C"	"70,3/29,7"	"78/33"	111
controllo_3	"POPTR_0013s13220.1"	757	"	"G/C"	"55,8/44,2"	"91/72"	163	stress_42	"POPTR_0013s13220.1"	757	"	"G/C"	"58,5/41,5"	"55/39"	94
controllo_3	"POPTR_0013s13220.1"	757	"	"G/C"	"55,8/44,2"	"91/72"	163	stress_45	"POPTR_0013s13220.1"	757	"	"G/C"	"54,3/45,7"	"70/59"	129
controllo_3	"POPTR_0013s07150.1"	1552	"	"G/A"	"55,8/44,2"	"101/80"	181	stress_12bis	"POPTR_0013s07150.1"	1552	"	"G/A"	"66,0/34,0"	"31/16"	47
controllo_3	"POPTR_0013s07150.1"	1552	"	"G/A"	"55,8/44,2"	"101/80"	181	stress_42	"POPTR_0013s07150.1"	1552	"	"A/G"	"52,6/47,4"	"10/9"	19
controllo_3	"POPTR_0013s07150.1"	1552	"	"G/A"	"55,8/44,2"	"101/80"	181	stress_45	"POPTR_0013s07150.1"	1552	"	"A/G"	"71,4/28,6"	"20/8"	28
controllo_3	"POPTR_0014s08410.1"	311	"	"T/C"	"55,8/44,2"	"58/46"	104	stress_12bis	"POPTR_0014s08410.1"	311	"	"C/T"	"50,0/50,0"	"24/24"	48
controllo_3	"POPTR_0014s08410.1"	311	"	"T/C"	"55,8/44,2"	"58/46"	104	stress_42	"POPTR_0014s08410.1"	311	"	"C/T"	"50,0/50,0"	"5/5"	10
controllo_3	"POPTR_0014s08410.1"	311	"	"T/C"	"55,8/44,2"	"58/46"	104	stress_45	"POPTR_0014s08410.1"	311	"	"C/T"	"54,5/45,5"	"18/15"	33
controllo_3	"POPTR_0004s07280.1"	789	"	"C/T"	"55,8/44,2"	"58/46"	104	stress_12bis	"POPTR_0004s07280.1"	789	"	"C/T"	"55,6/44,4"	"15/12"	27
controllo_3	"POPTR_0004s07280.1"	789	"	"C/T"	"55,8/44,2"	"58/46"	104	stress_42	"POPTR_0004s07280.1"	789	"	"C/T"	"60,0/40,0"	"15/10"	25
controllo_3	"POPTR_0004s07280.1"	789	"	"C/T"	"55,8/44,2"	"58/46"	104	stress_45	"POPTR_0004s07280.1"	789	"	"C/T"	"54,3/45,7"	"19/16"	35
controllo_3	"POPTR_0001s37490.1"	169	"	"G/A"	"55,8/44,2"	"67/53"	120	stress_12bis	"POPTR_0001s37490.1"	169	"	"G/A"	"58,6/41,4"	"17/12"	29
controllo_3	"POPTR_0001s37490.1"	169	"	"G/A"	"55,8/44,2"	"67/53"	120	stress_42	"POPTR_0001s37490.1"	169	"	"G/A"	"84,2/15,8"	"16/3"	19
controllo_3	"POPTR_0001s40480.1"	784	"	"G/T"	"55,8/44,2"	"688/545"	1233	stress_12bis	"POPTR_0001s40480.1"	784	"	"G/T"	"57,6/42,4"	"254/187"	441
controllo_3	"POPTR_0001s40480.1"	784	"	"G/T"	"55,8/44,2"	"688/545"	1233	stress_42	"POPTR_0001s40480.1"	784	"	"G/T"	"84,0/16,0"	"42/8"	50
controllo_3	"POPTR_0001s40480.1"	784	"	"G/T"	"55,8/44,2"	"688/545"	1233	stress_45	"POPTR_0001s40480.1"	784	"	"G/T"	"64,2/35,8"	"43/24"	67
controllo_3	"POPTR_0007s12070.1"	813	"	"G/A"	"55,8/44,2"	"531/421"	952	stress_12bis	"POPTR_0007s12070.1"	813	"	"G/A"	"56,6/43,4"	"241/185"	426
controllo_3	"POPTR_0007s12070.1"	813	"	"G/A"	"55,8/44,2"	"531/421"	952	stress_42	"POPTR_0007s12070.1"	813	"	"G/A"	"50,8/49,2"	"60/58"	118
controllo_3	"POPTR_0007s12070.1"	813	"	"G/A"	"55,8/44,2"	"531/421"	952	stress_45	"POPTR_0007s12070.1"	813	"	"A/G"	"52,0/48,0"	"51/47"	98
controllo_3	"POPTR_0002s10870.1"	1107	"	"T/C"	"55,8/44,2"	"82/65"	147	stress_12bis	"POPTR_0002s10870.1"	1107	"	"T/C"	"64,6/35,4"	"31/17"	48
controllo_3	"POPTR_0002s10870.1"	1107	"	"T/C"	"55,8/44,2"	"82/65"	147	stress_42	"POPTR_0002s10870.1"	1107	"	"C/T"	"61,1/38,9"	"11/7"	18
controllo_3	"POPTR_0002s10870.1"	1107	"	"T/C"	"55,8/44,2"	"82/65"	147	stress_45	"POPTR_0002s10870.1"	1107	"	"C/T"	"62,5/37,5"	"15/9"	24
controllo_3	"POPTR_0002s02310.1"	132	"	"A/G"	"55,8/44,2"	"111/88"	199	stress_12bis	"POPTR_0002s02310.1"	132	"	"A/G"	"57,9/42,1"	"44/32"	76
controllo_3	"POPTR_0002s02310.1"	132	"	"A/G"	"55,8/44,2"	"111/88"	199	stress_42	"POPTR_0002s02310.1"	132	"	"G/A"	"62,9/37,1"	"44/26"	70
controllo_3	"POPTR_0002s02310.1"	132	"	"A/G"	"55,8/44,2"	"111/88"	199	stress_45	"POPTR_0002s02310.1"	132	"	"G/A"	"57,3/42,7"	"43/32"	75
controllo_3	"POPTR_0008s20370.1"	172	"	"A/G"	"55,8/44,2"	"67/53"	120	stress_12bis	"POPTR_0008s20370.1"	172	"	"A/G"	"53,8/46,2"	"14/12"	26
controllo_3	"POPTR_0008s20370.1"	172	"	"A/G"	"55,8/44,2"	"67/53"	120	stress_42	"POPTR_0008s20370.1"	172	"	"A/G"	"52,9/47,1"	"18/16"	34
controllo_3	"POPTR_0008s20370.1"	172	"	"A/G"	"55,8/44,2"	"67/53"	120	stress_45	"POPTR_0008s20370.1"	172	"	"G/A"	"60,0/40,0"	"21/14"	35
controllo_3	"POPTR_0008s05950.1"	681	"	"G/C"	"55,8/44,2"	"67/53"	120	stress_12bis	"POPTR_0008s05950.1"	681	"	"G/C"	"53,8/46,2"	"14/12"	26
controllo_3	"POPTR_0008s05950.1"	681	"	"G/C"	"55,8/44,2"	"67/53"	120	stress_42	"POPTR_0008s05950.1"	681	"	"G/C"	"60,0/40,0"	"24/16"	40
controllo_3	"POPTR_0008s05950.1"	681	"	"G/C"	"55,8/44,2"	"67/53"	120	stress_45	"POPTR_0008s05950.1"	681	"	"G/C"	"66,0/34,0"	"31/16"	47
controllo_3	"POPTR_0008s15290.1"	1404	"	"T/A"	"55,8/44,2"	"86/68"	154	stress_12bis	"POPTR_0008s15290.1"	1404	"	"T/A"	"58,6/41,4"	"41/29"	70
controllo_3	"POPTR_0008s15290.1"	1404	"	"T/A"	"55,8/44,2"	"86/68"	154	stress_42	"POPTR_0008s15290.1"	1404	"	"T/A"	"52,5/47,5"	"31/28"	59
controllo_3	"POPTR_0008s15290.1"	1404	"	"T/A"	"55,8/44,2"	"86/68"	154	stress_45	"POPTR_0008s15290.1"	1404	"	"A/T"	"57,3/42,7"	"55/41"	96
controllo_3	"POPTR_0016s03070.1"	274	"	"C/G"	"55,8/44,2"	"63/50"	113	stress_12bis	"POPTR_0016s03070.1"	274	"	"C/G"	"64,1/35,9"	"25/14"	39
controllo_3	"POPTR_0016s03070.1"	274	"	"C/G"	"55,8/44,2"	"63/50"	113	stress_42	"POPTR_0016s03070.1"	274	"	"G/C"	"57,9/42,1"	"11/8"	19
controllo_3	"POPTR_0016s03070.1"	274	"	"C/G"	"55,8/44,2"	"63/50"	113	stress_45	"POPTR_0016s03070.1"	274	"	"G/C"	"64,3/35,7"	"9/5"	14
controllo_3	"POPTR_0016s11610.1"	615	"	"A/G"	"55,8/44,2"	"154/122"	276	stress_12bis	"POPTR_0016s11610.1"	615	"	"A/G"	"56,5/42,0"	"39/29"	69
controllo_3	"POPTR_0016s11610.1"	615	"	"A/G"	"55,8/44,2"	"154/122"	276	stress_42	"POPTR_0016s11610.1"	615	"	"A/G"	"50,0/50,0"	"19/19"	38
controllo_3	"POPTR_0016s11610.1"	615	"	"A/G"	"55,8/44,2"	"154/122"	276	stress_45	"POPTR_0016s11610.1"	615	"	"A/G"	"66,0/34,0"	"35/18"	53
controllo_3	"POPTR_0002s01570.1"	1116	"	"C/T"	"55,9/43,4"	"85/66"	152	stress_12bis	"POPTR_0002s01570.1"	1116	"	"C/T"	"52,6/47,4"	"20/18"	38
controllo_3	"POPTR_0002s01570.1"	1116	"	"C/T"	"55,9/43,4"	"85/66"	152	stress_42	"POPTR_0002s01570.1"	1116	"	"C/T"	"59,4/40,6"	"38/26"	64
controllo_3	"POPTR_0002s01570.1"	1116	"	"C/T"	"55,9/43,4"	"85/66"	152	stress_45	"POPTR_0002s01570.1"	1116	"	"C/T"	"53,6/46,4"	"30/26"	56
controllo_3	"POPTR_0005s06460.1"	268	"	"G/T"	"55,9/44,1"	"99/78"	177	stress_12bis	"POPTR_0005s06460.1"	268	"	"G/T"	"58,6/41,4"	"34/24"	58
controllo_3	"POPTR_0005s06460.1"	268	"	"G/T"	"55,9/44,1"	"99/78"	177	stress_42	"POPTR_0005s06460.1"	268	"	"G/T"	"73,7/26,3"	"28/10"	38
controllo_3	"POPTR_0005s06460.1"	268	"	"G/T"	"55,9/44,1"	"99/78"	177	stress_45	"POPTR_0005s06460.1"	268	"	"G/T"	"70,0/30,0"	"21/9"	30
controllo_3	"POPTR_0005s05130.1"	1071	"	"T/C"	"55,9/44,1"	"66/52"	118	stress_12bis	"POPTR_0005s05130.1"	1071	"	"T/C"	"64,7/35,3"	"11/6"	17
controllo_3	"POPTR_0005s05130.1"	1071	"	"T/C"	"55,9/44,1"	"66/52"	118	stress_42	"POPTR_0005s05130.1"	1071	"	"T/C"	"75,0/25,0"	"12/4"	16
controllo_3	"POPTR_0005s05130.1"	1071	"	"T/C"	"55,9/44,1"	"66/52"	118	stress_45	"POPTR_0005s05130.1"	1071	"	"C/T"	"60,0/40,0"	"6/4"	10
controllo_3	"POPTR_0017s07800.1"	402	"	"C/G"	"55,9/44,1"	"76/60"	136	stress_12bis	"POPTR_0017s07800.1"	402	"	"G/C"	"66,7/33,3"	"28/14"	42
controllo_3	"POPTR_0006s12910.1"	658	"	"A/T"	"55,9/44,1"	"232/183"	415	stress_12bis	"POPTR_0006s12910.1"	658	"	"T/A"	"50,5/49,5"	"54/53"	107
controllo_3	"POPTR_0006s12910.1"	658	"	"A/T"	"55,9/44,1"	"232/183"	415	stress_42	"POPTR_0006s12910.1"	658	"	"T/A"	"54,6/45,4"	"53/44"	97
controllo_3	"POPTR_0006s12910.1"	658	"	"A/T"	"55,9/44,1"	"232/183"	415	stress_45	"POPTR_0006s12910.1"	658	"	"A/T"	"56,5/43,5"	"78/60"	138
controllo_3	"POPTR_0003s20870.1"	1032	"	"G/A"	"55,9/44,1"	"57/45"	102	stress_12bis	"POPTR_0003s20870.1"	1032	"	"G/A"	"65,0/35,0"	"13/7"	20
controllo_3	"POPTR_0003s20870.1"	1032	"	"G/A"	"55,9/44,1"	"57/45"	102	stress_45	"POPTR_0003s20870.1"	1032	"	"A/G"	"55,6/44,4"	"10/8"	18
controllo_3	"POPTR_0013s00850.1"	432	"	"G/A"	"55,9/44,1"	"179/141"	320	stress_12bis	"POPTR_0013s00850.1"	432	"	"G/A"	"54,4/45,6"	"43/36"	79
controllo_3	"POPTR_0013s00850.1"	432	"	"G/A"	"55,9/44,1"	"179/141"	320	stress_42	"POPTR_0013s00850.1"	432	"	"G/A"	"52,9/47,1"	"185/165"	350
controllo_3	"POPTR_0013s00850.1"	432	"	"G/A"	"55,9/44,1"	"179/141"	320	stress_45	"POPTR_0013s00850.1"	432	"	"G/A"	"52,8/47,2"	"124/111"	235
controllo_3	"POPTR_0013s06710.1"	849	"	"C/T"	"55,9/44,1"	"118/93"	211	stress_12bis	"POPTR_0013s06710.1"	849	"	"C/T"	"64,8/35,2"	"46/25"	71
controllo_3	"POPTR_0013s06710.1"	849	"	"C/T"	"55,9/44,1"	"118/93"	211	stress_42	"POPTR_0013s06710.1"	849	"	"C/T"	"56,7/43,3"	"17/13"	30
controllo_3	"POPTR_0013s06710.1"	849	"	"C/T"	"55,9/44,1"	"118/93"	211	stress_45	"POPTR_0013s06710.1"	849	"	"C/T"	"50,0/50,0"	"22/22"	44
controllo_3	"POPTR_0013s01080.1"	926	"	"G/A"	"55,9/44,1"	"57/45"	102	stress_12bis	"POPTR_0013s01080.1"	926	"	"G/A"	"56,9/43,1"	"29/22"	51
controllo_3	"POPTR_0013s01080.1"	926	"	"G/A"	"55,9/44,1"	"57/45"	102	stress_42	"POPTR_0013s01080.1"	926	"	"A/G"	"53,3/46,7"	"8/7"	15
controllo_3	"POPTR_0013s01080.1"	926	"	"G/A"	"55,9/44,1"	"57/45"	102	stress_45	"POPTR_0013s01080.1"	926	"	"A/G"	"50,0/50,0"	"11/11"	22
controllo_3	"POPTR_0014s06820.1"	1057	"	"A/G"	"55,9/44,1"	"62/49"	111	stress_12bis	"POPTR_0014s06820.1"	1057	"	"A/G"	"51,2/48,8"	"21/20"	41
controllo_3	"POPTR_0014s06820.1"	1057	"	"A/G"	"55,9/44,1"	"62/49"	111	stress_42	"POPTR_0014s06820.1"	1057	"	"A/G"	"66,7/33,3"	"8/4"	12
controllo_3	"POPTR_0014s06820.1"	1057	"	"A/G"	"55,9/44,1"	"62/49"	111	stress_45	"POPTR_0014s06820.1"	1057	"	"A/G"	"61,5/38,5"	"8/5"	13
controllo_3	"POPTR_0014s00250.1"	405	"	"G/A"	"55,9/44,1"	"66/52"	118	stress_12bis	"POPTR_0014s00250.1"	405	"	"A/G"	"53,8/46,2"	"14/12"	26
controllo_3	"POPTR_0014s00250.1"	405	"	"G/A"	"55,9/44,1"	"66/52"	118	stress_45	"POPTR_0014s00250.1"	405	"	"A/G"	"58,3/41,7"	"7/5"	12
controllo_3	"POPTR_0014s06370.1"	46	"	"A/G"	"55,9/44,1"	"114/90"	204	stress_12bis	"POPTR_0014s06370.1"	46	"	"A/G"	"52,7/47,3"	"29/26"	55
controllo_3	"POPTR_0014s06370.1"	46	"	"A/G"	"55,9/44,1"	"114/90"	204	stress_42	"POPTR_0014s06370.1"	46	"	"A/G"	"60,0/40,0"	"24/16"	40
controllo_3	"POPTR_0014s06370.1"	46	"	"A/G"	"55,9/44,1"	"114/90"	204	stress_45	"POPTR_0014s06370.1"	46	"	"A/G"	"59,3/40,7"	"48/33"	81
controllo_3	"POPTR_0004s01660.1"	1440	"	"T/C"	"55,9/44,1"	"137/108"	245	stress_12bis	"POPTR_0004s01660.1"	1440	"	"C/T"	"61,5/38,5"	"72/45"	117
controllo_3	"POPTR_0004s01660.1"	1440	"	"T/C"	"55,9/44,1"	"137/108"	245	stress_42	"POPTR_0004s01660.1"	1440	"	"T/C"	"55,3/44,7"	"26/21"	47
controllo_3	"POPTR_0004s01660.1"	1440	"	"T/C"	"55,9/44,1"	"137/108"	245	stress_45	"POPTR_0004s01660.1"	1440	"	"T/C"	"53,8/46,2"	"35/30"	65
controllo_3	"POPTR_0009s01320.1"	1731	"	"T/A"	"55,9/44,1"	"170/134"	304	stress_12bis	"POPTR_0009s01320.1"	1731	"	"T/A"	"58,2/41,8"	"173/124"	297
controllo_3	"POPTR_0009s01320.1"	1731	"	"T/A"	"55,9/44,1"	"170/134"	304	stress_42	"POPTR_0009s01320.1"	1731	"	"T/A"	"60,0/40,0"	"255/170"	425
controllo_3	"POPTR_0009s01320.1"	1731	"	"T/A"	"55,9/44,1"	"170/134"	304	stress_45	"POPTR_0009s01320.1"	1731	"	"T/A"	"59,0/41,0"	"222/154"	376
controllo_3	"POPTR_0009s09240.1"	628	"	"C/G"	"55,9/44,1"	"100/79"	179	stress_12bis	"POPTR_0009s09240.1"	628	"	"C/G"	"57,1/41,6"	"44/32"	77
controllo_3	"POPTR_0009s09240.1"	628	"	"C/G"	"55,9/44,1"	"100/79"	179	stress_42	"POPTR_0009s09240.1"	628	"	"C/G"	"61,1/38,9"	"11/7"	18
controllo_3	"POPTR_0009s09240.1"	628	"	"C/G"	"55,9/44,1"	"100/79"	179	stress_45	"POPTR_0009s09240.1"	628	"	"G/C"	"59,1/40,9"	"13/9"	22
controllo_3	"POPTR_0012s08790.1"	102	"	"C/G"	"55,9/44,1"	"66/52"	118	stress_12bis	"POPTR_0012s08790.1"	102	"	"C/G"	"59,5/40,5"	"25/17"	42
controllo_3	"POPTR_0012s08790.1"	102	"	"C/G"	"55,9/44,1"	"66/52"	118	stress_42	"POPTR_0012s08790.1"	102	"	"C/G"	"65,8/34,2"	"25/13"	38
controllo_3	"POPTR_0012s08790.1"	102	"	"C/G"	"55,9/44,1"	"66/52"	118	stress_45	"POPTR_0012s08790.1"	102	"	"C/G"	"50,0/50,0"	"6/6"	12
controllo_3	"POPTR_0012s07660.1"	63	"	"T/G"	"55,9/44,1"	"62/49"	111	stress_12bis	"POPTR_0012s07660.1"	63	"	"G/T"	"52,9/47,1"	"9/8"	17
controllo_3	"POPTR_0012s07660.1"	63	"	"T/G"	"55,9/44,1"	"62/49"	111	stress_42	"POPTR_0012s07660.1"	63	"	"T/G"	"60,6/36,4"	"20/12"	33
controllo_3	"POPTR_0012s07660.1"	63	"	"T/G"	"55,9/44,1"	"62/49"	111	stress_45	"POPTR_0012s07660.1"	63	"	"T/G"	"68,4/31,6"	"13/6"	19
controllo_3	"POPTR_0015s10920.1"	1386	"	"C/T"	"55,9/44,1"	"95/75"	170	stress_12bis	"POPTR_0015s10920.1"	1386	"	"T/C"	"54,5/45,5"	"36/30"	66
controllo_3	"POPTR_0015s10920.1"	1386	"	"C/T"	"55,9/44,1"	"95/75"	170	stress_42	"POPTR_0015s10920.1"	1386	"	"T/C"	"51,4/48,6"	"18/17"	35
controllo_3	"POPTR_0015s10920.1"	1386	"	"C/T"	"55,9/44,1"	"95/75"	170	stress_45	"POPTR_0015s10920.1"	1386	"	"T/C"	"58,3/41,7"	"28/20"	48
controllo_3	"POPTR_0001s37480.1"	434	"	"C/A"	"55,9/44,1"	"66/52"	118	stress_12bis	"POPTR_0001s37480.1"	434	"	"A/C"	"70,0/30,0"	"21/9"	30
controllo_3	"POPTR_0001s37480.1"	434	"	"C/A"	"55,9/44,1"	"66/52"	118	stress_42	"POPTR_0001s37480.1"	434	"	"C/A"	"67,7/32,3"	"21/10"	31
controllo_3	"POPTR_0001s37480.1"	434	"	"C/A"	"55,9/44,1"	"66/52"	118	stress_45	"POPTR_0001s37480.1"	434	"	"A/C"	"57,9/42,1"	"33/24"	57
controllo_3	"POPTR_0001s21340.1"	1564	"	"C/G"	"55,9/44,1"	"66/52"	118	stress_12bis	"POPTR_0001s21340.1"	1564	"	"G/C"	"52,4/47,6"	"11/10"	21
controllo_3	"POPTR_0001s21340.1"	1564	"	"C/G"	"55,9/44,1"	"66/52"	118	stress_42	"POPTR_0001s21340.1"	1564	"	"C/G"	"60,0/40,0"	"15/10"	25
controllo_3	"POPTR_0001s21340.1"	1564	"	"C/G"	"55,9/44,1"	"66/52"	118	stress_45	"POPTR_0001s21340.1"	1564	"	"C/G"	"72,7/27,3"	"8/3"	11
controllo_3	"POPTR_0010s11780.1"	467	"	"C/G"	"55,9/44,1"	"57/45"	102	stress_12bis	"POPTR_0010s11780.1"	467	"	"C/G"	"68,3/31,7"	"28/13"	41
controllo_3	"POPTR_0010s11780.1"	467	"	"C/G"	"55,9/44,1"	"57/45"	102	stress_42	"POPTR_0010s11780.1"	467	"	"C/G"	"53,2/46,8"	"33/29"	62
controllo_3	"POPTR_0010s11780.1"	467	"	"C/G"	"55,9/44,1"	"57/45"	102	stress_45	"POPTR_0010s11780.1"	467	"	"C/G"	"61,3/38,7"	"57/36"	93
controllo_3	"POPTR_0010s18770.1"	354	"	"A/G"	"55,9/44,1"	"151/119"	270	stress_12bis	"POPTR_0010s18770.1"	354	"	"A/G"	"56,2/43,8"	"36/28"	64
controllo_3	"POPTR_0010s18770.1"	354	"	"A/G"	"55,9/44,1"	"151/119"	270	stress_45	"POPTR_0010s18770.1"	354	"	"A/G"	"50,0/50,0"	"5/5"	10
controllo_3	"POPTR_0007s02460.1"	720	"	"G/C"	"55,9/44,1"	"62/49"	111	stress_12bis	"POPTR_0007s02460.1"	720	"	"C/G"	"75,0/25,0"	"21/7"	28
controllo_3	"POPTR_0007s02460.1"	720	"	"G/C"	"55,9/44,1"	"62/49"	111	stress_42	"POPTR_0007s02460.1"	720	"	"C/G"	"68,2/31,8"	"30/14"	44
controllo_3	"POPTR_0007s02460.1"	720	"	"G/C"	"55,9/44,1"	"62/49"	111	stress_45	"POPTR_0007s02460.1"	720	"	"C/G"	"65,8/34,2"	"25/13"	38
controllo_3	"POPTR_0007s09630.1"	768	"	"T/C"	"55,9/44,1"	"304/240"	544	stress_12bis	"POPTR_0007s09630.1"	768	"	"T/C"	"60,3/39,7"	"76/50"	126
controllo_3	"POPTR_0007s09630.1"	768	"	"T/C"	"55,9/44,1"	"304/240"	544	stress_42	"POPTR_0007s09630.1"	768	"	"C/T"	"54,5/45,5"	"12/10"	22
controllo_3	"POPTR_0007s09630.1"	768	"	"T/C"	"55,9/44,1"	"304/240"	544	stress_45	"POPTR_0007s09630.1"	768	"	"T/C"	"65,0/35,0"	"26/14"	40
controllo_3	"POPTR_0007s15080.1"	1453	"	"C/A"	"55,9/44,1"	"119/94"	213	stress_12bis	"POPTR_0007s15080.1"	1453	"	"A/C"	"50,0/50,0"	"32/32"	64
controllo_3	"POPTR_0007s15080.1"	1453	"	"C/A"	"55,9/44,1"	"119/94"	213	stress_42	"POPTR_0007s15080.1"	1453	"	"C/A"	"69,6/30,4"	"16/7"	23
controllo_3	"POPTR_0007s15080.1"	1453	"	"C/A"	"55,9/44,1"	"119/94"	213	stress_45	"POPTR_0007s15080.1"	1453	"	"C/A"	"64,3/35,7"	"18/10"	28
controllo_3	"POPTR_0001s12960.1"	169	"	"C/T"	"56,0/42,9"	"51/39"	91	stress_45	"POPTR_0001s12960.1"	169	"	"T/C"	"54,5/44,6"	"55/45"	101
controllo_3	"POPTR_0006s10130.1"	681	"	"G/T"	"56,0/43,9"	"453/355"	809	stress_12bis	"POPTR_0006s10130.1"	681	"	"G/T"	"56,9/43,1"	"58/44"	102
controllo_3	"POPTR_0006s10130.1"	681	"	"G/T"	"56,0/43,9"	"453/355"	809	stress_42	"POPTR_0006s10130.1"	681	"	"T/G"	"54,8/45,2"	"34/28"	62
controllo_3	"POPTR_0006s10130.1"	681	"	"G/T"	"56,0/43,9"	"453/355"	809	stress_45	"POPTR_0006s10130.1"	681	"	"G/T"	"59,4/36,6"	"60/37"	101
controllo_3	"POPTR_0005s26930.1"	192	"	"A/G"	"56,0/44,0"	"178/140"	318	stress_12bis	"POPTR_0005s26930.1"	192	"	"A/G"	"52,1/46,6"	"38/34"	73
controllo_3	"POPTR_0005s26930.1"	192	"	"A/G"	"56,0/44,0"	"178/140"	318	stress_42	"POPTR_0005s26930.1"	192	"	"G/A"	"59,5/40,5"	"22/15"	37
controllo_3	"POPTR_0005s26930.1"	192	"	"A/G"	"56,0/44,0"	"178/140"	318	stress_45	"POPTR_0005s26930.1"	192	"	"G/A"	"51,7/48,3"	"15/14"	29
controllo_3	"POPTR_0005s26740.1"	182	"	"C/T"	"56,0/44,0"	"482/379"	861	stress_12bis	"POPTR_0005s26740.1"	182	"	"T/C"	"58,7/41,3"	"142/100"	242
controllo_3	"POPTR_0005s26740.1"	182	"	"C/T"	"56,0/44,0"	"482/379"	861	stress_42	"POPTR_0005s26740.1"	182	"	"T/C"	"58,1/41,9"	"86/62"	148
controllo_3	"POPTR_0005s26740.1"	182	"	"C/T"	"56,0/44,0"	"482/379"	861	stress_45	"POPTR_0005s26740.1"	182	"	"T/C"	"54,9/45,1"	"113/93"	206
controllo_3	"POPTR_0005s20920.1"	486	"	"C/T"	"56,0/44,0"	"206/162"	368	stress_12bis	"POPTR_0005s20920.1"	486	"	"C/T"	"54,1/45,9"	"46/39"	85
controllo_3	"POPTR_0005s22830.1"	316	"	"G/A"	"56,0/44,0"	"168/132"	300	stress_12bis	"POPTR_0005s22830.1"	316	"	"G/A"	"54,2/45,8"	"77/65"	142
controllo_3	"POPTR_0005s22830.1"	316	"	"G/A"	"56,0/44,0"	"168/132"	300	stress_42	"POPTR_0005s22830.1"	316	"	"A/G"	"50,0/50,0"	"44/44"	88
controllo_3	"POPTR_0005s22830.1"	316	"	"G/A"	"56,0/44,0"	"168/132"	300	stress_45	"POPTR_0005s22830.1"	316	"	"G/A"	"57,0/43,0"	"49/37"	86
controllo_3	"POPTR_0017s00850.1"	672	"	"G/A"	"56,0/44,0"	"93/73"	166	stress_12bis	"POPTR_0017s00850.1"	672	"	"G/A"	"83,3/16,7"	"15/3"	18
controllo_3	"POPTR_0017s00850.1"	672	"	"G/A"	"56,0/44,0"	"93/73"	166	stress_42	"POPTR_0017s00850.1"	672	"	"G/A"	"60,6/39,4"	"43/28"	71
controllo_3	"POPTR_0017s00850.1"	672	"	"G/A"	"56,0/44,0"	"93/73"	166	stress_45	"POPTR_0017s00850.1"	672	"	"G/A"	"63,3/36,7"	"62/36"	98
controllo_3	"POPTR_0017s08610.1"	204	"	"C/T"	"56,0/44,0"	"61/48"	109	stress_12bis	"POPTR_0017s08610.1"	204	"	"C/T"	"65,0/35,0"	"13/7"	20
controllo_3	"POPTR_0017s08610.1"	204	"	"C/T"	"56,0/44,0"	"61/48"	109	stress_42	"POPTR_0017s08610.1"	204	"	"C/T"	"64,5/35,5"	"60/33"	93
controllo_3	"POPTR_0017s08610.1"	204	"	"C/T"	"56,0/44,0"	"61/48"	109	stress_45	"POPTR_0017s08610.1"	204	"	"C/T"	"65,6/33,9"	"126/65"	192
controllo_3	"POPTR_0006s00470.1"	75	"	"C/T"	"56,0/44,0"	"70/55"	125	stress_12bis	"POPTR_0006s00470.1"	75	"	"T/C"	"55,0/45,0"	"11/9"	20
controllo_3	"POPTR_0006s00470.1"	75	"	"C/T"	"56,0/44,0"	"70/55"	125	stress_42	"POPTR_0006s00470.1"	75	"	"C/T"	"72,7/27,3"	"8/3"	11
controllo_3	"POPTR_0006s00470.1"	75	"	"C/T"	"56,0/44,0"	"70/55"	125	stress_45	"POPTR_0006s00470.1"	75	"	"C/T"	"66,7/33,3"	"18/9"	27
controllo_3	"POPTR_0006s04960.1"	3894	"	"A/G"	"56,0/44,0"	"269/211"	480	stress_12bis	"POPTR_0006s04960.1"	3894	"	"A/G"	"57,9/42,1"	"55/40"	95
controllo_3	"POPTR_0006s04960.1"	3894	"	"A/G"	"56,0/44,0"	"269/211"	480	stress_42	"POPTR_0006s04960.1"	3894	"	"A/G"	"54,8/45,2"	"23/19"	42
controllo_3	"POPTR_0006s04960.1"	3894	"	"A/G"	"56,0/44,0"	"269/211"	480	stress_45	"POPTR_0006s04960.1"	3894	"	"G/A"	"62,0/38,0"	"31/19"	50
controllo_3	"POPTR_0006s02810.1"	729	"	"G/T"	"56,0/44,0"	"139/109"	248	stress_12bis	"POPTR_0006s02810.1"	729	"	"T/G"	"66,7/33,3"	"26/13"	39
controllo_3	"POPTR_0006s02810.1"	729	"	"G/T"	"56,0/44,0"	"139/109"	248	stress_42	"POPTR_0006s02810.1"	729	"	"T/G"	"72,2/27,8"	"13/5"	18
controllo_3	"POPTR_0006s02810.1"	729	"	"G/T"	"56,0/44,0"	"139/109"	248	stress_45	"POPTR_0006s02810.1"	729	"	"G/T"	"62,5/37,5"	"10/6"	16
controllo_3	"POPTR_0003s18530.1"	555	"	"C/T"	"56,0/44,0"	"130/102"	232	stress_12bis	"POPTR_0003s18530.1"	555	"	"C/T"	"59,0/41,0"	"59/41"	100
controllo_3	"POPTR_0003s18530.1"	555	"	"C/T"	"56,0/44,0"	"130/102"	232	stress_42	"POPTR_0003s18530.1"	555	"	"T/C"	"61,4/38,6"	"35/22"	57
controllo_3	"POPTR_0003s18530.1"	555	"	"C/T"	"56,0/44,0"	"130/102"	232	stress_45	"POPTR_0003s18530.1"	555	"	"C/T"	"60,0/40,0"	"57/38"	95
controllo_3	"POPTR_0003s11300.1"	215	"	"A/G"	"56,0/44,0"	"112/88"	200	stress_12bis	"POPTR_0003s11300.1"	215	"	"G/A"	"54,5/45,5"	"36/30"	66
controllo_3	"POPTR_0003s11300.1"	215	"	"A/G"	"56,0/44,0"	"112/88"	200	stress_45	"POPTR_0003s11300.1"	215	"	"A/G"	"58,3/41,7"	"14/10"	24
controllo_3	"POPTR_0013s09550.1"	400	"	"G/A"	"56,0/44,0"	"94/74"	168	stress_12bis	"POPTR_0013s09550.1"	400	"	"G/A"	"54,8/45,2"	"23/19"	42
controllo_3	"POPTR_0013s09550.1"	400	"	"G/A"	"56,0/44,0"	"94/74"	168	stress_42	"POPTR_0013s09550.1"	400	"	"G/A"	"54,2/45,8"	"13/11"	24
controllo_3	"POPTR_0013s09550.1"	400	"	"G/A"	"56,0/44,0"	"94/74"	168	stress_45	"POPTR_0013s09550.1"	400	"	"A/G"	"52,4/47,6"	"11/10"	21
controllo_3	"POPTR_0013s02710.1"	464	"	"C/T"	"56,0/44,0"	"65/51"	116	stress_12bis	"POPTR_0013s02710.1"	464	"	"C/T"	"62,1/37,9"	"18/11"	29
controllo_3	"POPTR_0013s07150.1"	663	"	"A/G"	"56,0/44,0"	"102/80"	182	stress_12bis	"POPTR_0013s07150.1"	663	"	"G/A"	"58,0/42,0"	"29/21"	50
controllo_3	"POPTR_0013s07150.1"	663	"	"A/G"	"56,0/44,0"	"102/80"	182	stress_42	"POPTR_0013s07150.1"	663	"	"A/G"	"58,8/41,2"	"10/7"	17
controllo_3	"POPTR_0013s07150.1"	663	"	"A/G"	"56,0/44,0"	"102/80"	182	stress_45	"POPTR_0013s07150.1"	663	"	"A/G"	"60,6/39,4"	"20/13"	33
controllo_3	"POPTR_0014s14200.1"	519	"	"C/T"	"56,0/44,0"	"150/118"	268	stress_12bis	"POPTR_0014s14200.1"	519	"	"T/C"	"62,5/37,5"	"20/12"	32
controllo_3	"POPTR_0014s14200.1"	519	"	"C/T"	"56,0/44,0"	"150/118"	268	stress_42	"POPTR_0014s14200.1"	519	"	"C/T"	"68,4/31,6"	"26/12"	38
controllo_3	"POPTR_0014s14200.1"	519	"	"C/T"	"56,0/44,0"	"150/118"	268	stress_45	"POPTR_0014s14200.1"	519	"	"C/T"	"63,2/36,8"	"74/43"	117
controllo_3	"POPTR_0009s09710.1"	1427	"	"C/T"	"56,0/44,0"	"130/102"	232	stress_12bis	"POPTR_0009s09710.1"	1427	"	"C/T"	"57,1/42,9"	"116/87"	203
controllo_3	"POPTR_0009s09710.1"	1427	"	"C/T"	"56,0/44,0"	"130/102"	232	stress_42	"POPTR_0009s09710.1"	1427	"	"T/C"	"58,9/41,1"	"43/30"	73
controllo_3	"POPTR_0009s09710.1"	1427	"	"C/T"	"56,0/44,0"	"130/102"	232	stress_45	"POPTR_0009s09710.1"	1427	"	"T/C"	"58,8/41,2"	"40/28"	68
controllo_3	"POPTR_0009s05850.1"	609	"	"G/A"	"56,0/44,0"	"94/74"	168	stress_12bis	"POPTR_0009s05850.1"	609	"	"G/A"	"62,5/37,5"	"20/12"	32
controllo_3	"POPTR_0009s05850.1"	609	"	"G/A"	"56,0/44,0"	"94/74"	168	stress_42	"POPTR_0009s05850.1"	609	"	"A/G"	"60,9/39,1"	"28/18"	46
controllo_3	"POPTR_0009s05850.1"	609	"	"G/A"	"56,0/44,0"	"94/74"	168	stress_45	"POPTR_0009s05850.1"	609	"	"A/G"	"51,4/48,6"	"38/36"	74
controllo_3	"POPTR_0012s07040.1"	483	"	"T/C"	"56,0/44,0"	"186/146"	332	stress_12bis	"POPTR_0012s07040.1"	483	"	"C/T"	"51,1/48,9"	"46/44"	90
controllo_3	"POPTR_0012s07040.1"	483	"	"T/C"	"56,0/44,0"	"186/146"	332	stress_42	"POPTR_0012s07040.1"	483	"	"T/C"	"59,1/40,9"	"13/9"	22
controllo_3	"POPTR_0012s07040.1"	483	"	"T/C"	"56,0/44,0"	"186/146"	332	stress_45	"POPTR_0012s07040.1"	483	"	"T/C"	"54,8/45,2"	"17/14"	31
controllo_3	"POPTR_0012s11410.1"	294	"	"G/C"	"56,0/44,0"	"79/62"	141	stress_12bis	"POPTR_0012s11410.1"	294	"	"G/C"	"71,4/28,6"	"30/12"	42
controllo_3	"POPTR_0012s11410.1"	294	"	"G/C"	"56,0/44,0"	"79/62"	141	stress_42	"POPTR_0012s11410.1"	294	"	"C/G"	"50,0/50,0"	"8/8"	16
controllo_3	"POPTR_0012s11410.1"	294	"	"G/C"	"56,0/44,0"	"79/62"	141	stress_45	"POPTR_0012s11410.1"	294	"	"C/G"	"52,6/47,4"	"10/9"	19
controllo_3	"POPTR_0011s08940.1"	1207	"	"A/T"	"56,0/44,0"	"788/619"	1407	stress_12bis	"POPTR_0011s08940.1"	1207	"	"A/T"	"52,8/47,2"	"206/184"	390
controllo_3	"POPTR_0011s08940.1"	1207	"	"A/T"	"56,0/44,0"	"788/619"	1407	stress_42	"POPTR_0011s08940.1"	1207	"	"T/A"	"68,8/31,2"	"75/34"	109
controllo_3	"POPTR_0011s08940.1"	1207	"	"A/T"	"56,0/44,0"	"788/619"	1407	stress_45	"POPTR_0011s08940.1"	1207	"	"T/A"	"57,2/42,2"	"107/79"	187
controllo_3	"POPTR_0015s08540.1"	1023	"	"A/C"	"56,0/44,0"	"141/111"	252	stress_12bis	"POPTR_0015s08540.1"	1023	"	"A/C"	"58,8/41,2"	"40/28"	68
controllo_3	"POPTR_0015s08540.1"	1023	"	"A/C"	"56,0/44,0"	"141/111"	252	stress_42	"POPTR_0015s08540.1"	1023	"	"A/C"	"54,1/45,9"	"20/17"	37
controllo_3	"POPTR_0015s08540.1"	1023	"	"A/C"	"56,0/44,0"	"141/111"	252	stress_45	"POPTR_0015s08540.1"	1023	"	"A/C"	"57,1/42,9"	"20/15"	35
controllo_3	"POPTR_0001s34760.1"	423	"	"C/T"	"56,0/44,0"	"61/48"	109	stress_12bis	"POPTR_0001s34760.1"	423	"	"C/T"	"50,0/50,0"	"13/13"	26
controllo_3	"POPTR_0001s34760.1"	423	"	"C/T"	"56,0/44,0"	"61/48"	109	stress_42	"POPTR_0001s34760.1"	423	"	"T/C"	"54,5/45,5"	"6/5"	11
controllo_3	"POPTR_0001s34760.1"	423	"	"C/T"	"56,0/44,0"	"61/48"	109	stress_45	"POPTR_0001s34760.1"	423	"	"T/C"	"69,2/30,8"	"9/4"	13
controllo_3	"POPTR_0001s25520.1"	548	"	"G/A"	"56,0/44,0"	"84/66"	150	stress_12bis	"POPTR_0001s25520.1"	548	"	"G/A"	"55,8/44,2"	"29/23"	52
controllo_3	"POPTR_0001s25520.1"	548	"	"G/A"	"56,0/44,0"	"84/66"	150	stress_42	"POPTR_0001s25520.1"	548	"	"A/G"	"58,1/41,9"	"25/18"	43
controllo_3	"POPTR_0001s25520.1"	548	"	"G/A"	"56,0/44,0"	"84/66"	150	stress_45	"POPTR_0001s25520.1"	548	"	"G/A"	"60,9/39,1"	"14/9"	23
controllo_3	"POPTR_0010s01700.1"	243	"	"G/A"	"56,0/44,0"	"339/266"	605	stress_12bis	"POPTR_0010s01700.1"	243	"	"G/A"	"58,0/41,9"	"451/326"	778
controllo_3	"POPTR_0010s01700.1"	243	"	"G/A"	"56,0/44,0"	"339/266"	605	stress_42	"POPTR_0010s01700.1"	243	"	"G/A"	"58,3/41,7"	"410/293"	703
controllo_3	"POPTR_0010s01700.1"	243	"	"G/A"	"56,0/44,0"	"339/266"	605	stress_45	"POPTR_0010s01700.1"	243	"	"G/A"	"55,6/44,4"	"439/351"	790
controllo_3	"POPTR_0010s20060.1"	754	"	"G/A"	"56,0/44,0"	"446/350"	796	stress_12bis	"POPTR_0010s20060.1"	754	"	"G/A"	"54,2/45,8"	"129/109"	238
controllo_3	"POPTR_0010s20060.1"	754	"	"G/A"	"56,0/44,0"	"446/350"	796	stress_42	"POPTR_0010s20060.1"	754	"	"A/G"	"52,5/47,5"	"31/28"	59
controllo_3	"POPTR_0010s20060.1"	754	"	"G/A"	"56,0/44,0"	"446/350"	796	stress_45	"POPTR_0010s20060.1"	754	"	"A/G"	"55,0/45,0"	"33/27"	60
controllo_3	"POPTR_0007s10980.1"	122	"	"G/A"	"56,0/44,0"	"102/80"	182	stress_12bis	"POPTR_0007s10980.1"	122	"	"G/A"	"74,5/25,5"	"35/12"	47
controllo_3	"POPTR_0007s10980.1"	122	"	"G/A"	"56,0/44,0"	"102/80"	182	stress_45	"POPTR_0007s10980.1"	122	"	"G/A"	"70,6/29,4"	"12/5"	17
controllo_3	"POPTR_0008s16670.1"	676	"	"G/A"	"56,0/44,0"	"89/70"	159	stress_12bis	"POPTR_0008s16670.1"	676	"	"G/A"	"50,8/49,2"	"30/29"	59
controllo_3	"POPTR_0008s16670.1"	676	"	"G/A"	"56,0/44,0"	"89/70"	159	stress_42	"POPTR_0008s16670.1"	676	"	"G/A"	"55,0/45,0"	"61/50"	111
controllo_3	"POPTR_0008s16670.1"	676	"	"G/A"	"56,0/44,0"	"89/70"	159	stress_45	"POPTR_0008s16670.1"	676	"	"G/A"	"55,3/44,7"	"83/67"	150
controllo_3	"POPTR_0016s03980.1"	418	"	"C/A"	"56,0/44,0"	"61/48"	109	stress_12bis	"POPTR_0016s03980.1"	418	"	"A/C"	"61,3/38,7"	"19/12"	31
controllo_3	"POPTR_0016s03980.1"	418	"	"C/A"	"56,0/44,0"	"61/48"	109	stress_45	"POPTR_0016s03980.1"	418	"	"C/A"	"60,0/40,0"	"6/4"	10
controllo_3	"POPTR_0019s14050.1"	470	"	"C/T"	"56,1/43,2"	"83/64"	148	stress_12bis	"POPTR_0019s14050.1"	470	"	"C/T"	"70,0/30,0"	"28/12"	40
controllo_3	"POPTR_0019s14050.1"	470	"	"C/T"	"56,1/43,2"	"83/64"	148	stress_42	"POPTR_0019s14050.1"	470	"	"C/T"	"76,2/23,8"	"16/5"	21
controllo_3	"POPTR_0019s14050.1"	470	"	"C/T"	"56,1/43,2"	"83/64"	148	stress_45	"POPTR_0019s14050.1"	470	"	"T/C"	"66,7/33,3"	"14/7"	21
controllo_3	"POPTR_0008s05480.1"	1213	"	"T/C"	"56,1/43,7"	"376/293"	670	stress_12bis	"POPTR_0008s05480.1"	1213	"	"T/C"	"52,6/47,4"	"101/91"	192
controllo_3	"POPTR_0008s05480.1"	1213	"	"T/C"	"56,1/43,7"	"376/293"	670	stress_42	"POPTR_0008s05480.1"	1213	"	"C/T"	"50,0/50,0"	"80/80"	160
controllo_3	"POPTR_0008s05480.1"	1213	"	"T/C"	"56,1/43,7"	"376/293"	670	stress_45	"POPTR_0008s05480.1"	1213	"	"T/C"	"51,4/48,6"	"170/161"	331
controllo_3	"POPTR_0004s01470.1"	642	"	"G/A"	"56,1/43,8"	"653/510"	1164	stress_12bis	"POPTR_0004s01470.1"	642	"	"G/A"	"61,3/38,7"	"217/137"	354
controllo_3	"POPTR_0004s01470.1"	642	"	"G/A"	"56,1/43,8"	"653/510"	1164	stress_42	"POPTR_0004s01470.1"	642	"	"G/A"	"56,1/43,9"	"69/54"	123
controllo_3	"POPTR_0004s01470.1"	642	"	"G/A"	"56,1/43,8"	"653/510"	1164	stress_45	"POPTR_0004s01470.1"	642	"	"G/A"	"56,3/43,7"	"80/62"	142
controllo_3	"POPTR_0008s08410.1"	1170	"	"A/C"	"56,1/43,8"	"448/350"	799	stress_12bis	"POPTR_0008s08410.1"	1170	"	"A/C"	"59,0/41,0"	"118/82"	200
controllo_3	"POPTR_0008s08410.1"	1170	"	"A/C"	"56,1/43,8"	"448/350"	799	stress_42	"POPTR_0008s08410.1"	1170	"	"A/C"	"64,2/35,8"	"34/19"	53
controllo_3	"POPTR_0008s08410.1"	1170	"	"A/C"	"56,1/43,8"	"448/350"	799	stress_45	"POPTR_0008s08410.1"	1170	"	"A/C"	"73,0/27,0"	"46/17"	63
controllo_3	"POPTR_0005s06420.1"	28	"	"G/A"	"56,1/43,9"	"74/58"	132	stress_12bis	"POPTR_0005s06420.1"	28	"	"G/A"	"52,6/47,4"	"20/18"	38
controllo_3	"POPTR_0005s02580.1"	417	"	"T/C"	"56,1/43,9"	"60/47"	107	stress_12bis	"POPTR_0005s02580.1"	417	"	"T/C"	"59,1/40,9"	"26/18"	44
controllo_3	"POPTR_0005s02580.1"	417	"	"T/C"	"56,1/43,9"	"60/47"	107	stress_42	"POPTR_0005s02580.1"	417	"	"T/C"	"76,0/24,0"	"38/12"	50
controllo_3	"POPTR_0005s02580.1"	417	"	"T/C"	"56,1/43,9"	"60/47"	107	stress_45	"POPTR_0005s02580.1"	417	"	"T/C"	"64,2/35,8"	"43/24"	67
controllo_3	"POPTR_0005s05980.1"	78	"	"A/T"	"56,1/43,9"	"69/54"	123	stress_12bis	"POPTR_0005s05980.1"	78	"	"A/T"	"58,8/41,2"	"30/21"	51
controllo_3	"POPTR_0005s05980.1"	78	"	"A/T"	"56,1/43,9"	"69/54"	123	stress_42	"POPTR_0005s05980.1"	78	"	"T/A"	"57,1/42,9"	"16/12"	28
controllo_3	"POPTR_0005s05980.1"	78	"	"A/T"	"56,1/43,9"	"69/54"	123	stress_45	"POPTR_0005s05980.1"	78	"	"A/T"	"62,5/37,5"	"15/9"	24
controllo_3	"POPTR_0006s28990.1"	2841	"	"C/T"	"56,1/43,9"	"96/75"	171	stress_12bis	"POPTR_0006s28990.1"	2841	"	"T/C"	"54,3/45,7"	"19/16"	35
controllo_3	"POPTR_0006s28990.1"	2841	"	"C/T"	"56,1/43,9"	"96/75"	171	stress_42	"POPTR_0006s28990.1"	2841	"	"C/T"	"51,0/49,0"	"50/48"	98
controllo_3	"POPTR_0006s28990.1"	2841	"	"C/T"	"56,1/43,9"	"96/75"	171	stress_45	"POPTR_0006s28990.1"	2841	"	"C/T"	"57,3/42,7"	"67/50"	117
controllo_3	"POPTR_0006s03660.1"	528	"	"C/T"	"56,1/43,9"	"69/54"	123	stress_12bis	"POPTR_0006s03660.1"	528	"	"T/C"	"52,4/47,6"	"11/10"	21
controllo_3	"POPTR_0006s03660.1"	528	"	"C/T"	"56,1/43,9"	"69/54"	123	stress_45	"POPTR_0006s03660.1"	528	"	"C/T"	"52,4/47,6"	"11/10"	21
controllo_3	"POPTR_0006s10040.1"	178	"	"T/G"	"56,1/43,9"	"166/130"	296	stress_12bis	"POPTR_0006s10040.1"	178	"	"G/T"	"51,1/48,9"	"114/109"	223
controllo_3	"POPTR_0006s10040.1"	178	"	"T/G"	"56,1/43,9"	"166/130"	296	stress_42	"POPTR_0006s10040.1"	178	"	"T/G"	"57,1/42,9"	"40/30"	70
controllo_3	"POPTR_0006s10040.1"	178	"	"T/G"	"56,1/43,9"	"166/130"	296	stress_45	"POPTR_0006s10040.1"	178	"	"T/G"	"53,5/46,5"	"46/40"	86
controllo_3	"POPTR_0006s00620.1"	1103	"	"C/G"	"56,1/43,9"	"60/47"	107	stress_12bis	"POPTR_0006s00620.1"	1103	"	"C/G"	"57,1/42,9"	"8/6"	14
controllo_3	"POPTR_0018s01420.1"	615	"	"C/T"	"56,1/43,9"	"78/61"	139	stress_12bis	"POPTR_0018s01420.1"	615	"	"C/T"	"51,7/48,3"	"30/28"	58
controllo_3	"POPTR_0018s01420.1"	615	"	"C/T"	"56,1/43,9"	"78/61"	139	stress_42	"POPTR_0018s01420.1"	615	"	"C/T"	"53,3/46,7"	"32/28"	60
controllo_3	"POPTR_0018s01420.1"	615	"	"C/T"	"56,1/43,9"	"78/61"	139	stress_45	"POPTR_0018s01420.1"	615	"	"C/T"	"54,6/45,4"	"53/44"	97
controllo_3	"POPTR_0019s08500.1"	123	"	"G/A"	"56,1/43,9"	"64/50"	114	stress_12bis	"POPTR_0019s08500.1"	123	"	"G/A"	"65,9/34,1"	"27/14"	41
controllo_3	"POPTR_0019s08500.1"	123	"	"G/A"	"56,1/43,9"	"64/50"	114	stress_42	"POPTR_0019s08500.1"	123	"	"G/A"	"69,2/30,8"	"45/20"	65
controllo_3	"POPTR_0019s08500.1"	123	"	"G/A"	"56,1/43,9"	"64/50"	114	stress_45	"POPTR_0019s08500.1"	123	"	"G/A"	"54,7/45,3"	"64/53"	117
controllo_3	"POPTR_0013s01790.1"	684	"	"A/C"	"56,1/43,9"	"78/61"	139	stress_12bis	"POPTR_0013s01790.1"	684	"	"A/C"	"72,1/27,9"	"49/19"	68
controllo_3	"POPTR_0013s01790.1"	684	"	"A/C"	"56,1/43,9"	"78/61"	139	stress_42	"POPTR_0013s01790.1"	684	"	"A/C"	"76,0/24,0"	"19/6"	25
controllo_3	"POPTR_0013s01790.1"	684	"	"A/C"	"56,1/43,9"	"78/61"	139	stress_45	"POPTR_0013s01790.1"	684	"	"C/A"	"57,6/42,4"	"19/14"	33
controllo_3	"POPTR_0014s08960.1"	261	"	"C/T"	"56,1/43,9"	"295/231"	526	stress_12bis	"POPTR_0014s08960.1"	261	"	"C/T"	"57,6/42,4"	"72/53"	125
controllo_3	"POPTR_0014s08960.1"	261	"	"C/T"	"56,1/43,9"	"295/231"	526	stress_42	"POPTR_0014s08960.1"	261	"	"C/T"	"62,5/37,5"	"15/9"	24
controllo_3	"POPTR_0014s08960.1"	261	"	"C/T"	"56,1/43,9"	"295/231"	526	stress_45	"POPTR_0014s08960.1"	261	"	"C/T"	"64,7/35,3"	"33/18"	51
controllo_3	"POPTR_0014s14370.1"	657	"	"G/T"	"56,1/43,9"	"189/148"	337	stress_12bis	"POPTR_0014s14370.1"	657	"	"G/T"	"53,8/46,2"	"28/24"	52
controllo_3	"POPTR_0014s14370.1"	657	"	"G/T"	"56,1/43,9"	"189/148"	337	stress_42	"POPTR_0014s14370.1"	657	"	"G/T"	"57,1/42,9"	"20/15"	35
controllo_3	"POPTR_0014s14370.1"	657	"	"G/T"	"56,1/43,9"	"189/148"	337	stress_45	"POPTR_0014s14370.1"	657	"	"T/G"	"59,2/40,8"	"29/20"	49
controllo_3	"POPTR_0012s07040.1"	115	"	"G/A"	"56,1/43,9"	"203/159"	362	stress_12bis	"POPTR_0012s07040.1"	115	"	"G/A"	"60,0/40,0"	"66/44"	110
controllo_3	"POPTR_0012s07040.1"	115	"	"G/A"	"56,1/43,9"	"203/159"	362	stress_42	"POPTR_0012s07040.1"	115	"	"A/G"	"66,7/33,3"	"14/7"	21
controllo_3	"POPTR_0012s07040.1"	115	"	"G/A"	"56,1/43,9"	"203/159"	362	stress_45	"POPTR_0012s07040.1"	115	"	"A/G"	"58,3/41,7"	"14/10"	24
controllo_3	"POPTR_0012s00670.1"	1047	"	"A/G"	"56,1/43,9"	"110/86"	196	stress_42	"POPTR_0012s00670.1"	1047	"	"G/A"	"51,6/48,4"	"32/30"	62
controllo_3	"POPTR_0012s00670.1"	1047	"	"A/G"	"56,1/43,9"	"110/86"	196	stress_45	"POPTR_0012s00670.1"	1047	"	"A/G"	"50,8/49,2"	"32/31"	63
controllo_3	"POPTR_0015s04810.1"	492	"	"C/T"	"56,1/43,9"	"69/54"	123	stress_12bis	"POPTR_0015s04810.1"	492	"	"T/C"	"54,3/45,7"	"25/21"	46
controllo_3	"POPTR_0015s04810.1"	492	"	"C/T"	"56,1/43,9"	"69/54"	123	stress_42	"POPTR_0015s04810.1"	492	"	"C/T"	"81,8/18,2"	"9/2"	11
controllo_3	"POPTR_0015s09990.1"	517	"	"T/C"	"56,1/43,9"	"111/87"	198	stress_12bis	"POPTR_0015s09990.1"	517	"	"T/C"	"56,1/43,9"	"37/29"	66
controllo_3	"POPTR_0015s09990.1"	517	"	"T/C"	"56,1/43,9"	"111/87"	198	stress_42	"POPTR_0015s09990.1"	517	"	"T/C"	"62,5/37,5"	"10/6"	16
controllo_3	"POPTR_0015s09990.1"	517	"	"T/C"	"56,1/43,9"	"111/87"	198	stress_45	"POPTR_0015s09990.1"	517	"	"T/C"	"66,7/33,3"	"8/4"	12
controllo_3	"POPTR_0001s35090.1"	65	"	"C/A"	"56,1/43,9"	"64/50"	114	stress_12bis	"POPTR_0001s35090.1"	65	"	"A/C"	"54,9/45,1"	"28/23"	51
controllo_3	"POPTR_0001s47020.1"	1110	"	"C/T"	"56,1/43,9"	"88/69"	157	stress_12bis	"POPTR_0001s47020.1"	1110	"	"C/T"	"53,1/46,9"	"26/23"	49
controllo_3	"POPTR_0001s47020.1"	1110	"	"C/T"	"56,1/43,9"	"88/69"	157	stress_42	"POPTR_0001s47020.1"	1110	"	"C/T"	"50,0/50,0"	"18/18"	36
controllo_3	"POPTR_0001s47020.1"	1110	"	"C/T"	"56,1/43,9"	"88/69"	157	stress_45	"POPTR_0001s47020.1"	1110	"	"C/T"	"66,2/33,8"	"43/22"	65
controllo_3	"POPTR_0001s24450.1"	1302	"	"A/T"	"56,1/43,9"	"78/61"	139	stress_12bis	"POPTR_0001s24450.1"	1302	"	"T/A"	"53,1/46,9"	"26/23"	49
controllo_3	"POPTR_0001s24450.1"	1302	"	"A/T"	"56,1/43,9"	"78/61"	139	stress_42	"POPTR_0001s24450.1"	1302	"	"T/A"	"59,1/40,9"	"13/9"	22
controllo_3	"POPTR_0001s24450.1"	1302	"	"A/T"	"56,1/43,9"	"78/61"	139	stress_45	"POPTR_0001s24450.1"	1302	"	"T/A"	"51,2/48,8"	"22/21"	43
controllo_3	"POPTR_0010s17860.1"	657	"	"T/C"	"56,1/43,9"	"138/108"	246	stress_12bis	"POPTR_0010s17860.1"	657	"	"C/T"	"57,9/42,1"	"22/16"	38
controllo_3	"POPTR_0010s17860.1"	657	"	"T/C"	"56,1/43,9"	"138/108"	246	stress_42	"POPTR_0010s17860.1"	657	"	"C/T"	"58,3/41,7"	"7/5"	12
controllo_3	"POPTR_0010s05170.1"	481	"	"C/T"	"56,1/43,9"	"206/161"	367	stress_12bis	"POPTR_0010s05170.1"	481	"	"C/T"	"54,2/45,8"	"13/11"	24
controllo_3	"POPTR_0010s19930.1"	232	"	"G/T"	"56,1/43,9"	"244/191"	435	stress_12bis	"POPTR_0010s19930.1"	232	"	"T/G"	"71,4/28,6"	"25/10"	35
controllo_3	"POPTR_0010s19930.1"	232	"	"G/T"	"56,1/43,9"	"244/191"	435	stress_42	"POPTR_0010s19930.1"	232	"	"T/G"	"68,2/31,8"	"161/75"	236
controllo_3	"POPTR_0010s19930.1"	232	"	"G/T"	"56,1/43,9"	"244/191"	435	stress_45	"POPTR_0010s19930.1"	232	"	"T/G"	"66,8/33,2"	"151/75"	226
controllo_3	"POPTR_0007s10980.1"	650	"	"G/A"	"56,1/43,9"	"92/72"	164	stress_12bis	"POPTR_0007s10980.1"	650	"	"A/G"	"53,3/46,7"	"32/28"	60
controllo_3	"POPTR_0007s10980.1"	650	"	"G/A"	"56,1/43,9"	"92/72"	164	stress_45	"POPTR_0007s10980.1"	650	"	"G/A"	"65,0/35,0"	"13/7"	20
controllo_3	"POPTR_0007s09630.1"	812	"	"G/A"	"56,1/43,9"	"314/246"	560	stress_12bis	"POPTR_0007s09630.1"	812	"	"G/A"	"54,9/45,1"	"67/55"	122
controllo_3	"POPTR_0007s09630.1"	812	"	"G/A"	"56,1/43,9"	"314/246"	560	stress_42	"POPTR_0007s09630.1"	812	"	"A/G"	"54,2/45,8"	"13/11"	24
controllo_3	"POPTR_0007s09630.1"	812	"	"G/A"	"56,1/43,9"	"314/246"	560	stress_45	"POPTR_0007s09630.1"	812	"	"G/A"	"71,0/29,0"	"22/9"	31
controllo_3	"POPTR_0002s18020.1"	630	"	"G/A"	"56,1/43,9"	"92/72"	164	stress_12bis	"POPTR_0002s18020.1"	630	"	"A/G"	"54,7/45,3"	"41/34"	75
controllo_3	"POPTR_0002s18020.1"	630	"	"G/A"	"56,1/43,9"	"92/72"	164	stress_42	"POPTR_0002s18020.1"	630	"	"G/A"	"51,7/48,3"	"31/29"	60
controllo_3	"POPTR_0002s18020.1"	630	"	"G/A"	"56,1/43,9"	"92/72"	164	stress_45	"POPTR_0002s18020.1"	630	"	"G/A"	"54,8/45,2"	"40/33"	73
controllo_3	"POPTR_0008s05480.1"	852	"	"A/T"	"56,1/43,9"	"74/58"	132	stress_12bis	"POPTR_0008s05480.1"	852	"	"A/T"	"68,8/31,2"	"22/10"	32
controllo_3	"POPTR_0008s11320.1"	167	"	"C/T"	"56,1/43,9"	"87/68"	155	stress_12bis	"POPTR_0008s11320.1"	167	"	"C/T"	"61,8/38,2"	"21/13"	34
controllo_3	"POPTR_0008s12550.1"	102	"	"A/C"	"56,1/43,9"	"69/54"	123	stress_12bis	"POPTR_0008s12550.1"	102	"	"A/C"	"51,5/48,5"	"17/16"	33
controllo_3	"POPTR_0008s12550.1"	102	"	"A/C"	"56,1/43,9"	"69/54"	123	stress_42	"POPTR_0008s12550.1"	102	"	"A/C"	"64,2/35,8"	"34/19"	53
controllo_3	"POPTR_0008s12550.1"	102	"	"A/C"	"56,1/43,9"	"69/54"	123	stress_45	"POPTR_0008s12550.1"	102	"	"C/A"	"50,5/49,5"	"53/52"	105
controllo_3	"POPTR_0008s15290.1"	1464	"	"A/T"	"56,1/43,9"	"78/61"	139	stress_12bis	"POPTR_0008s15290.1"	1464	"	"A/T"	"52,3/47,7"	"34/31"	65
controllo_3	"POPTR_0008s15290.1"	1464	"	"A/T"	"56,1/43,9"	"78/61"	139	stress_42	"POPTR_0008s15290.1"	1464	"	"A/T"	"51,6/48,4"	"32/30"	62
controllo_3	"POPTR_0008s15290.1"	1464	"	"A/T"	"56,1/43,9"	"78/61"	139	stress_45	"POPTR_0008s15290.1"	1464	"	"A/T"	"58,1/41,9"	"54/39"	93
controllo_3	"POPTR_0016s14310.1"	54	"	"C/A"	"56,1/43,9"	"197/154"	351	stress_12bis	"POPTR_0016s14310.1"	54	"	"C/A"	"62,0/38,0"	"85/52"	137
controllo_3	"POPTR_0016s14310.1"	54	"	"C/A"	"56,1/43,9"	"197/154"	351	stress_42	"POPTR_0016s14310.1"	54	"	"C/A"	"69,2/30,8"	"9/4"	13
controllo_3	"POPTR_0016s14310.1"	54	"	"C/A"	"56,1/43,9"	"197/154"	351	stress_45	"POPTR_0016s14310.1"	54	"	"A/C"	"54,5/45,5"	"6/5"	11
controllo_3	"POPTR_0006s00470.1"	1554	"	"T/C"	"56,2/43,1"	"86/66"	153	stress_12bis	"POPTR_0006s00470.1"	1554	"	"T/C"	"57,1/42,9"	"28/21"	49
controllo_3	"POPTR_0006s00470.1"	1554	"	"T/C"	"56,2/43,1"	"86/66"	153	stress_42	"POPTR_0006s00470.1"	1554	"	"C/T"	"64,3/35,7"	"9/5"	14
controllo_3	"POPTR_0006s00470.1"	1554	"	"T/C"	"56,2/43,1"	"86/66"	153	stress_45	"POPTR_0006s00470.1"	1554	"	"T/C"	"70,7/29,3"	"29/12"	41
controllo_3	"POPTR_0002s05910.1"	199	"	"C/T"	"56,2/43,1"	"86/66"	153	stress_12bis	"POPTR_0002s05910.1"	199	"	"C/T"	"63,6/36,4"	"21/12"	33
controllo_3	"POPTR_0002s05910.1"	199	"	"C/T"	"56,2/43,1"	"86/66"	153	stress_42	"POPTR_0002s05910.1"	199	"	"T/C"	"54,5/45,5"	"6/5"	11
controllo_3	"POPTR_0002s05910.1"	199	"	"C/T"	"56,2/43,1"	"86/66"	153	stress_45	"POPTR_0002s05910.1"	199	"	"T/C"	"57,1/42,9"	"8/6"	14
controllo_3	"POPTR_0005s20920.1"	57	"	"A/T"	"56,2/43,5"	"177/137"	315	stress_12bis	"POPTR_0005s20920.1"	57	"	"A/T"	"57,6/42,4"	"38/28"	66
controllo_3	"POPTR_0002s22600.1"	882	"	"A/G"	"56,2/43,7"	"1207/938"	2147	stress_12bis	"POPTR_0002s22600.1"	882	"	"A/G"	"59,6/40,4"	"308/209"	517
controllo_3	"POPTR_0002s22600.1"	882	"	"A/G"	"56,2/43,7"	"1207/938"	2147	stress_42	"POPTR_0002s22600.1"	882	"	"A/G"	"54,9/45,1"	"90/74"	164
controllo_3	"POPTR_0002s22600.1"	882	"	"A/G"	"56,2/43,7"	"1207/938"	2147	stress_45	"POPTR_0002s22600.1"	882	"	"A/G"	"56,8/43,2"	"117/89"	206
controllo_3	"POPTR_0005s11860.1"	193	"	"T/C"	"56,2/43,8"	"59/46"	105	stress_12bis	"POPTR_0005s11860.1"	193	"	"C/T"	"52,8/47,2"	"19/17"	36
controllo_3	"POPTR_0005s11860.1"	193	"	"T/C"	"56,2/43,8"	"59/46"	105	stress_42	"POPTR_0005s11860.1"	193	"	"C/T"	"69,2/30,8"	"9/4"	13
controllo_3	"POPTR_0005s11860.1"	193	"	"T/C"	"56,2/43,8"	"59/46"	105	stress_45	"POPTR_0005s11860.1"	193	"	"T/C"	"60,0/40,0"	"9/6"	15
controllo_3	"POPTR_0005s05980.1"	108	"	"G/A"	"56,2/43,8"	"73/57"	130	stress_12bis	"POPTR_0005s05980.1"	108	"	"G/A"	"51,0/49,0"	"26/25"	51
controllo_3	"POPTR_0005s05980.1"	108	"	"G/A"	"56,2/43,8"	"73/57"	130	stress_42	"POPTR_0005s05980.1"	108	"	"G/A"	"60,0/40,0"	"15/10"	25
controllo_3	"POPTR_0005s05980.1"	108	"	"G/A"	"56,2/43,8"	"73/57"	130	stress_45	"POPTR_0005s05980.1"	108	"	"G/A"	"63,6/36,4"	"21/12"	33
controllo_3	"POPTR_0005s05980.1"	182	"	"C/A"	"56,2/43,8"	"68/53"	121	stress_12bis	"POPTR_0005s05980.1"	182	"	"C/A"	"59,2/40,8"	"29/20"	49
controllo_3	"POPTR_0005s05980.1"	182	"	"C/A"	"56,2/43,8"	"68/53"	121	stress_42	"POPTR_0005s05980.1"	182	"	"A/C"	"50,0/50,0"	"14/14"	28
controllo_3	"POPTR_0005s05980.1"	182	"	"C/A"	"56,2/43,8"	"68/53"	121	stress_45	"POPTR_0005s05980.1"	182	"	"A/C"	"67,7/32,3"	"21/10"	31
controllo_3	"POPTR_0019s14860.1"	423	"	"T/G"	"56,2/43,8"	"72/56"	128	stress_12bis	"POPTR_0019s14860.1"	423	"	"T/G"	"67,3/32,7"	"35/17"	52
controllo_3	"POPTR_0019s14860.1"	423	"	"T/G"	"56,2/43,8"	"72/56"	128	stress_42	"POPTR_0019s14860.1"	423	"	"T/G"	"66,7/33,3"	"12/6"	18
controllo_3	"POPTR_0019s14860.1"	423	"	"T/G"	"56,2/43,8"	"72/56"	128	stress_45	"POPTR_0019s14860.1"	423	"	"T/G"	"52,4/47,6"	"11/10"	21
controllo_3	"POPTR_0013s12130.1"	519	"	"G/C"	"56,2/43,8"	"63/49"	112	stress_12bis	"POPTR_0013s12130.1"	519	"	"C/G"	"62,5/37,5"	"20/12"	32
controllo_3	"POPTR_0013s12130.1"	519	"	"G/C"	"56,2/43,8"	"63/49"	112	stress_45	"POPTR_0013s12130.1"	519	"	"G/C"	"57,1/42,9"	"8/6"	14
controllo_3	"POPTR_0013s01080.1"	687	"	"C/A"	"56,2/43,8"	"77/60"	137	stress_12bis	"POPTR_0013s01080.1"	687	"	"C/A"	"53,2/46,8"	"25/22"	47
controllo_3	"POPTR_0013s01080.1"	687	"	"C/A"	"56,2/43,8"	"77/60"	137	stress_42	"POPTR_0013s01080.1"	687	"	"C/A"	"52,4/47,6"	"11/10"	21
controllo_3	"POPTR_0013s01080.1"	687	"	"C/A"	"56,2/43,8"	"77/60"	137	stress_45	"POPTR_0013s01080.1"	687	"	"C/A"	"64,0/36,0"	"16/9"	25
controllo_3	"POPTR_0014s06820.1"	1299	"	"A/G"	"56,2/43,8"	"68/53"	121	stress_12bis	"POPTR_0014s06820.1"	1299	"	"A/G"	"53,8/46,2"	"21/18"	39
controllo_3	"POPTR_0014s06820.1"	1299	"	"A/G"	"56,2/43,8"	"68/53"	121	stress_42	"POPTR_0014s06820.1"	1299	"	"G/A"	"80,0/20,0"	"8/2"	10
controllo_3	"POPTR_0014s06820.1"	1299	"	"A/G"	"56,2/43,8"	"68/53"	121	stress_45	"POPTR_0014s06820.1"	1299	"	"A/G"	"61,1/38,9"	"11/7"	18
controllo_3	"POPTR_0004s14960.1"	2049	"	"G/A"	"56,2/43,8"	"72/56"	128	stress_12bis	"POPTR_0004s14960.1"	2049	"	"G/A"	"64,5/35,5"	"20/11"	31
controllo_3	"POPTR_0004s14960.1"	2049	"	"G/A"	"56,2/43,8"	"72/56"	128	stress_45	"POPTR_0004s14960.1"	2049	"	"A/G"	"68,4/31,6"	"13/6"	19
controllo_3	"POPTR_0004s11780.1"	144	"	"C/A"	"56,2/43,8"	"41/32"	73	stress_45	"POPTR_0004s11780.1"	144	"	"C/A"	"57,7/42,3"	"60/44"	104
controllo_3	"POPTR_0004s02080.1"	219	"	"C/T"	"56,2/43,8"	"114/89"	203	stress_12bis	"POPTR_0004s02080.1"	219	"	"C/T"	"65,8/34,2"	"48/25"	73
controllo_3	"POPTR_0004s02080.1"	219	"	"C/T"	"56,2/43,8"	"114/89"	203	stress_42	"POPTR_0004s02080.1"	219	"	"C/T"	"60,2/39,8"	"71/47"	118
controllo_3	"POPTR_0004s02080.1"	219	"	"C/T"	"56,2/43,8"	"114/89"	203	stress_45	"POPTR_0004s02080.1"	219	"	"C/T"	"55,3/44,7"	"120/97"	217
controllo_3	"POPTR_0004s15440.1"	111	"	"C/T"	"56,2/43,8"	"149/116"	265	stress_12bis	"POPTR_0004s15440.1"	111	"	"T/C"	"52,8/47,2"	"28/25"	53
controllo_3	"POPTR_0004s15440.1"	111	"	"C/T"	"56,2/43,8"	"149/116"	265	stress_42	"POPTR_0004s15440.1"	111	"	"C/T"	"74,2/25,8"	"23/8"	31
controllo_3	"POPTR_0004s15440.1"	111	"	"C/T"	"56,2/43,8"	"149/116"	265	stress_45	"POPTR_0004s15440.1"	111	"	"C/T"	"52,4/47,6"	"11/10"	21
controllo_3	"POPTR_0009s15140.1"	339	"	"C/A"	"56,2/43,8"	"77/60"	137	stress_12bis	"POPTR_0009s15140.1"	339	"	"A/C"	"61,0/39,0"	"36/23"	59
controllo_3	"POPTR_0009s15140.1"	339	"	"C/A"	"56,2/43,8"	"77/60"	137	stress_42	"POPTR_0009s15140.1"	339	"	"A/C"	"64,4/35,6"	"56/31"	87
controllo_3	"POPTR_0009s15140.1"	339	"	"C/A"	"56,2/43,8"	"77/60"	137	stress_45	"POPTR_0009s15140.1"	339	"	"C/A"	"54,7/45,3"	"52/43"	95
controllo_3	"POPTR_0009s06690.1"	984	"	"T/C"	"56,2/43,8"	"108/84"	192	stress_12bis	"POPTR_0009s06690.1"	984	"	"T/C"	"52,0/48,0"	"26/24"	50
controllo_3	"POPTR_0009s06690.1"	984	"	"T/C"	"56,2/43,8"	"108/84"	192	stress_42	"POPTR_0009s06690.1"	984	"	"C/T"	"59,8/40,2"	"70/47"	117
controllo_3	"POPTR_0009s06690.1"	984	"	"T/C"	"56,2/43,8"	"108/84"	192	stress_45	"POPTR_0009s06690.1"	984	"	"T/C"	"51,7/48,3"	"92/86"	178
controllo_3	"POPTR_0009s02070.1"	516	"	"T/C"	"56,2/43,8"	"226/176"	402	stress_12bis	"POPTR_0009s02070.1"	516	"	"C/T"	"57,7/42,3"	"60/44"	104
controllo_3	"POPTR_0009s02070.1"	516	"	"T/C"	"56,2/43,8"	"226/176"	402	stress_42	"POPTR_0009s02070.1"	516	"	"C/T"	"51,4/48,6"	"38/36"	74
controllo_3	"POPTR_0009s02070.1"	516	"	"T/C"	"56,2/43,8"	"226/176"	402	stress_45	"POPTR_0009s02070.1"	516	"	"T/C"	"61,6/38,4"	"77/48"	125
controllo_3	"POPTR_0015s10920.1"	441	"	"G/C"	"56,2/43,8"	"77/60"	137	stress_12bis	"POPTR_0015s10920.1"	441	"	"C/G"	"59,2/38,8"	"29/19"	49
controllo_3	"POPTR_0015s10920.1"	441	"	"G/C"	"56,2/43,8"	"77/60"	137	stress_45	"POPTR_0015s10920.1"	441	"	"C/G"	"61,3/38,7"	"19/12"	31
controllo_3	"POPTR_0001s08420.1"	270	"	"C/A"	"56,2/43,8"	"68/53"	121	stress_12bis	"POPTR_0001s08420.1"	270	"	"C/A"	"71,9/28,1"	"23/9"	32
controllo_3	"POPTR_0001s36560.1"	390	"	"T/C"	"56,2/43,8"	"352/274"	626	stress_12bis	"POPTR_0001s36560.1"	390	"	"T/C"	"53,1/46,9"	"95/84"	179
controllo_3	"POPTR_0001s36560.1"	390	"	"T/C"	"56,2/43,8"	"352/274"	626	stress_42	"POPTR_0001s36560.1"	390	"	"C/T"	"50,0/50,0"	"9/9"	18
controllo_3	"POPTR_0001s36560.1"	390	"	"T/C"	"56,2/43,8"	"352/274"	626	stress_45	"POPTR_0001s36560.1"	390	"	"T/C"	"51,9/48,1"	"28/26"	54
controllo_3	"POPTR_0001s23820.1"	318	"	"T/C"	"56,2/43,8"	"73/57"	130	stress_12bis	"POPTR_0001s23820.1"	318	"	"T/C"	"75,5/24,5"	"37/12"	49
controllo_3	"POPTR_0001s23820.1"	318	"	"T/C"	"56,2/43,8"	"73/57"	130	stress_42	"POPTR_0001s23820.1"	318	"	"T/C"	"83,8/16,2"	"31/6"	37
controllo_3	"POPTR_0001s23820.1"	318	"	"T/C"	"56,2/43,8"	"73/57"	130	stress_45	"POPTR_0001s23820.1"	318	"	"T/C"	"60,9/39,1"	"28/18"	46
controllo_3	"POPTR_0001s32780.1"	558	"	"G/A"	"56,2/43,8"	"81/63"	144	stress_12bis	"POPTR_0001s32780.1"	558	"	"G/A"	"62,5/37,5"	"15/9"	24
controllo_3	"POPTR_0001s32780.1"	558	"	"G/A"	"56,2/43,8"	"81/63"	144	stress_42	"POPTR_0001s32780.1"	558	"	"G/A"	"58,1/41,9"	"18/13"	31
controllo_3	"POPTR_0001s32780.1"	558	"	"G/A"	"56,2/43,8"	"81/63"	144	stress_45	"POPTR_0001s32780.1"	558	"	"G/A"	"56,5/43,5"	"70/54"	124
controllo_3	"POPTR_0001s41780.1"	693	"	"T/A"	"56,2/43,8"	"91/71"	162	stress_12bis	"POPTR_0001s41780.1"	693	"	"T/A"	"66,7/33,3"	"12/6"	18
controllo_3	"POPTR_0001s41780.1"	693	"	"T/A"	"56,2/43,8"	"91/71"	162	stress_42	"POPTR_0001s41780.1"	693	"	"T/A"	"75,0/25,0"	"12/4"	16
controllo_3	"POPTR_0001s41780.1"	693	"	"T/A"	"56,2/43,8"	"91/71"	162	stress_45	"POPTR_0001s41780.1"	693	"	"T/A"	"70,8/29,2"	"17/7"	24
controllo_3	"POPTR_0001s36700.1"	1302	"	"C/T"	"56,2/43,8"	"86/67"	153	stress_12bis	"POPTR_0001s36700.1"	1302	"	"C/T"	"63,0/37,0"	"34/20"	54
controllo_3	"POPTR_0001s36700.1"	1302	"	"C/T"	"56,2/43,8"	"86/67"	153	stress_42	"POPTR_0001s36700.1"	1302	"	"T/C"	"52,9/47,1"	"37/33"	70
controllo_3	"POPTR_0001s36700.1"	1302	"	"C/T"	"56,2/43,8"	"86/67"	153	stress_45	"POPTR_0001s36700.1"	1302	"	"T/C"	"50,6/49,4"	"44/43"	87
controllo_3	"POPTR_0010s19720.1"	128	"	"T/C"	"56,2/43,8"	"63/49"	112	stress_12bis	"POPTR_0010s19720.1"	128	"	"T/C"	"66,7/33,3"	"14/7"	21
controllo_3	"POPTR_0010s19720.1"	128	"	"T/C"	"56,2/43,8"	"63/49"	112	stress_45	"POPTR_0010s19720.1"	128	"	"T/C"	"54,5/45,5"	"6/5"	11
controllo_3	"POPTR_0010s19860.1"	465	"	"T/C"	"56,2/43,8"	"45/35"	80	stress_45	"POPTR_0010s19860.1"	465	"	"C/T"	"54,7/45,3"	"58/48"	106
controllo_3	"POPTR_0002s13330.1"	136	"	"T/A"	"56,2/43,8"	"77/60"	137	stress_12bis	"POPTR_0002s13330.1"	136	"	"A/T"	"61,5/38,5"	"32/20"	52
controllo_3	"POPTR_0002s13330.1"	136	"	"T/A"	"56,2/43,8"	"77/60"	137	stress_45	"POPTR_0002s13330.1"	136	"	"T/A"	"52,9/47,1"	"9/8"	17
controllo_3	"POPTR_0002s22220.1"	210	"	"C/T"	"56,2/43,8"	"433/337"	770	stress_12bis	"POPTR_0002s22220.1"	210	"	"C/T"	"58,4/41,6"	"94/67"	161
controllo_3	"POPTR_0002s22220.1"	210	"	"C/T"	"56,2/43,8"	"433/337"	770	stress_42	"POPTR_0002s22220.1"	210	"	"C/T"	"53,7/46,3"	"44/38"	82
controllo_3	"POPTR_0002s22220.1"	210	"	"C/T"	"56,2/43,8"	"433/337"	770	stress_45	"POPTR_0002s22220.1"	210	"	"T/C"	"51,2/48,8"	"85/81"	166
controllo_3	"POPTR_0002s26190.1"	138	"	"G/A"	"56,2/43,8"	"59/46"	105	stress_12bis	"POPTR_0002s26190.1"	138	"	"A/G"	"76,9/23,1"	"10/3"	13
controllo_3	"POPTR_0002s26190.1"	138	"	"G/A"	"56,2/43,8"	"59/46"	105	stress_45	"POPTR_0002s26190.1"	138	"	"A/G"	"71,4/28,6"	"10/4"	14
controllo_3	"POPTR_0008s01960.1"	735	"	"T/C"	"56,2/43,8"	"114/89"	203	stress_12bis	"POPTR_0008s01960.1"	735	"	"C/T"	"61,7/38,3"	"29/18"	47
controllo_3	"POPTR_0008s01960.1"	735	"	"T/C"	"56,2/43,8"	"114/89"	203	stress_42	"POPTR_0008s01960.1"	735	"	"C/T"	"51,4/48,6"	"18/17"	35
controllo_3	"POPTR_0008s01960.1"	735	"	"T/C"	"56,2/43,8"	"114/89"	203	stress_45	"POPTR_0008s01960.1"	735	"	"T/C"	"60,0/38,0"	"30/19"	50
controllo_3	"POPTR_0008s20590.1"	342	"	"G/T"	"56,2/43,8"	"200/156"	356	stress_12bis	"POPTR_0008s20590.1"	342	"	"G/T"	"65,2/34,8"	"88/47"	135
controllo_3	"POPTR_0008s20590.1"	342	"	"G/T"	"56,2/43,8"	"200/156"	356	stress_42	"POPTR_0008s20590.1"	342	"	"G/T"	"59,8/40,2"	"73/49"	122
controllo_3	"POPTR_0008s20590.1"	342	"	"G/T"	"56,2/43,8"	"200/156"	356	stress_45	"POPTR_0008s20590.1"	342	"	"G/T"	"61,0/39,0"	"72/46"	118
controllo_3	"POPTR_0008s06720.1"	51	"	"G/T"	"56,2/43,8"	"1070/834"	1904	stress_12bis	"POPTR_0008s06720.1"	51	"	"G/T"	"61,1/38,9"	"343/218"	561
controllo_3	"POPTR_0008s06720.1"	51	"	"G/T"	"56,2/43,8"	"1070/834"	1904	stress_42	"POPTR_0008s06720.1"	51	"	"T/G"	"55,0/45,0"	"61/50"	111
controllo_3	"POPTR_0008s06720.1"	51	"	"G/T"	"56,2/43,8"	"1070/834"	1904	stress_45	"POPTR_0008s06720.1"	51	"	"T/G"	"63,2/36,8"	"86/50"	136
controllo_3	"POPTR_0008s06720.1"	552	"	"C/T"	"56,2/43,8"	"858/669"	1527	stress_12bis	"POPTR_0008s06720.1"	552	"	"C/T"	"60,9/39,1"	"259/166"	425
controllo_3	"POPTR_0008s06720.1"	552	"	"C/T"	"56,2/43,8"	"858/669"	1527	stress_42	"POPTR_0008s06720.1"	552	"	"T/C"	"54,3/45,7"	"75/63"	138
controllo_3	"POPTR_0008s06720.1"	552	"	"C/T"	"56,2/43,8"	"858/669"	1527	stress_45	"POPTR_0008s06720.1"	552	"	"T/C"	"64,5/35,5"	"69/38"	107
controllo_3	"POPTR_0016s12100.1"	1354	"	"C/A"	"56,2/43,8"	"59/46"	105	stress_12bis	"POPTR_0016s12100.1"	1354	"	"A/C"	"50,0/50,0"	"6/6"	12
controllo_3	"POPTR_0008s19160.1"	1424	"	"A/C"	"56,3/41,7"	"85/63"	151	stress_12bis	"POPTR_0008s19160.1"	1424	"	"A/C"	"51,1/44,4"	"23/20"	45
controllo_3	"POPTR_0003s12870.1"	330	"	"A/G"	"56,3/43,4"	"205/158"	364	stress_12bis	"POPTR_0003s12870.1"	330	"	"A/G"	"64,0/34,0"	"64/34"	100
controllo_3	"POPTR_0003s12870.1"	330	"	"A/G"	"56,3/43,4"	"205/158"	364	stress_42	"POPTR_0003s12870.1"	330	"	"G/A"	"52,1/47,9"	"38/35"	73
controllo_3	"POPTR_0003s12870.1"	330	"	"A/G"	"56,3/43,4"	"205/158"	364	stress_45	"POPTR_0003s12870.1"	330	"	"A/G"	"50,7/49,3"	"37/36"	73
controllo_3	"POPTR_0002s14730.1"	1783	"	"T/G"	"56,3/43,4"	"503/388"	893	stress_12bis	"POPTR_0002s14730.1"	1783	"	"T/G"	"54,6/45,4"	"148/123"	271
controllo_3	"POPTR_0002s14730.1"	1783	"	"T/G"	"56,3/43,4"	"503/388"	893	stress_42	"POPTR_0002s14730.1"	1783	"	"T/G"	"77,8/21,0"	"63/17"	81
controllo_3	"POPTR_0002s14730.1"	1783	"	"T/G"	"56,3/43,4"	"503/388"	893	stress_45	"POPTR_0002s14730.1"	1783	"	"T/G"	"67,3/32,7"	"66/32"	98
controllo_3	"POPTR_0005s23310.1"	705	"	"C/T"	"56,3/43,7"	"58/45"	103	stress_12bis	"POPTR_0005s23310.1"	705	"	"C/T"	"76,5/23,5"	"26/8"	34
controllo_3	"POPTR_0005s23310.1"	705	"	"C/T"	"56,3/43,7"	"58/45"	103	stress_42	"POPTR_0005s23310.1"	705	"	"C/T"	"72,2/27,8"	"26/10"	36
controllo_3	"POPTR_0005s23310.1"	705	"	"C/T"	"56,3/43,7"	"58/45"	103	stress_45	"POPTR_0005s23310.1"	705	"	"C/T"	"74,3/25,7"	"26/9"	35
controllo_3	"POPTR_0005s21750.1"	700	"	"A/G"	"56,3/43,7"	"67/52"	119	stress_12bis	"POPTR_0005s21750.1"	700	"	"G/A"	"76,3/23,7"	"71/22"	93
controllo_3	"POPTR_0005s21750.1"	700	"	"A/G"	"56,3/43,7"	"67/52"	119	stress_42	"POPTR_0005s21750.1"	700	"	"G/A"	"72,1/27,9"	"88/34"	122
controllo_3	"POPTR_0005s21750.1"	700	"	"A/G"	"56,3/43,7"	"67/52"	119	stress_45	"POPTR_0005s21750.1"	700	"	"G/A"	"72,7/27,3"	"72/27"	99
controllo_3	"POPTR_0006s18760.1"	945	"	"G/A"	"56,3/43,7"	"58/45"	103	stress_12bis	"POPTR_0006s18760.1"	945	"	"G/A"	"78,3/21,7"	"18/5"	23
controllo_3	"POPTR_0006s24770.1"	43	"	"A/C"	"56,3/43,7"	"183/142"	325	stress_12bis	"POPTR_0006s24770.1"	43	"	"A/C"	"64,3/35,7"	"133/74"	207
controllo_3	"POPTR_0006s24770.1"	43	"	"A/C"	"56,3/43,7"	"183/142"	325	stress_42	"POPTR_0006s24770.1"	43	"	"A/C"	"51,4/48,6"	"54/51"	105
controllo_3	"POPTR_0006s24770.1"	43	"	"A/C"	"56,3/43,7"	"183/142"	325	stress_45	"POPTR_0006s24770.1"	43	"	"C/A"	"54,4/45,6"	"81/68"	149
controllo_3	"POPTR_0006s14180.1"	582	"	"T/C"	"56,3/43,7"	"67/52"	119	stress_12bis	"POPTR_0006s14180.1"	582	"	"T/C"	"51,9/48,1"	"14/13"	27
controllo_3	"POPTR_0006s14180.1"	582	"	"T/C"	"56,3/43,7"	"67/52"	119	stress_45	"POPTR_0006s14180.1"	582	"	"C/T"	"62,5/37,5"	"10/6"	16
controllo_3	"POPTR_0006s11570.1"	357	"	"A/T"	"56,3/43,7"	"94/73"	167	stress_12bis	"POPTR_0006s11570.1"	357	"	"T/A"	"55,7/44,3"	"34/27"	61
controllo_3	"POPTR_0006s11570.1"	357	"	"A/T"	"56,3/43,7"	"94/73"	167	stress_42	"POPTR_0006s11570.1"	357	"	"A/T"	"56,8/43,2"	"25/19"	44
controllo_3	"POPTR_0006s11570.1"	357	"	"A/T"	"56,3/43,7"	"94/73"	167	stress_45	"POPTR_0006s11570.1"	357	"	"T/A"	"61,4/38,6"	"35/22"	57
controllo_3	"POPTR_0006s04960.1"	3039	"	"T/C"	"56,3/43,7"	"228/177"	405	stress_12bis	"POPTR_0006s04960.1"	3039	"	"C/T"	"54,5/45,5"	"36/30"	66
controllo_3	"POPTR_0006s04960.1"	3039	"	"T/C"	"56,3/43,7"	"228/177"	405	stress_42	"POPTR_0006s04960.1"	3039	"	"T/C"	"58,3/41,7"	"14/10"	24
controllo_3	"POPTR_0006s04960.1"	3039	"	"T/C"	"56,3/43,7"	"228/177"	405	stress_45	"POPTR_0006s04960.1"	3039	"	"C/T"	"53,8/46,2"	"14/12"	26
controllo_3	"POPTR_0003s08800.1"	1556	"	"T/C"	"56,3/43,7"	"58/45"	103	stress_12bis	"POPTR_0003s08800.1"	1556	"	"T/C"	"58,1/41,9"	"18/13"	31
controllo_3	"POPTR_0003s08800.1"	1556	"	"T/C"	"56,3/43,7"	"58/45"	103	stress_42	"POPTR_0003s08800.1"	1556	"	"T/C"	"68,8/31,2"	"11/5"	16
controllo_3	"POPTR_0003s08800.1"	1556	"	"T/C"	"56,3/43,7"	"58/45"	103	stress_45	"POPTR_0003s08800.1"	1556	"	"T/C"	"56,2/43,8"	"9/7"	16
controllo_3	"POPTR_0013s13150.1"	321	"	"G/T"	"56,3/43,7"	"58/45"	103	stress_12bis	"POPTR_0013s13150.1"	321	"	"G/T"	"55,0/45,0"	"11/9"	20
controllo_3	"POPTR_0013s13150.1"	321	"	"G/T"	"56,3/43,7"	"58/45"	103	stress_42	"POPTR_0013s13150.1"	321	"	"T/G"	"57,1/42,9"	"8/6"	14
controllo_3	"POPTR_0013s13150.1"	321	"	"G/T"	"56,3/43,7"	"58/45"	103	stress_45	"POPTR_0013s13150.1"	321	"	"G/T"	"53,3/46,7"	"16/14"	30
controllo_3	"POPTR_0013s05790.1"	699	"	"A/G"	"56,3/43,7"	"40/31"	71	stress_42	"POPTR_0013s05790.1"	699	"	"G/A"	"53,1/46,9"	"60/53"	113
controllo_3	"POPTR_0009s02370.1"	77	"	"A/T"	"56,3/43,7"	"67/52"	119	stress_12bis	"POPTR_0009s02370.1"	77	"	"A/T"	"61,5/38,5"	"75/47"	122
controllo_3	"POPTR_0009s02370.1"	77	"	"A/T"	"56,3/43,7"	"67/52"	119	stress_42	"POPTR_0009s02370.1"	77	"	"A/T"	"50,7/49,3"	"35/34"	69
controllo_3	"POPTR_0009s02370.1"	77	"	"A/T"	"56,3/43,7"	"67/52"	119	stress_45	"POPTR_0009s02370.1"	77	"	"T/A"	"55,3/44,7"	"52/42"	94
controllo_3	"POPTR_0001s36560.1"	642	"	"A/C"	"56,3/43,7"	"318/247"	565	stress_12bis	"POPTR_0001s36560.1"	642	"	"A/C"	"60,7/39,3"	"71/46"	117
controllo_3	"POPTR_0001s36560.1"	642	"	"A/C"	"56,3/43,7"	"318/247"	565	stress_42	"POPTR_0001s36560.1"	642	"	"C/A"	"66,7/33,3"	"12/6"	18
controllo_3	"POPTR_0001s36560.1"	642	"	"A/C"	"56,3/43,7"	"318/247"	565	stress_45	"POPTR_0001s36560.1"	642	"	"A/C"	"59,1/40,9"	"26/18"	44
controllo_3	"POPTR_0010s25500.1"	59	"	"G/T"	"56,3/43,7"	"121/94"	215	stress_12bis	"POPTR_0010s25500.1"	59	"	"G/T"	"55,8/44,2"	"29/23"	52
controllo_3	"POPTR_0010s19720.1"	297	"	"C/T"	"56,3/43,7"	"58/45"	103	stress_12bis	"POPTR_0010s19720.1"	297	"	"C/T"	"55,6/44,4"	"15/12"	27
controllo_3	"POPTR_0010s19720.1"	297	"	"C/T"	"56,3/43,7"	"58/45"	103	stress_45	"POPTR_0010s19720.1"	297	"	"T/C"	"54,5/45,5"	"6/5"	11
controllo_3	"POPTR_0007s10980.1"	279	"	"G/A"	"56,3/43,7"	"76/59"	135	stress_12bis	"POPTR_0007s10980.1"	279	"	"A/G"	"62,5/37,5"	"30/18"	48
controllo_3	"POPTR_0007s10980.1"	279	"	"G/A"	"56,3/43,7"	"76/59"	135	stress_42	"POPTR_0007s10980.1"	279	"	"A/G"	"60,0/40,0"	"6/4"	10
controllo_3	"POPTR_0002s01320.1"	177	"	"A/T"	"56,3/43,7"	"340/264"	604	stress_12bis	"POPTR_0002s01320.1"	177	"	"A/T"	"55,2/44,8"	"91/74"	165
controllo_3	"POPTR_0002s01320.1"	177	"	"A/T"	"56,3/43,7"	"340/264"	604	stress_42	"POPTR_0002s01320.1"	177	"	"T/A"	"54,0/46,0"	"27/23"	50
controllo_3	"POPTR_0002s01320.1"	177	"	"A/T"	"56,3/43,7"	"340/264"	604	stress_45	"POPTR_0002s01320.1"	177	"	"A/T"	"54,1/45,9"	"46/39"	85
controllo_3	"POPTR_0002s01320.1"	1761	"	"T/A"	"56,3/43,7"	"482/374"	856	stress_12bis	"POPTR_0002s01320.1"	1761	"	"A/T"	"50,8/49,2"	"129/125"	254
controllo_3	"POPTR_0002s01320.1"	1761	"	"T/A"	"56,3/43,7"	"482/374"	856	stress_42	"POPTR_0002s01320.1"	1761	"	"A/T"	"50,0/49,0"	"52/51"	104
controllo_3	"POPTR_0002s01320.1"	1761	"	"T/A"	"56,3/43,7"	"482/374"	856	stress_45	"POPTR_0002s01320.1"	1761	"	"T/A"	"53,9/46,1"	"83/71"	154
controllo_3	"POPTR_0002s26190.1"	147	"	"G/A"	"56,3/43,7"	"67/52"	119	stress_12bis	"POPTR_0002s26190.1"	147	"	"A/G"	"66,7/33,3"	"8/4"	12
controllo_3	"POPTR_0002s26190.1"	147	"	"G/A"	"56,3/43,7"	"67/52"	119	stress_45	"POPTR_0002s26190.1"	147	"	"A/G"	"64,3/35,7"	"9/5"	14
controllo_3	"POPTR_0002s21340.1"	1038	"	"G/A"	"56,3/43,7"	"76/59"	135	stress_12bis	"POPTR_0002s21340.1"	1038	"	"A/G"	"50,0/50,0"	"28/28"	56
controllo_3	"POPTR_0002s21340.1"	1038	"	"G/A"	"56,3/43,7"	"76/59"	135	stress_42	"POPTR_0002s21340.1"	1038	"	"A/G"	"56,5/43,5"	"39/30"	69
controllo_3	"POPTR_0002s21340.1"	1038	"	"G/A"	"56,3/43,7"	"76/59"	135	stress_45	"POPTR_0002s21340.1"	1038	"	"A/G"	"55,8/44,2"	"48/38"	86
controllo_3	"POPTR_0008s15930.1"	587	"	"C/T"	"56,3/43,7"	"58/45"	103	stress_12bis	"POPTR_0008s15930.1"	587	"	"T/C"	"63,6/36,4"	"7/4"	11
controllo_3	"POPTR_0008s15930.1"	587	"	"C/T"	"56,3/43,7"	"58/45"	103	stress_42	"POPTR_0008s15930.1"	587	"	"C/T"	"70,6/29,4"	"12/5"	17
controllo_3	"POPTR_0008s15930.1"	587	"	"C/T"	"56,3/43,7"	"58/45"	103	stress_45	"POPTR_0008s15930.1"	587	"	"C/T"	"72,3/27,7"	"34/13"	47
controllo_3	"POPTR_0006s03660.1"	2394	"	"G/T"	"56,4/42,9"	"92/70"	163	stress_12bis	"POPTR_0006s03660.1"	2394	"	"G/T"	"61,3/38,7"	"19/12"	31
controllo_3	"POPTR_0006s03660.1"	2394	"	"G/T"	"56,4/42,9"	"92/70"	163	stress_42	"POPTR_0006s03660.1"	2394	"	"G/T"	"66,7/33,3"	"8/4"	12
controllo_3	"POPTR_0006s03660.1"	2394	"	"G/T"	"56,4/42,9"	"92/70"	163	stress_45	"POPTR_0006s03660.1"	2394	"	"G/T"	"63,9/36,1"	"23/13"	36
controllo_3	"POPTR_0018s02890.1"	1254	"	"G/A"	"56,4/43,0"	"84/64"	149	stress_12bis	"POPTR_0018s02890.1"	1254	"	"G/A"	"54,5/45,5"	"18/15"	33
controllo_3	"POPTR_0018s02890.1"	1254	"	"G/A"	"56,4/43,0"	"84/64"	149	stress_45	"POPTR_0018s02890.1"	1254	"	"A/G"	"54,5/45,5"	"6/5"	11
controllo_3	"POPTR_0006s28990.1"	2460	"	"C/T"	"56,4/43,2"	"128/98"	227	stress_12bis	"POPTR_0006s28990.1"	2460	"	"T/C"	"53,5/46,5"	"23/20"	43
controllo_3	"POPTR_0006s28990.1"	2460	"	"C/T"	"56,4/43,2"	"128/98"	227	stress_42	"POPTR_0006s28990.1"	2460	"	"T/C"	"50,0/49,0"	"51/50"	102
controllo_3	"POPTR_0006s28990.1"	2460	"	"C/T"	"56,4/43,2"	"128/98"	227	stress_45	"POPTR_0006s28990.1"	2460	"	"C/T"	"57,7/42,3"	"60/44"	104
controllo_3	"POPTR_0006s14400.1"	415	"	"G/C"	"56,4/43,5"	"863/665"	1529	stress_12bis	"POPTR_0006s14400.1"	415	"	"G/C"	"52,0/48,0"	"196/181"	377
controllo_3	"POPTR_0006s14400.1"	415	"	"G/C"	"56,4/43,5"	"863/665"	1529	stress_42	"POPTR_0006s14400.1"	415	"	"C/G"	"76,1/23,9"	"502/158"	660
controllo_3	"POPTR_0006s14400.1"	415	"	"G/C"	"56,4/43,5"	"863/665"	1529	stress_45	"POPTR_0006s14400.1"	415	"	"C/G"	"74,3/25,7"	"728/252"	980
controllo_3	"POPTR_0010s20060.1"	693	"	"C/A"	"56,4/43,5"	"375/289"	665	stress_12bis	"POPTR_0010s20060.1"	693	"	"A/C"	"54,2/45,8"	"122/103"	225
controllo_3	"POPTR_0010s20060.1"	693	"	"C/A"	"56,4/43,5"	"375/289"	665	stress_42	"POPTR_0010s20060.1"	693	"	"A/C"	"59,2/40,8"	"29/20"	49
controllo_3	"POPTR_0010s20060.1"	693	"	"C/A"	"56,4/43,5"	"375/289"	665	stress_45	"POPTR_0010s20060.1"	693	"	"A/C"	"50,0/50,0"	"28/28"	56
controllo_3	"POPTR_0006s28350.1"	440	"	"G/A"	"56,4/43,6"	"97/75"	172	stress_12bis	"POPTR_0006s28350.1"	440	"	"G/A"	"66,7/33,3"	"14/7"	21
controllo_3	"POPTR_0006s28350.1"	440	"	"G/A"	"56,4/43,6"	"97/75"	172	stress_42	"POPTR_0006s28350.1"	440	"	"A/G"	"50,0/50,0"	"7/7"	14
controllo_3	"POPTR_0006s28350.1"	440	"	"G/A"	"56,4/43,6"	"97/75"	172	stress_45	"POPTR_0006s28350.1"	440	"	"G/A"	"68,2/31,8"	"15/7"	22
controllo_3	"POPTR_0006s04960.1"	2478	"	"A/G"	"56,4/43,6"	"127/98"	225	stress_12bis	"POPTR_0006s04960.1"	2478	"	"A/G"	"55,8/44,2"	"24/19"	43
controllo_3	"POPTR_0006s04960.1"	2478	"	"A/G"	"56,4/43,6"	"127/98"	225	stress_42	"POPTR_0006s04960.1"	2478	"	"G/A"	"75,0/25,0"	"9/3"	12
controllo_3	"POPTR_0006s04960.1"	2478	"	"A/G"	"56,4/43,6"	"127/98"	225	stress_45	"POPTR_0006s04960.1"	2478	"	"G/A"	"51,6/48,4"	"16/15"	31
controllo_3	"POPTR_0006s08800.1"	219	"	"T/G"	"56,4/43,6"	"62/48"	110	stress_12bis	"POPTR_0006s08800.1"	219	"	"G/T"	"59,2/40,8"	"42/29"	71
controllo_3	"POPTR_0006s08800.1"	219	"	"T/G"	"56,4/43,6"	"62/48"	110	stress_42	"POPTR_0006s08800.1"	219	"	"T/G"	"51,0/49,0"	"25/24"	49
controllo_3	"POPTR_0006s08800.1"	219	"	"T/G"	"56,4/43,6"	"62/48"	110	stress_45	"POPTR_0006s08800.1"	219	"	"G/T"	"55,2/44,8"	"16/13"	29
controllo_3	"POPTR_0003s11300.1"	175	"	"T/C"	"56,4/43,6"	"124/96"	220	stress_12bis	"POPTR_0003s11300.1"	175	"	"T/C"	"55,7/44,3"	"49/39"	88
controllo_3	"POPTR_0003s11300.1"	175	"	"T/C"	"56,4/43,6"	"124/96"	220	stress_45	"POPTR_0003s11300.1"	175	"	"T/C"	"60,9/39,1"	"14/9"	23
controllo_3	"POPTR_0003s09830.1"	963	"	"T/C"	"56,4/43,6"	"398/308"	706	stress_12bis	"POPTR_0003s09830.1"	963	"	"T/C"	"57,7/42,3"	"94/69"	163
controllo_3	"POPTR_0003s09830.1"	963	"	"T/C"	"56,4/43,6"	"398/308"	706	stress_42	"POPTR_0003s09830.1"	963	"	"C/T"	"50,0/50,0"	"14/14"	28
controllo_3	"POPTR_0003s09830.1"	963	"	"T/C"	"56,4/43,6"	"398/308"	706	stress_45	"POPTR_0003s09830.1"	963	"	"T/C"	"53,8/46,2"	"21/18"	39
controllo_3	"POPTR_0019s14050.1"	447	"	"G/A"	"56,4/43,6"	"123/95"	218	stress_12bis	"POPTR_0019s14050.1"	447	"	"G/A"	"55,6/44,4"	"30/24"	54
controllo_3	"POPTR_0019s14050.1"	447	"	"G/A"	"56,4/43,6"	"123/95"	218	stress_42	"POPTR_0019s14050.1"	447	"	"G/A"	"53,3/46,7"	"16/14"	30
controllo_3	"POPTR_0019s14050.1"	447	"	"G/A"	"56,4/43,6"	"123/95"	218	stress_45	"POPTR_0019s14050.1"	447	"	"G/A"	"66,7/33,3"	"18/9"	27
controllo_3	"POPTR_0013s13150.1"	951	"	"G/A"	"56,4/43,6"	"57/44"	101	stress_12bis	"POPTR_0013s13150.1"	951	"	"A/G"	"56,0/44,0"	"14/11"	25
controllo_3	"POPTR_0013s13150.1"	951	"	"G/A"	"56,4/43,6"	"57/44"	101	stress_42	"POPTR_0013s13150.1"	951	"	"G/A"	"59,3/40,7"	"16/11"	27
controllo_3	"POPTR_0013s13150.1"	951	"	"G/A"	"56,4/43,6"	"57/44"	101	stress_45	"POPTR_0013s13150.1"	951	"	"G/A"	"62,1/34,5"	"18/10"	29
controllo_3	"POPTR_0013s07150.1"	378	"	"C/T"	"56,4/43,6"	"93/72"	165	stress_12bis	"POPTR_0013s07150.1"	378	"	"C/T"	"52,5/47,5"	"21/19"	40
controllo_3	"POPTR_0013s07150.1"	378	"	"C/T"	"56,4/43,6"	"93/72"	165	stress_42	"POPTR_0013s07150.1"	378	"	"T/C"	"64,3/35,7"	"9/5"	14
controllo_3	"POPTR_0013s07150.1"	378	"	"C/T"	"56,4/43,6"	"93/72"	165	stress_45	"POPTR_0013s07150.1"	378	"	"C/T"	"68,8/31,2"	"11/5"	16
controllo_3	"POPTR_0004s17840.1"	108	"	"C/T"	"56,4/43,6"	"93/72"	165	stress_12bis	"POPTR_0004s17840.1"	108	"	"C/T"	"50,0/50,0"	"19/19"	38
controllo_3	"POPTR_0004s17840.1"	108	"	"C/T"	"56,4/43,6"	"93/72"	165	stress_42	"POPTR_0004s17840.1"	108	"	"T/C"	"63,9/36,1"	"23/13"	36
controllo_3	"POPTR_0004s17840.1"	108	"	"C/T"	"56,4/43,6"	"93/72"	165	stress_45	"POPTR_0004s17840.1"	108	"	"C/T"	"50,0/50,0"	"64/64"	128
controllo_3	"POPTR_0009s08180.1"	397	"	"C/T"	"56,4/43,6"	"57/44"	101	stress_12bis	"POPTR_0009s08180.1"	397	"	"C/T"	"70,6/29,4"	"24/10"	34
controllo_3	"POPTR_0009s08180.1"	397	"	"C/T"	"56,4/43,6"	"57/44"	101	stress_42	"POPTR_0009s08180.1"	397	"	"C/T"	"51,7/48,3"	"15/14"	29
controllo_3	"POPTR_0009s08180.1"	397	"	"C/T"	"56,4/43,6"	"57/44"	101	stress_45	"POPTR_0009s08180.1"	397	"	"C/T"	"62,3/37,7"	"33/20"	53
controllo_3	"POPTR_0012s04560.1"	333	"	"A/G"	"56,4/43,6"	"123/95"	218	stress_12bis	"POPTR_0012s04560.1"	333	"	"A/G"	"65,7/34,3"	"46/24"	70
controllo_3	"POPTR_0012s04560.1"	333	"	"A/G"	"56,4/43,6"	"123/95"	218	stress_42	"POPTR_0012s04560.1"	333	"	"A/G"	"73,3/26,7"	"11/4"	15
controllo_3	"POPTR_0012s04560.1"	333	"	"A/G"	"56,4/43,6"	"123/95"	218	stress_45	"POPTR_0012s04560.1"	333	"	"A/G"	"71,0/29,0"	"22/9"	31
controllo_3	"POPTR_0011s12680.1"	564	"	"T/C"	"56,4/43,6"	"208/161"	369	stress_12bis	"POPTR_0011s12680.1"	564	"	"T/C"	"50,7/49,3"	"38/37"	75
controllo_3	"POPTR_0011s12680.1"	564	"	"T/C"	"56,4/43,6"	"208/161"	369	stress_42	"POPTR_0011s12680.1"	564	"	"C/T"	"54,7/45,3"	"35/29"	64
controllo_3	"POPTR_0011s12680.1"	564	"	"T/C"	"56,4/43,6"	"208/161"	369	stress_45	"POPTR_0011s12680.1"	564	"	"T/C"	"59,6/40,4"	"31/21"	52
controllo_3	"POPTR_0001s35030.1"	1167	"	"T/A"	"56,4/43,6"	"66/51"	117	stress_12bis	"POPTR_0001s35030.1"	1167	"	"T/A"	"58,3/41,7"	"7/5"	12
controllo_3	"POPTR_0001s35030.1"	1167	"	"T/A"	"56,4/43,6"	"66/51"	117	stress_45	"POPTR_0001s35030.1"	1167	"	"A/T"	"65,2/34,8"	"15/8"	23
controllo_3	"POPTR_0001s09720.1"	1601	"	"G/C"	"56,4/43,6"	"62/48"	110	stress_12bis	"POPTR_0001s09720.1"	1601	"	"C/G"	"62,5/37,5"	"10/6"	16
controllo_3	"POPTR_0001s36700.1"	897	"	"G/C"	"56,4/43,6"	"115/89"	204	stress_12bis	"POPTR_0001s36700.1"	897	"	"G/C"	"55,6/44,4"	"35/28"	63
controllo_3	"POPTR_0001s36700.1"	897	"	"G/C"	"56,4/43,6"	"115/89"	204	stress_42	"POPTR_0001s36700.1"	897	"	"G/C"	"59,3/40,7"	"32/22"	54
controllo_3	"POPTR_0001s36700.1"	897	"	"G/C"	"56,4/43,6"	"115/89"	204	stress_45	"POPTR_0001s36700.1"	897	"	"G/C"	"50,0/48,9"	"44/43"	88
controllo_3	"POPTR_0001s10040.1"	516	"	"A/G"	"56,4/43,6"	"110/85"	195	stress_12bis	"POPTR_0001s10040.1"	516	"	"A/G"	"53,1/46,9"	"34/30"	64
controllo_3	"POPTR_0001s10040.1"	516	"	"A/G"	"56,4/43,6"	"110/85"	195	stress_42	"POPTR_0001s10040.1"	516	"	"A/G"	"51,4/48,6"	"38/36"	74
controllo_3	"POPTR_0001s10040.1"	516	"	"A/G"	"56,4/43,6"	"110/85"	195	stress_45	"POPTR_0001s10040.1"	516	"	"A/G"	"59,1/40,9"	"65/45"	110
controllo_3	"POPTR_0010s26200.1"	38	"	"C/T"	"56,4/43,6"	"101/78"	179	stress_12bis	"POPTR_0010s26200.1"	38	"	"T/C"	"53,3/46,7"	"49/43"	92
controllo_3	"POPTR_0010s26200.1"	38	"	"C/T"	"56,4/43,6"	"101/78"	179	stress_42	"POPTR_0010s26200.1"	38	"	"T/C"	"60,0/40,0"	"12/8"	20
controllo_3	"POPTR_0010s26200.1"	38	"	"C/T"	"56,4/43,6"	"101/78"	179	stress_45	"POPTR_0010s26200.1"	38	"	"T/C"	"52,4/47,6"	"11/10"	21
controllo_3	"POPTR_0007s08400.1"	1464	"	"C/T"	"56,4/43,6"	"195/151"	346	stress_12bis	"POPTR_0007s08400.1"	1464	"	"T/C"	"50,7/49,3"	"68/66"	134
controllo_3	"POPTR_0007s08400.1"	1464	"	"C/T"	"56,4/43,6"	"195/151"	346	stress_42	"POPTR_0007s08400.1"	1464	"	"C/T"	"68,9/31,1"	"84/38"	122
controllo_3	"POPTR_0007s08400.1"	1464	"	"C/T"	"56,4/43,6"	"195/151"	346	stress_45	"POPTR_0007s08400.1"	1464	"	"C/T"	"57,4/42,6"	"148/110"	258
controllo_3	"POPTR_0002s09480.1"	417	"	"C/G"	"56,4/43,6"	"31/24"	55	stress_45	"POPTR_0002s09480.1"	417	"	"C/G"	"57,7/42,3"	"79/58"	137
controllo_3	"POPTR_0002s19710.1"	69	"	"G/A"	"56,4/43,6"	"802/619"	1421	stress_12bis	"POPTR_0002s19710.1"	69	"	"G/A"	"61,5/38,5"	"351/220"	571
controllo_3	"POPTR_0002s19710.1"	69	"	"G/A"	"56,4/43,6"	"802/619"	1421	stress_42	"POPTR_0002s19710.1"	69	"	"G/A"	"54,4/45,6"	"124/104"	228
controllo_3	"POPTR_0002s19710.1"	69	"	"G/A"	"56,4/43,6"	"802/619"	1421	stress_45	"POPTR_0002s19710.1"	69	"	"G/A"	"54,7/45,3"	"105/87"	192
controllo_3	"POPTR_0002s08010.1"	1181	"	"G/A"	"56,4/43,6"	"93/72"	165	stress_12bis	"POPTR_0002s08010.1"	1181	"	"A/G"	"62,2/37,8"	"28/17"	45
controllo_3	"POPTR_0002s08010.1"	1181	"	"G/A"	"56,4/43,6"	"93/72"	165	stress_42	"POPTR_0002s08010.1"	1181	"	"A/G"	"50,0/50,0"	"5/5"	10
controllo_3	"POPTR_0002s08010.1"	1181	"	"G/A"	"56,4/43,6"	"93/72"	165	stress_45	"POPTR_0002s08010.1"	1181	"	"G/A"	"81,2/18,8"	"13/3"	16
controllo_3	"POPTR_0002s02310.1"	306	"	"A/G"	"56,4/43,6"	"75/58"	133	stress_12bis	"POPTR_0002s02310.1"	306	"	"G/A"	"52,4/47,6"	"22/20"	42
controllo_3	"POPTR_0002s02310.1"	306	"	"A/G"	"56,4/43,6"	"75/58"	133	stress_42	"POPTR_0002s02310.1"	306	"	"G/A"	"64,0/36,0"	"32/18"	50
controllo_3	"POPTR_0002s02310.1"	306	"	"A/G"	"56,4/43,6"	"75/58"	133	stress_45	"POPTR_0002s02310.1"	306	"	"A/G"	"63,5/36,5"	"33/19"	52
controllo_3	"POPTR_0008s05480.1"	1626	"	"C/T"	"56,4/43,6"	"514/398"	912	stress_12bis	"POPTR_0008s05480.1"	1626	"	"C/T"	"55,9/44,1"	"190/150"	340
controllo_3	"POPTR_0008s05480.1"	1626	"	"C/T"	"56,4/43,6"	"514/398"	912	stress_42	"POPTR_0008s05480.1"	1626	"	"C/T"	"52,0/48,0"	"127/117"	244
controllo_3	"POPTR_0008s05480.1"	1626	"	"C/T"	"56,4/43,6"	"514/398"	912	stress_45	"POPTR_0008s05480.1"	1626	"	"C/T"	"50,5/49,5"	"260/255"	515
controllo_3	"POPTR_0008s20370.1"	360	"	"C/T"	"56,4/43,6"	"75/58"	133	stress_12bis	"POPTR_0008s20370.1"	360	"	"C/T"	"59,0/41,0"	"23/16"	39
controllo_3	"POPTR_0008s20370.1"	360	"	"C/T"	"56,4/43,6"	"75/58"	133	stress_42	"POPTR_0008s20370.1"	360	"	"T/C"	"65,3/34,7"	"32/17"	49
controllo_3	"POPTR_0008s20370.1"	360	"	"C/T"	"56,4/43,6"	"75/58"	133	stress_45	"POPTR_0008s20370.1"	360	"	"T/C"	"65,5/34,5"	"38/20"	58
controllo_3	"POPTR_0008s20590.1"	525	"	"A/T"	"56,4/43,6"	"133/103"	236	stress_12bis	"POPTR_0008s20590.1"	525	"	"A/T"	"60,5/39,5"	"46/30"	76
controllo_3	"POPTR_0008s20590.1"	525	"	"A/T"	"56,4/43,6"	"133/103"	236	stress_42	"POPTR_0008s20590.1"	525	"	"A/T"	"60,5/39,5"	"46/30"	76
controllo_3	"POPTR_0008s20590.1"	525	"	"A/T"	"56,4/43,6"	"133/103"	236	stress_45	"POPTR_0008s20590.1"	525	"	"A/T"	"64,3/35,7"	"72/40"	112
controllo_3	"POPTR_0008s08400.1"	814	"	"C/G"	"56,4/43,6"	"75/58"	133	stress_12bis	"POPTR_0008s08400.1"	814	"	"C/G"	"75,0/25,0"	"18/6"	24
controllo_3	"POPTR_0008s08400.1"	814	"	"C/G"	"56,4/43,6"	"75/58"	133	stress_42	"POPTR_0008s08400.1"	814	"	"G/C"	"57,8/42,2"	"26/19"	45
controllo_3	"POPTR_0008s08400.1"	814	"	"C/G"	"56,4/43,6"	"75/58"	133	stress_45	"POPTR_0008s08400.1"	814	"	"C/G"	"55,8/44,2"	"29/23"	52
controllo_3	"POPTR_0016s06540.1"	195	"	"C/T"	"56,4/43,6"	"88/68"	156	stress_12bis	"POPTR_0016s06540.1"	195	"	"C/T"	"66,7/33,3"	"8/4"	12
controllo_3	"POPTR_0017s14470.1"	552	"	"C/T"	"56,5/42,0"	"39/29"	69	stress_42	"POPTR_0017s14470.1"	552	"	"C/T"	"61,5/38,5"	"64/40"	104
controllo_3	"POPTR_0017s14470.1"	552	"	"C/T"	"56,5/42,0"	"39/29"	69	stress_45	"POPTR_0017s14470.1"	552	"	"C/T"	"60,7/38,7"	"105/67"	173
controllo_3	"POPTR_0006s10130.1"	600	"	"A/C"	"56,5/43,4"	"539/414"	954	stress_12bis	"POPTR_0006s10130.1"	600	"	"A/C"	"64,7/35,3"	"75/41"	116
controllo_3	"POPTR_0006s10130.1"	600	"	"A/C"	"56,5/43,4"	"539/414"	954	stress_42	"POPTR_0006s10130.1"	600	"	"C/A"	"64,8/35,2"	"46/25"	71
controllo_3	"POPTR_0006s10130.1"	600	"	"A/C"	"56,5/43,4"	"539/414"	954	stress_45	"POPTR_0006s10130.1"	600	"	"A/C"	"63,9/36,1"	"69/39"	108
controllo_3	"POPTR_0005s23110.1"	173	"	"T/C"	"56,5/43,5"	"121/93"	214	stress_12bis	"POPTR_0005s23110.1"	173	"	"C/T"	"55,4/44,6"	"41/33"	74
controllo_3	"POPTR_0005s23110.1"	173	"	"T/C"	"56,5/43,5"	"121/93"	214	stress_42	"POPTR_0005s23110.1"	173	"	"T/C"	"72,7/27,3"	"8/3"	11
controllo_3	"POPTR_0005s23110.1"	173	"	"T/C"	"56,5/43,5"	"121/93"	214	stress_45	"POPTR_0005s23110.1"	173	"	"T/C"	"56,2/43,8"	"9/7"	16
controllo_3	"POPTR_0005s25850.1"	97	"	"T/G"	"56,5/43,5"	"83/64"	147	stress_12bis	"POPTR_0005s25850.1"	97	"	"G/T"	"53,8/46,2"	"7/6"	13
controllo_3	"POPTR_0006s12910.1"	124	"	"A/C"	"56,5/43,5"	"238/183"	421	stress_12bis	"POPTR_0006s12910.1"	124	"	"A/C"	"54,8/45,2"	"69/57"	126
controllo_3	"POPTR_0006s12910.1"	124	"	"A/C"	"56,5/43,5"	"238/183"	421	stress_42	"POPTR_0006s12910.1"	124	"	"A/C"	"59,3/40,7"	"35/24"	59
controllo_3	"POPTR_0006s12910.1"	124	"	"A/C"	"56,5/43,5"	"238/183"	421	stress_45	"POPTR_0006s12910.1"	124	"	"C/A"	"51,6/48,4"	"65/61"	126
controllo_3	"POPTR_0006s11920.1"	996	"	"G/A"	"56,5/43,5"	"61/47"	108	stress_12bis	"POPTR_0006s11920.1"	996	"	"A/G"	"50,0/50,0"	"7/7"	14
controllo_3	"POPTR_0006s11920.1"	996	"	"G/A"	"56,5/43,5"	"61/47"	108	stress_42	"POPTR_0006s11920.1"	996	"	"A/G"	"83,3/16,7"	"20/4"	24
controllo_3	"POPTR_0006s11920.1"	996	"	"G/A"	"56,5/43,5"	"61/47"	108	stress_45	"POPTR_0006s11920.1"	996	"	"A/G"	"62,5/37,5"	"25/15"	40
controllo_3	"POPTR_0006s16030.1"	243	"	"T/C"	"56,5/43,5"	"70/54"	124	stress_45	"POPTR_0006s16030.1"	243	"	"T/C"	"73,3/26,7"	"11/4"	15
controllo_3	"POPTR_0003s20870.1"	789	"	"T/G"	"56,5/43,5"	"61/47"	108	stress_12bis	"POPTR_0003s20870.1"	789	"	"T/G"	"69,2/30,8"	"18/8"	26
controllo_3	"POPTR_0003s20870.1"	789	"	"T/G"	"56,5/43,5"	"61/47"	108	stress_45	"POPTR_0003s20870.1"	789	"	"T/G"	"59,3/40,7"	"16/11"	27
controllo_3	"POPTR_0013s07180.1"	86	"	"C/A"	"56,5/43,5"	"83/64"	147	stress_12bis	"POPTR_0013s07180.1"	86	"	"C/A"	"65,9/34,1"	"29/15"	44
controllo_3	"POPTR_0013s07180.1"	86	"	"C/A"	"56,5/43,5"	"83/64"	147	stress_42	"POPTR_0013s07180.1"	86	"	"C/A"	"66,7/33,3"	"26/13"	39
controllo_3	"POPTR_0013s07180.1"	86	"	"C/A"	"56,5/43,5"	"83/64"	147	stress_45	"POPTR_0013s07180.1"	86	"	"C/A"	"67,9/32,1"	"36/17"	53
controllo_3	"POPTR_0014s01970.1"	462	"	"T/G"	"56,5/43,5"	"48/37"	85	stress_45	"POPTR_0014s01970.1"	462	"	"T/G"	"50,5/49,5"	"53/52"	105
controllo_3	"POPTR_0009s12420.1"	297	"	"T/C"	"56,5/43,5"	"70/54"	124	stress_12bis	"POPTR_0009s12420.1"	297	"	"T/C"	"75,5/24,5"	"40/13"	53
controllo_3	"POPTR_0009s12420.1"	297	"	"T/C"	"56,5/43,5"	"70/54"	124	stress_42	"POPTR_0009s12420.1"	297	"	"T/C"	"60,6/39,4"	"106/69"	175
controllo_3	"POPTR_0009s12420.1"	297	"	"T/C"	"56,5/43,5"	"70/54"	124	stress_45	"POPTR_0009s12420.1"	297	"	"T/C"	"62,0/38,0"	"119/73"	192
controllo_3	"POPTR_0009s12790.1"	549	"	"C/T"	"56,5/43,5"	"61/47"	108	stress_12bis	"POPTR_0009s12790.1"	549	"	"C/T"	"57,1/42,9"	"12/9"	21
controllo_3	"POPTR_0009s12790.1"	549	"	"C/T"	"56,5/43,5"	"61/47"	108	stress_42	"POPTR_0009s12790.1"	549	"	"T/C"	"51,2/48,8"	"21/20"	41
controllo_3	"POPTR_0009s12790.1"	549	"	"C/T"	"56,5/43,5"	"61/47"	108	stress_45	"POPTR_0009s12790.1"	549	"	"T/C"	"64,3/35,7"	"18/10"	28
controllo_3	"POPTR_0011s11390.1"	969	"	"G/T"	"56,5/43,5"	"867/668"	1535	stress_12bis	"POPTR_0011s11390.1"	969	"	"G/T"	"61,0/39,0"	"317/203"	520
controllo_3	"POPTR_0011s11390.1"	969	"	"G/T"	"56,5/43,5"	"867/668"	1535	stress_42	"POPTR_0011s11390.1"	969	"	"T/G"	"56,0/44,0"	"79/62"	141
controllo_3	"POPTR_0011s11390.1"	969	"	"G/T"	"56,5/43,5"	"867/668"	1535	stress_45	"POPTR_0011s11390.1"	969	"	"T/G"	"51,6/48,4"	"66/62"	128
controllo_3	"POPTR_0011s12440.1"	690	"	"G/A"	"56,5/43,5"	"126/97"	223	stress_12bis	"POPTR_0011s12440.1"	690	"	"G/A"	"62,4/37,6"	"73/44"	117
controllo_3	"POPTR_0011s12440.1"	690	"	"G/A"	"56,5/43,5"	"126/97"	223	stress_42	"POPTR_0011s12440.1"	690	"	"G/A"	"56,5/43,5"	"13/10"	23
controllo_3	"POPTR_0011s12440.1"	690	"	"G/A"	"56,5/43,5"	"126/97"	223	stress_45	"POPTR_0011s12440.1"	690	"	"G/A"	"67,5/32,5"	"27/13"	40
controllo_3	"POPTR_0015s09990.1"	439	"	"A/G"	"56,5/43,5"	"108/83"	191	stress_12bis	"POPTR_0015s09990.1"	439	"	"A/G"	"56,9/43,1"	"33/25"	58
controllo_3	"POPTR_0015s09990.1"	439	"	"A/G"	"56,5/43,5"	"108/83"	191	stress_42	"POPTR_0015s09990.1"	439	"	"A/G"	"63,6/36,4"	"7/4"	11
controllo_3	"POPTR_0015s09990.1"	439	"	"A/G"	"56,5/43,5"	"108/83"	191	stress_45	"POPTR_0015s09990.1"	439	"	"A/G"	"66,7/33,3"	"8/4"	12
controllo_3	"POPTR_0001s40250.1"	2745	"	"T/C"	"56,5/43,5"	"61/47"	108	stress_12bis	"POPTR_0001s40250.1"	2745	"	"T/C"	"63,6/36,4"	"21/12"	33
controllo_3	"POPTR_0001s40250.1"	2745	"	"T/C"	"56,5/43,5"	"61/47"	108	stress_42	"POPTR_0001s40250.1"	2745	"	"T/C"	"65,7/34,3"	"88/46"	134
controllo_3	"POPTR_0001s40250.1"	2745	"	"T/C"	"56,5/43,5"	"61/47"	108	stress_45	"POPTR_0001s40250.1"	2745	"	"T/C"	"78,3/21,7"	"217/60"	277
controllo_3	"POPTR_0001s07860.1"	821	"	"A/G"	"56,5/43,5"	"74/57"	131	stress_12bis	"POPTR_0001s07860.1"	821	"	"A/G"	"81,8/18,2"	"9/2"	11
controllo_3	"POPTR_0001s27480.1"	107	"	"C/T"	"56,5/43,5"	"65/50"	115	stress_12bis	"POPTR_0001s27480.1"	107	"	"C/T"	"50,0/50,0"	"10/10"	20
controllo_3	"POPTR_0001s27480.1"	107	"	"C/T"	"56,5/43,5"	"65/50"	115	stress_42	"POPTR_0001s27480.1"	107	"	"C/T"	"55,2/44,8"	"16/13"	29
controllo_3	"POPTR_0001s27480.1"	107	"	"C/T"	"56,5/43,5"	"65/50"	115	stress_45	"POPTR_0001s27480.1"	107	"	"C/T"	"59,4/40,6"	"41/28"	69
controllo_3	"POPTR_0001s25520.1"	559	"	"A/T"	"56,5/43,5"	"74/57"	131	stress_12bis	"POPTR_0001s25520.1"	559	"	"A/T"	"51,0/49,0"	"25/24"	49
controllo_3	"POPTR_0001s25520.1"	559	"	"A/T"	"56,5/43,5"	"74/57"	131	stress_42	"POPTR_0001s25520.1"	559	"	"T/A"	"55,6/44,4"	"20/16"	36
controllo_3	"POPTR_0001s25520.1"	559	"	"A/T"	"56,5/43,5"	"74/57"	131	stress_45	"POPTR_0001s25520.1"	559	"	"A/T"	"61,5/38,5"	"16/10"	26
controllo_3	"POPTR_0001s41780.1"	59	"	"G/A"	"56,5/43,5"	"147/113"	260	stress_12bis	"POPTR_0001s41780.1"	59	"	"A/G"	"50,0/50,0"	"15/15"	30
controllo_3	"POPTR_0001s41780.1"	59	"	"G/A"	"56,5/43,5"	"147/113"	260	stress_42	"POPTR_0001s41780.1"	59	"	"G/A"	"58,6/41,4"	"17/12"	29
controllo_3	"POPTR_0001s41780.1"	59	"	"G/A"	"56,5/43,5"	"147/113"	260	stress_45	"POPTR_0001s41780.1"	59	"	"G/A"	"52,2/47,8"	"12/11"	23
controllo_3	"POPTR_0001s36700.1"	915	"	"C/T"	"56,5/43,5"	"95/73"	168	stress_12bis	"POPTR_0001s36700.1"	915	"	"T/C"	"50,9/49,1"	"27/26"	53
controllo_3	"POPTR_0001s36700.1"	915	"	"C/T"	"56,5/43,5"	"95/73"	168	stress_42	"POPTR_0001s36700.1"	915	"	"T/C"	"53,8/46,2"	"21/18"	39
controllo_3	"POPTR_0001s36700.1"	915	"	"C/T"	"56,5/43,5"	"95/73"	168	stress_45	"POPTR_0001s36700.1"	915	"	"C/T"	"57,0/43,0"	"49/37"	86
controllo_3	"POPTR_0010s22610.1"	75	"	"G/A"	"56,5/43,5"	"91/70"	161	stress_12bis	"POPTR_0010s22610.1"	75	"	"A/G"	"52,3/47,7"	"23/21"	44
controllo_3	"POPTR_0010s22610.1"	75	"	"G/A"	"56,5/43,5"	"91/70"	161	stress_42	"POPTR_0010s22610.1"	75	"	"A/G"	"51,9/48,1"	"40/37"	77
controllo_3	"POPTR_0010s22610.1"	75	"	"G/A"	"56,5/43,5"	"91/70"	161	stress_45	"POPTR_0010s22610.1"	75	"	"G/A"	"57,6/42,4"	"76/56"	132
controllo_3	"POPTR_0007s09630.1"	762	"	"A/G"	"56,5/43,5"	"301/232"	533	stress_12bis	"POPTR_0007s09630.1"	762	"	"A/G"	"60,7/39,3"	"74/48"	122
controllo_3	"POPTR_0007s09630.1"	762	"	"A/G"	"56,5/43,5"	"301/232"	533	stress_42	"POPTR_0007s09630.1"	762	"	"G/A"	"56,5/43,5"	"13/10"	23
controllo_3	"POPTR_0007s09630.1"	762	"	"A/G"	"56,5/43,5"	"301/232"	533	stress_45	"POPTR_0007s09630.1"	762	"	"A/G"	"61,5/38,5"	"24/15"	39
controllo_3	"POPTR_0007s14390.1"	1023	"	"C/T"	"56,5/43,5"	"134/103"	237	stress_12bis	"POPTR_0007s14390.1"	1023	"	"C/T"	"55,0/45,0"	"33/27"	60
controllo_3	"POPTR_0007s14390.1"	1023	"	"C/T"	"56,5/43,5"	"134/103"	237	stress_42	"POPTR_0007s14390.1"	1023	"	"C/T"	"51,2/48,8"	"22/21"	43
controllo_3	"POPTR_0007s14390.1"	1023	"	"C/T"	"56,5/43,5"	"134/103"	237	stress_45	"POPTR_0007s14390.1"	1023	"	"T/C"	"56,0/44,0"	"28/22"	50
controllo_3	"POPTR_0002s15600.1"	168	"	"A/G"	"56,5/43,5"	"95/73"	168	stress_12bis	"POPTR_0002s15600.1"	168	"	"A/G"	"56,8/43,2"	"21/16"	37
controllo_3	"POPTR_0002s15600.1"	168	"	"A/G"	"56,5/43,5"	"95/73"	168	stress_42	"POPTR_0002s15600.1"	168	"	"G/A"	"61,9/38,1"	"13/8"	21
controllo_3	"POPTR_0002s15600.1"	168	"	"A/G"	"56,5/43,5"	"95/73"	168	stress_45	"POPTR_0002s15600.1"	168	"	"A/G"	"54,3/45,7"	"19/16"	35
controllo_3	"POPTR_0008s11320.1"	197	"	"C/A"	"56,5/43,5"	"74/57"	131	stress_12bis	"POPTR_0008s11320.1"	197	"	"A/C"	"50,0/50,0"	"16/16"	32
controllo_3	"POPTR_0016s10710.1"	804	"	"C/T"	"56,5/43,5"	"70/54"	124	stress_12bis	"POPTR_0016s10710.1"	804	"	"C/T"	"71,4/28,6"	"20/8"	28
controllo_3	"POPTR_0016s10710.1"	804	"	"C/T"	"56,5/43,5"	"70/54"	124	stress_45	"POPTR_0016s10710.1"	804	"	"C/T"	"60,0/40,0"	"6/4"	10
controllo_3	"POPTR_0001s01930.1"	161	"	"C/T"	"56,6/42,5"	"60/45"	106	stress_12bis	"POPTR_0001s01930.1"	161	"	"C/T"	"61,9/38,1"	"13/8"	21
controllo_3	"POPTR_0001s01930.1"	161	"	"C/T"	"56,6/42,5"	"60/45"	106	stress_42	"POPTR_0001s01930.1"	161	"	"T/C"	"63,6/36,4"	"7/4"	11
controllo_3	"POPTR_0001s01930.1"	161	"	"C/T"	"56,6/42,5"	"60/45"	106	stress_45	"POPTR_0001s01930.1"	161	"	"C/T"	"54,2/45,8"	"13/11"	24
controllo_3	"POPTR_0005s11500.1"	218	"	"T/A"	"56,6/43,4"	"472/362"	834	stress_12bis	"POPTR_0005s11500.1"	218	"	"A/T"	"51,9/48,1"	"136/126"	262
controllo_3	"POPTR_0005s11500.1"	218	"	"T/A"	"56,6/43,4"	"472/362"	834	stress_42	"POPTR_0005s11500.1"	218	"	"T/A"	"57,1/42,9"	"40/30"	70
controllo_3	"POPTR_0005s11500.1"	218	"	"T/A"	"56,6/43,4"	"472/362"	834	stress_45	"POPTR_0005s11500.1"	218	"	"T/A"	"60,8/39,2"	"62/40"	102
controllo_3	"POPTR_0017s06920.1"	168	"	"C/G"	"56,6/43,4"	"245/188"	433	stress_12bis	"POPTR_0017s06920.1"	168	"	"C/G"	"58,0/42,0"	"91/66"	157
controllo_3	"POPTR_0006s28350.1"	984	"	"T/C"	"56,6/43,4"	"90/69"	159	stress_12bis	"POPTR_0006s28350.1"	984	"	"T/C"	"54,2/45,8"	"13/11"	24
controllo_3	"POPTR_0006s28350.1"	984	"	"T/C"	"56,6/43,4"	"90/69"	159	stress_42	"POPTR_0006s28350.1"	984	"	"T/C"	"63,6/36,4"	"7/4"	11
controllo_3	"POPTR_0006s28350.1"	984	"	"T/C"	"56,6/43,4"	"90/69"	159	stress_45	"POPTR_0006s28350.1"	984	"	"T/C"	"76,2/23,8"	"16/5"	21
controllo_3	"POPTR_0013s10250.1"	255	"	"A/G"	"56,6/43,4"	"235/180"	415	stress_12bis	"POPTR_0013s10250.1"	255	"	"A/G"	"62,2/37,8"	"112/68"	180
controllo_3	"POPTR_0013s10250.1"	255	"	"A/G"	"56,6/43,4"	"235/180"	415	stress_42	"POPTR_0013s10250.1"	255	"	"G/A"	"52,9/47,1"	"37/33"	70
controllo_3	"POPTR_0013s10250.1"	255	"	"A/G"	"56,6/43,4"	"235/180"	415	stress_45	"POPTR_0013s10250.1"	255	"	"G/A"	"63,4/36,6"	"52/30"	82
controllo_3	"POPTR_0014s09800.1"	297	"	"C/G"	"56,6/43,4"	"111/85"	196	stress_12bis	"POPTR_0014s09800.1"	297	"	"C/G"	"62,9/37,1"	"44/26"	70
controllo_3	"POPTR_0014s09800.1"	297	"	"C/G"	"56,6/43,4"	"111/85"	196	stress_42	"POPTR_0014s09800.1"	297	"	"C/G"	"62,5/37,5"	"10/6"	16
controllo_3	"POPTR_0014s09800.1"	297	"	"C/G"	"56,6/43,4"	"111/85"	196	stress_45	"POPTR_0014s09800.1"	297	"	"C/G"	"71,9/28,1"	"23/9"	32
controllo_3	"POPTR_0004s01510.1"	571	"	"C/G"	"56,6/43,4"	"373/286"	659	stress_12bis	"POPTR_0004s01510.1"	571	"	"C/G"	"77,5/22,5"	"31/9"	40
controllo_3	"POPTR_0004s18190.1"	21	"	"T/A"	"56,6/43,4"	"137/105"	242	stress_12bis	"POPTR_0004s18190.1"	21	"	"A/T"	"50,0/50,0"	"51/51"	102
controllo_3	"POPTR_0004s18190.1"	21	"	"T/A"	"56,6/43,4"	"137/105"	242	stress_42	"POPTR_0004s18190.1"	21	"	"T/A"	"52,6/47,4"	"10/9"	19
controllo_3	"POPTR_0004s18190.1"	21	"	"T/A"	"56,6/43,4"	"137/105"	242	stress_45	"POPTR_0004s18190.1"	21	"	"T/A"	"52,4/47,6"	"11/10"	21
controllo_3	"POPTR_0009s11480.1"	1344	"	"G/C"	"56,6/43,4"	"112/86"	198	stress_12bis	"POPTR_0009s11480.1"	1344	"	"G/C"	"54,9/45,1"	"50/41"	91
controllo_3	"POPTR_0009s11480.1"	1344	"	"G/C"	"56,6/43,4"	"112/86"	198	stress_42	"POPTR_0009s11480.1"	1344	"	"G/C"	"68,4/31,6"	"13/6"	19
controllo_3	"POPTR_0009s11480.1"	1344	"	"G/C"	"56,6/43,4"	"112/86"	198	stress_45	"POPTR_0009s11480.1"	1344	"	"G/C"	"64,9/35,1"	"24/13"	37
controllo_3	"POPTR_0009s11920.1"	30	"	"C/T"	"56,6/43,4"	"94/72"	166	stress_12bis	"POPTR_0009s11920.1"	30	"	"T/C"	"55,3/44,7"	"21/17"	38
controllo_3	"POPTR_0009s11920.1"	30	"	"C/T"	"56,6/43,4"	"94/72"	166	stress_42	"POPTR_0009s11920.1"	30	"	"C/T"	"56,6/43,4"	"30/23"	53
controllo_3	"POPTR_0009s11920.1"	30	"	"C/T"	"56,6/43,4"	"94/72"	166	stress_45	"POPTR_0009s11920.1"	30	"	"T/C"	"57,4/42,6"	"58/43"	101
controllo_3	"POPTR_0009s05850.1"	33	"	"C/G"	"56,6/43,4"	"64/49"	113	stress_12bis	"POPTR_0009s05850.1"	33	"	"C/G"	"50,0/50,0"	"11/11"	22
controllo_3	"POPTR_0009s05850.1"	33	"	"C/G"	"56,6/43,4"	"64/49"	113	stress_42	"POPTR_0009s05850.1"	33	"	"C/G"	"50,0/50,0"	"7/7"	14
controllo_3	"POPTR_0009s05850.1"	33	"	"C/G"	"56,6/43,4"	"64/49"	113	stress_45	"POPTR_0009s05850.1"	33	"	"C/G"	"50,9/49,1"	"27/26"	53
controllo_3	"POPTR_0001s25760.1"	630	"	"T/C"	"56,6/43,4"	"98/75"	173	stress_12bis	"POPTR_0001s25760.1"	630	"	"T/C"	"69,7/30,3"	"23/10"	33
controllo_3	"POPTR_0001s25760.1"	630	"	"T/C"	"56,6/43,4"	"98/75"	173	stress_42	"POPTR_0001s25760.1"	630	"	"C/T"	"50,0/50,0"	"7/7"	14
controllo_3	"POPTR_0001s25760.1"	630	"	"T/C"	"56,6/43,4"	"98/75"	173	stress_45	"POPTR_0001s25760.1"	630	"	"T/C"	"70,4/29,6"	"19/8"	27
controllo_3	"POPTR_0001s14310.1"	564	"	"T/C"	"56,6/43,4"	"155/119"	274	stress_12bis	"POPTR_0001s14310.1"	564	"	"T/C"	"75,9/24,1"	"22/7"	29
controllo_3	"POPTR_0001s14310.1"	564	"	"T/C"	"56,6/43,4"	"155/119"	274	stress_42	"POPTR_0001s14310.1"	564	"	"C/T"	"63,4/36,6"	"26/15"	41
controllo_3	"POPTR_0001s14310.1"	564	"	"T/C"	"56,6/43,4"	"155/119"	274	stress_45	"POPTR_0001s14310.1"	564	"	"T/C"	"54,8/45,2"	"86/71"	157
controllo_3	"POPTR_0001s44110.1"	516	"	"C/T"	"56,6/43,4"	"64/49"	113	stress_12bis	"POPTR_0001s44110.1"	516	"	"C/T"	"53,8/46,2"	"14/12"	26
controllo_3	"POPTR_0001s44110.1"	516	"	"C/T"	"56,6/43,4"	"64/49"	113	stress_45	"POPTR_0001s44110.1"	516	"	"T/C"	"60,0/40,0"	"6/4"	10
controllo_3	"POPTR_0010s25500.1"	205	"	"G/A"	"56,6/43,4"	"159/122"	281	stress_12bis	"POPTR_0010s25500.1"	205	"	"A/G"	"53,2/46,8"	"33/29"	62
controllo_3	"POPTR_0010s25500.1"	205	"	"G/A"	"56,6/43,4"	"159/122"	281	stress_42	"POPTR_0010s25500.1"	205	"	"G/A"	"53,3/46,7"	"8/7"	15
controllo_3	"POPTR_0010s25500.1"	205	"	"G/A"	"56,6/43,4"	"159/122"	281	stress_45	"POPTR_0010s25500.1"	205	"	"A/G"	"69,6/30,4"	"16/7"	23
controllo_3	"POPTR_0007s10980.1"	1179	"	"C/T"	"56,6/43,4"	"168/129"	297	stress_12bis	"POPTR_0007s10980.1"	1179	"	"C/T"	"51,9/48,1"	"40/37"	77
controllo_3	"POPTR_0007s10980.1"	1179	"	"C/T"	"56,6/43,4"	"168/129"	297	stress_45	"POPTR_0007s10980.1"	1179	"	"C/T"	"61,5/38,5"	"16/10"	26
controllo_3	"POPTR_0002s05650.1"	435	"	"T/C"	"56,6/43,4"	"64/49"	113	stress_12bis	"POPTR_0002s05650.1"	435	"	"C/T"	"52,4/47,6"	"11/10"	21
controllo_3	"POPTR_0002s05650.1"	435	"	"T/C"	"56,6/43,4"	"64/49"	113	stress_42	"POPTR_0002s05650.1"	435	"	"T/C"	"57,1/42,9"	"12/9"	21
controllo_3	"POPTR_0002s05650.1"	435	"	"T/C"	"56,6/43,4"	"64/49"	113	stress_45	"POPTR_0002s05650.1"	435	"	"C/T"	"62,9/37,1"	"22/13"	35
controllo_3	"POPTR_0002s05780.1"	1077	"	"G/A"	"56,6/43,4"	"94/72"	166	stress_12bis	"POPTR_0002s05780.1"	1077	"	"G/A"	"81,8/18,2"	"9/2"	11
controllo_3	"POPTR_0002s05780.1"	1077	"	"G/A"	"56,6/43,4"	"94/72"	166	stress_42	"POPTR_0002s05780.1"	1077	"	"G/A"	"59,1/40,9"	"13/9"	22
controllo_3	"POPTR_0002s05780.1"	1077	"	"G/A"	"56,6/43,4"	"94/72"	166	stress_45	"POPTR_0002s05780.1"	1077	"	"A/G"	"66,7/33,3"	"10/5"	15
controllo_3	"POPTR_0008s10020.1"	162	"	"C/T"	"56,6/43,4"	"120/92"	212	stress_12bis	"POPTR_0008s10020.1"	162	"	"C/T"	"61,2/38,8"	"30/19"	49
controllo_3	"POPTR_0008s10020.1"	162	"	"C/T"	"56,6/43,4"	"120/92"	212	stress_42	"POPTR_0008s10020.1"	162	"	"C/T"	"57,9/42,1"	"11/8"	19
controllo_3	"POPTR_0008s10020.1"	162	"	"C/T"	"56,6/43,4"	"120/92"	212	stress_45	"POPTR_0008s10020.1"	162	"	"C/T"	"60,0/40,0"	"27/18"	45
controllo_3	"POPTR_0016s09190.1"	478	"	"A/G"	"56,6/43,4"	"81/62"	143	stress_12bis	"POPTR_0016s09190.1"	478	"	"A/G"	"57,8/42,2"	"26/19"	45
controllo_3	"POPTR_0016s09190.1"	478	"	"A/G"	"56,6/43,4"	"81/62"	143	stress_42	"POPTR_0016s09190.1"	478	"	"A/G"	"73,3/26,7"	"11/4"	15
controllo_3	"POPTR_0016s09190.1"	478	"	"A/G"	"56,6/43,4"	"81/62"	143	stress_45	"POPTR_0016s09190.1"	478	"	"G/A"	"52,3/47,7"	"23/21"	44
controllo_3	"POPTR_0016s03980.1"	402	"	"G/A"	"56,6/43,4"	"73/56"	129	stress_12bis	"POPTR_0016s03980.1"	402	"	"G/A"	"51,5/48,5"	"17/16"	33
controllo_3	"POPTR_0016s03980.1"	402	"	"G/A"	"56,6/43,4"	"73/56"	129	stress_45	"POPTR_0016s03980.1"	402	"	"A/G"	"50,0/50,0"	"5/5"	10
controllo_3	"POPTR_0004s04550.1"	765	"	"C/T"	"56,7/41,8"	"80/59"	141	stress_12bis	"POPTR_0004s04550.1"	765	"	"T/C"	"50,9/49,1"	"27/26"	53
controllo_3	"POPTR_0004s04550.1"	765	"	"C/T"	"56,7/41,8"	"80/59"	141	stress_42	"POPTR_0004s04550.1"	765	"	"C/T"	"55,0/45,0"	"11/9"	20
controllo_3	"POPTR_0004s04550.1"	765	"	"C/T"	"56,7/41,8"	"80/59"	141	stress_45	"POPTR_0004s04550.1"	765	"	"T/C"	"55,9/44,1"	"19/15"	34
controllo_3	"POPTR_0014s11480.1"	219	"	"C/T"	"56,7/42,3"	"59/44"	104	stress_12bis	"POPTR_0014s11480.1"	219	"	"C/T"	"52,4/47,6"	"22/20"	42
controllo_3	"POPTR_0014s11480.1"	219	"	"C/T"	"56,7/42,3"	"59/44"	104	stress_42	"POPTR_0014s11480.1"	219	"	"T/C"	"56,5/43,5"	"13/10"	23
controllo_3	"POPTR_0014s11480.1"	219	"	"C/T"	"56,7/42,3"	"59/44"	104	stress_45	"POPTR_0014s11480.1"	219	"	"C/T"	"84,2/15,8"	"16/3"	19
controllo_3	"POPTR_0017s00850.1"	162	"	"T/C"	"56,7/42,5"	"76/57"	134	stress_12bis	"POPTR_0017s00850.1"	162	"	"T/C"	"78,9/21,1"	"15/4"	19
controllo_3	"POPTR_0017s00850.1"	162	"	"T/C"	"56,7/42,5"	"76/57"	134	stress_42	"POPTR_0017s00850.1"	162	"	"C/T"	"50,0/50,0"	"35/35"	70
controllo_3	"POPTR_0017s00850.1"	162	"	"T/C"	"56,7/42,5"	"76/57"	134	stress_45	"POPTR_0017s00850.1"	162	"	"T/C"	"53,1/46,9"	"51/45"	96
controllo_3	"POPTR_0021s00380.1"	699	"	"C/A"	"56,7/42,8"	"314/237"	554	stress_12bis	"POPTR_0021s00380.1"	699	"	"C/A"	"64,8/35,2"	"107/58"	165
controllo_3	"POPTR_0021s00380.1"	699	"	"C/A"	"56,7/42,8"	"314/237"	554	stress_42	"POPTR_0021s00380.1"	699	"	"C/A"	"61,5/38,5"	"8/5"	13
controllo_3	"POPTR_0021s00380.1"	699	"	"C/A"	"56,7/42,8"	"314/237"	554	stress_45	"POPTR_0021s00380.1"	699	"	"A/C"	"50,0/50,0"	"12/12"	24
controllo_3	"POPTR_0006s10130.1"	510	"	"C/G"	"56,7/43,2"	"610/464"	1075	stress_12bis	"POPTR_0006s10130.1"	510	"	"C/G"	"65,2/34,8"	"90/48"	138
controllo_3	"POPTR_0006s10130.1"	510	"	"C/G"	"56,7/43,2"	"610/464"	1075	stress_42	"POPTR_0006s10130.1"	510	"	"C/G"	"52,7/47,3"	"49/44"	93
controllo_3	"POPTR_0006s10130.1"	510	"	"C/G"	"56,7/43,2"	"610/464"	1075	stress_45	"POPTR_0006s10130.1"	510	"	"C/G"	"57,2/42,8"	"87/65"	152
controllo_3	"POPTR_0003s12160.1"	201	"	"T/C"	"56,7/43,2"	"379/289"	669	stress_12bis	"POPTR_0003s12160.1"	201	"	"C/T"	"50,4/49,6"	"126/124"	250
controllo_3	"POPTR_0003s12160.1"	201	"	"T/C"	"56,7/43,2"	"379/289"	669	stress_42	"POPTR_0003s12160.1"	201	"	"C/T"	"62,1/37,9"	"36/22"	58
controllo_3	"POPTR_0003s12160.1"	201	"	"T/C"	"56,7/43,2"	"379/289"	669	stress_45	"POPTR_0003s12160.1"	201	"	"T/C"	"55,3/44,7"	"57/46"	103
controllo_3	"POPTR_0004s03160.1"	613	"	"C/T"	"56,7/43,2"	"531/404"	936	stress_12bis	"POPTR_0004s03160.1"	613	"	"T/C"	"58,8/41,2"	"114/80"	194
controllo_3	"POPTR_0004s03160.1"	613	"	"C/T"	"56,7/43,2"	"531/404"	936	stress_42	"POPTR_0004s03160.1"	613	"	"T/C"	"51,7/48,3"	"15/14"	29
controllo_3	"POPTR_0004s03160.1"	613	"	"C/T"	"56,7/43,2"	"531/404"	936	stress_45	"POPTR_0004s03160.1"	613	"	"T/C"	"66,7/33,3"	"16/8"	24
controllo_3	"POPTR_0008s19370.1"	912	"	"T/C"	"56,7/43,2"	"784/597"	1382	stress_12bis	"POPTR_0008s19370.1"	912	"	"T/C"	"59,9/40,1"	"455/304"	759
controllo_3	"POPTR_0008s19370.1"	912	"	"T/C"	"56,7/43,2"	"784/597"	1382	stress_42	"POPTR_0008s19370.1"	912	"	"T/C"	"74,2/25,8"	"46/16"	62
controllo_3	"POPTR_0008s19370.1"	912	"	"T/C"	"56,7/43,2"	"784/597"	1382	stress_45	"POPTR_0008s19370.1"	912	"	"T/C"	"83,3/16,7"	"30/6"	36
controllo_3	"POPTR_0017s12590.1"	1155	"	"T/C"	"56,7/43,3"	"68/52"	120	stress_12bis	"POPTR_0017s12590.1"	1155	"	"C/T"	"53,8/46,2"	"21/18"	39
controllo_3	"POPTR_0006s06740.1"	524	"	"G/A"	"56,7/43,3"	"101/77"	178	stress_12bis	"POPTR_0006s06740.1"	524	"	"A/G"	"70,0/30,0"	"7/3"	10
controllo_3	"POPTR_0006s22950.1"	71	"	"T/A"	"56,7/43,3"	"156/119"	275	stress_12bis	"POPTR_0006s22950.1"	71	"	"T/A"	"61,5/38,5"	"40/25"	65
controllo_3	"POPTR_0006s22950.1"	71	"	"T/A"	"56,7/43,3"	"156/119"	275	stress_45	"POPTR_0006s22950.1"	71	"	"A/T"	"51,4/48,6"	"19/18"	37
controllo_3	"POPTR_0006s05160.1"	80	"	"A/G"	"56,7/43,3"	"101/77"	178	stress_12bis	"POPTR_0006s05160.1"	80	"	"G/A"	"52,9/47,1"	"37/33"	70
controllo_3	"POPTR_0006s05160.1"	80	"	"A/G"	"56,7/43,3"	"101/77"	178	stress_42	"POPTR_0006s05160.1"	80	"	"G/A"	"54,5/45,5"	"6/5"	11
controllo_3	"POPTR_0006s05160.1"	80	"	"A/G"	"56,7/43,3"	"101/77"	178	stress_45	"POPTR_0006s05160.1"	80	"	"A/G"	"51,7/48,3"	"15/14"	29
controllo_3	"POPTR_0018s12270.1"	136	"	"T/C"	"56,7/43,3"	"38/29"	67	stress_12bis	"POPTR_0018s12270.1"	136	"	"T/C"	"72,5/27,5"	"203/77"	280
controllo_3	"POPTR_0018s12270.1"	136	"	"T/C"	"56,7/43,3"	"38/29"	67	stress_42	"POPTR_0018s12270.1"	136	"	"T/C"	"69,9/30,1"	"102/44"	146
controllo_3	"POPTR_0018s12270.1"	136	"	"T/C"	"56,7/43,3"	"38/29"	67	stress_45	"POPTR_0018s12270.1"	136	"	"T/C"	"67,4/32,6"	"87/42"	129
controllo_3	"POPTR_0003s09860.1"	231	"	"A/G"	"56,7/43,3"	"85/65"	150	stress_12bis	"POPTR_0003s09860.1"	231	"	"A/G"	"66,7/33,3"	"18/9"	27
controllo_3	"POPTR_0003s09860.1"	231	"	"A/G"	"56,7/43,3"	"85/65"	150	stress_45	"POPTR_0003s09860.1"	231	"	"A/G"	"68,8/31,2"	"11/5"	16
controllo_3	"POPTR_0022s00530.1"	1179	"	"C/T"	"56,7/43,3"	"80/61"	141	stress_12bis	"POPTR_0022s00530.1"	1179	"	"C/T"	"56,2/40,6"	"18/13"	32
controllo_3	"POPTR_0022s00530.1"	1179	"	"C/T"	"56,7/43,3"	"80/61"	141	stress_42	"POPTR_0022s00530.1"	1179	"	"C/T"	"56,2/43,8"	"9/7"	16
controllo_3	"POPTR_0022s00530.1"	1179	"	"C/T"	"56,7/43,3"	"80/61"	141	stress_45	"POPTR_0022s00530.1"	1179	"	"T/C"	"61,1/38,9"	"22/14"	36
controllo_3	"POPTR_0022s00530.1"	2022	"	"A/T"	"56,7/43,3"	"106/81"	187	stress_12bis	"POPTR_0022s00530.1"	2022	"	"T/A"	"61,5/38,5"	"24/15"	39
controllo_3	"POPTR_0022s00530.1"	2022	"	"A/T"	"56,7/43,3"	"106/81"	187	stress_42	"POPTR_0022s00530.1"	2022	"	"A/T"	"51,5/48,5"	"17/16"	33
controllo_3	"POPTR_0022s00530.1"	2022	"	"A/T"	"56,7/43,3"	"106/81"	187	stress_45	"POPTR_0022s00530.1"	2022	"	"T/A"	"53,8/46,2"	"28/24"	52
controllo_3	"POPTR_0013s04210.1"	1146	"	"A/G"	"56,7/43,3"	"80/61"	141	stress_12bis	"POPTR_0013s04210.1"	1146	"	"G/A"	"61,4/38,6"	"27/17"	44
controllo_3	"POPTR_0013s04210.1"	1146	"	"A/G"	"56,7/43,3"	"80/61"	141	stress_45	"POPTR_0013s04210.1"	1146	"	"A/G"	"70,4/29,6"	"19/8"	27
controllo_3	"POPTR_0014s12470.1"	99	"	"T/C"	"56,7/43,3"	"59/45"	104	stress_12bis	"POPTR_0014s12470.1"	99	"	"T/C"	"52,9/47,1"	"18/16"	34
controllo_3	"POPTR_0014s12470.1"	99	"	"T/C"	"56,7/43,3"	"59/45"	104	stress_42	"POPTR_0014s12470.1"	99	"	"C/T"	"69,4/30,6"	"25/11"	36
controllo_3	"POPTR_0014s12470.1"	99	"	"T/C"	"56,7/43,3"	"59/45"	104	stress_45	"POPTR_0014s12470.1"	99	"	"C/T"	"66,7/33,3"	"24/12"	36
controllo_3	"POPTR_0014s13430.1"	1074	"	"T/C"	"56,7/43,3"	"148/113"	261	stress_12bis	"POPTR_0014s13430.1"	1074	"	"C/T"	"63,9/36,1"	"39/22"	61
controllo_3	"POPTR_0014s13430.1"	1074	"	"T/C"	"56,7/43,3"	"148/113"	261	stress_42	"POPTR_0014s13430.1"	1074	"	"T/C"	"76,9/23,1"	"10/3"	13
controllo_3	"POPTR_0014s13430.1"	1074	"	"T/C"	"56,7/43,3"	"148/113"	261	stress_45	"POPTR_0014s13430.1"	1074	"	"T/C"	"65,2/34,8"	"15/8"	23
controllo_3	"POPTR_0014s11040.1"	138	"	"T/C"	"56,7/43,3"	"115/88"	203	stress_12bis	"POPTR_0014s11040.1"	138	"	"C/T"	"60,9/39,1"	"39/25"	64
controllo_3	"POPTR_0014s11040.1"	138	"	"T/C"	"56,7/43,3"	"115/88"	203	stress_42	"POPTR_0014s11040.1"	138	"	"C/T"	"63,5/36,5"	"40/23"	63
controllo_3	"POPTR_0014s11040.1"	138	"	"T/C"	"56,7/43,3"	"115/88"	203	stress_45	"POPTR_0014s11040.1"	138	"	"C/T"	"50,0/50,0"	"59/59"	118
controllo_3	"POPTR_0014s06370.1"	330	"	"T/C"	"56,7/43,3"	"106/81"	187	stress_12bis	"POPTR_0014s06370.1"	330	"	"C/T"	"50,0/50,0"	"34/34"	68
controllo_3	"POPTR_0014s06370.1"	330	"	"T/C"	"56,7/43,3"	"106/81"	187	stress_42	"POPTR_0014s06370.1"	330	"	"T/C"	"51,3/48,7"	"20/19"	39
controllo_3	"POPTR_0014s06370.1"	330	"	"T/C"	"56,7/43,3"	"106/81"	187	stress_45	"POPTR_0014s06370.1"	330	"	"C/T"	"54,2/45,8"	"39/33"	72
controllo_3	"POPTR_0004s01660.1"	74	"	"G/A"	"56,7/43,3"	"122/93"	215	stress_12bis	"POPTR_0004s01660.1"	74	"	"A/G"	"53,4/46,6"	"31/27"	58
controllo_3	"POPTR_0004s01660.1"	74	"	"G/A"	"56,7/43,3"	"122/93"	215	stress_42	"POPTR_0004s01660.1"	74	"	"G/A"	"81,8/18,2"	"9/2"	11
controllo_3	"POPTR_0004s01660.1"	74	"	"G/A"	"56,7/43,3"	"122/93"	215	stress_45	"POPTR_0004s01660.1"	74	"	"A/G"	"51,9/48,1"	"14/13"	27
controllo_3	"POPTR_0004s01220.1"	753	"	"A/G"	"56,7/43,3"	"264/202"	466	stress_12bis	"POPTR_0004s01220.1"	753	"	"A/G"	"56,4/43,6"	"31/24"	55
controllo_3	"POPTR_0004s01220.1"	753	"	"A/G"	"56,7/43,3"	"264/202"	466	stress_45	"POPTR_0004s01220.1"	753	"	"G/A"	"66,7/33,3"	"10/5"	15
controllo_3	"POPTR_0009s05790.1"	617	"	"C/T"	"56,7/43,3"	"59/45"	104	stress_12bis	"POPTR_0009s05790.1"	617	"	"T/C"	"60,0/40,0"	"9/6"	15
controllo_3	"POPTR_0009s01470.1"	994	"	"A/G"	"56,7/43,3"	"97/74"	171	stress_12bis	"POPTR_0009s01470.1"	994	"	"A/G"	"65,6/34,4"	"42/22"	64
controllo_3	"POPTR_0009s01470.1"	994	"	"A/G"	"56,7/43,3"	"97/74"	171	stress_42	"POPTR_0009s01470.1"	994	"	"A/G"	"60,0/40,0"	"12/8"	20
controllo_3	"POPTR_0009s01470.1"	994	"	"A/G"	"56,7/43,3"	"97/74"	171	stress_45	"POPTR_0009s01470.1"	994	"	"G/A"	"59,2/40,8"	"29/20"	49
controllo_3	"POPTR_0001s34410.1"	115	"	"A/G"	"56,7/43,3"	"80/61"	141	stress_12bis	"POPTR_0001s34410.1"	115	"	"G/A"	"57,6/42,4"	"19/14"	33
controllo_3	"POPTR_0001s34410.1"	115	"	"A/G"	"56,7/43,3"	"80/61"	141	stress_42	"POPTR_0001s34410.1"	115	"	"G/A"	"55,0/45,0"	"11/9"	20
controllo_3	"POPTR_0001s34410.1"	115	"	"A/G"	"56,7/43,3"	"80/61"	141	stress_45	"POPTR_0001s34410.1"	115	"	"A/G"	"51,7/48,3"	"15/14"	29
controllo_3	"POPTR_0001s34410.1"	159	"	"C/T"	"56,7/43,3"	"85/65"	150	stress_12bis	"POPTR_0001s34410.1"	159	"	"T/C"	"51,7/48,3"	"15/14"	29
controllo_3	"POPTR_0001s34410.1"	159	"	"C/T"	"56,7/43,3"	"85/65"	150	stress_42	"POPTR_0001s34410.1"	159	"	"T/C"	"57,1/42,9"	"12/9"	21
controllo_3	"POPTR_0001s34410.1"	159	"	"C/T"	"56,7/43,3"	"85/65"	150	stress_45	"POPTR_0001s34410.1"	159	"	"C/T"	"75,0/25,0"	"18/6"	24
controllo_3	"POPTR_0001s38810.1"	62	"	"A/G"	"56,7/43,3"	"391/299"	690	stress_12bis	"POPTR_0001s38810.1"	62	"	"A/G"	"62,3/37,2"	"114/68"	183
controllo_3	"POPTR_0001s38810.1"	62	"	"A/G"	"56,7/43,3"	"391/299"	690	stress_42	"POPTR_0001s38810.1"	62	"	"G/A"	"62,0/38,0"	"106/65"	171
controllo_3	"POPTR_0001s38810.1"	62	"	"A/G"	"56,7/43,3"	"391/299"	690	stress_45	"POPTR_0001s38810.1"	62	"	"G/A"	"60,1/39,9"	"169/112"	281
controllo_3	"POPTR_0010s20810.1"	225	"	"C/T"	"56,7/43,3"	"2015/1538"	3553	stress_12bis	"POPTR_0010s20810.1"	225	"	"C/T"	"52,8/47,2"	"667/597"	1264
controllo_3	"POPTR_0010s20810.1"	225	"	"C/T"	"56,7/43,3"	"2015/1538"	3553	stress_42	"POPTR_0010s20810.1"	225	"	"T/C"	"61,2/38,8"	"49/31"	80
controllo_3	"POPTR_0010s20810.1"	225	"	"C/T"	"56,7/43,3"	"2015/1538"	3553	stress_45	"POPTR_0010s20810.1"	225	"	"T/C"	"62,7/37,3"	"52/31"	83
controllo_3	"POPTR_0007s06620.1"	263	"	"A/G"	"56,7/43,3"	"115/88"	203	stress_12bis	"POPTR_0007s06620.1"	263	"	"G/A"	"51,4/48,6"	"18/17"	35
controllo_3	"POPTR_0007s06620.1"	263	"	"A/G"	"56,7/43,3"	"115/88"	203	stress_45	"POPTR_0007s06620.1"	263	"	"G/A"	"61,5/38,5"	"8/5"	13
controllo_3	"POPTR_0007s06620.1"	1689	"	"C/T"	"56,7/43,3"	"123/94"	217	stress_12bis	"POPTR_0007s06620.1"	1689	"	"C/T"	"62,7/37,3"	"37/22"	59
controllo_3	"POPTR_0007s06620.1"	1689	"	"C/T"	"56,7/43,3"	"123/94"	217	stress_42	"POPTR_0007s06620.1"	1689	"	"T/C"	"58,3/41,7"	"7/5"	12
controllo_3	"POPTR_0007s06620.1"	1689	"	"C/T"	"56,7/43,3"	"123/94"	217	stress_45	"POPTR_0007s06620.1"	1689	"	"T/C"	"56,2/43,8"	"9/7"	16
controllo_3	"POPTR_0002s15600.1"	345	"	"T/C"	"56,7/43,3"	"93/71"	164	stress_12bis	"POPTR_0002s15600.1"	345	"	"T/C"	"51,2/48,8"	"22/21"	43
controllo_3	"POPTR_0002s15600.1"	345	"	"T/C"	"56,7/43,3"	"93/71"	164	stress_42	"POPTR_0002s15600.1"	345	"	"T/C"	"64,7/35,3"	"11/6"	17
controllo_3	"POPTR_0002s15600.1"	345	"	"T/C"	"56,7/43,3"	"93/71"	164	stress_45	"POPTR_0002s15600.1"	345	"	"T/C"	"53,6/46,4"	"15/13"	28
controllo_3	"POPTR_0002s14730.1"	1950	"	"G/A"	"56,7/43,3"	"432/330"	762	stress_12bis	"POPTR_0002s14730.1"	1950	"	"G/A"	"53,4/46,6"	"118/103"	221
controllo_3	"POPTR_0002s14730.1"	1950	"	"G/A"	"56,7/43,3"	"432/330"	762	stress_42	"POPTR_0002s14730.1"	1950	"	"G/A"	"71,6/28,4"	"53/21"	74
controllo_3	"POPTR_0002s14730.1"	1950	"	"G/A"	"56,7/43,3"	"432/330"	762	stress_45	"POPTR_0002s14730.1"	1950	"	"G/A"	"70,6/29,4"	"48/20"	68
controllo_3	"POPTR_0008s20590.1"	295	"	"A/G"	"56,7/43,3"	"203/155"	358	stress_12bis	"POPTR_0008s20590.1"	295	"	"A/G"	"60,3/39,7"	"82/54"	136
controllo_3	"POPTR_0008s20590.1"	295	"	"A/G"	"56,7/43,3"	"203/155"	358	stress_42	"POPTR_0008s20590.1"	295	"	"A/G"	"64,8/35,2"	"70/38"	108
controllo_3	"POPTR_0008s20590.1"	295	"	"A/G"	"56,7/43,3"	"203/155"	358	stress_45	"POPTR_0008s20590.1"	295	"	"A/G"	"59,9/40,1"	"94/63"	157
controllo_3	"POPTR_0014s17100.1"	544	"	"C/T"	"56,8/42,4"	"67/50"	118	stress_12bis	"POPTR_0014s17100.1"	544	"	"C/T"	"63,2/36,8"	"12/7"	19
controllo_3	"POPTR_0014s17100.1"	544	"	"C/T"	"56,8/42,4"	"67/50"	118	stress_45	"POPTR_0014s17100.1"	544	"	"C/T"	"80,0/20,0"	"8/2"	10
controllo_3	"POPTR_0013s08610.1"	1048	"	"A/C"	"56,8/42,5"	"83/62"	146	stress_12bis	"POPTR_0013s08610.1"	1048	"	"A/C"	"62,5/37,5"	"20/12"	32
controllo_3	"POPTR_0013s08610.1"	1048	"	"A/C"	"56,8/42,5"	"83/62"	146	stress_42	"POPTR_0013s08610.1"	1048	"	"A/C"	"75,0/25,0"	"9/3"	12
controllo_3	"POPTR_0013s08610.1"	1048	"	"A/C"	"56,8/42,5"	"83/62"	146	stress_45	"POPTR_0013s08610.1"	1048	"	"A/C"	"55,0/45,0"	"11/9"	20
controllo_3	"POPTR_0009s08520.1"	498	"	"G/T"	"56,8/43,0"	"288/218"	507	stress_12bis	"POPTR_0009s08520.1"	498	"	"G/T"	"65,6/34,4"	"126/66"	192
controllo_3	"POPTR_0009s08520.1"	498	"	"G/T"	"56,8/43,0"	"288/218"	507	stress_42	"POPTR_0009s08520.1"	498	"	"G/T"	"57,1/42,9"	"12/9"	21
controllo_3	"POPTR_0009s08520.1"	498	"	"G/T"	"56,8/43,0"	"288/218"	507	stress_45	"POPTR_0009s08520.1"	498	"	"T/G"	"57,7/42,3"	"15/11"	26
controllo_3	"POPTR_0005s23110.1"	93	"	"C/G"	"56,8/43,2"	"130/99"	229	stress_12bis	"POPTR_0005s23110.1"	93	"	"C/G"	"66,7/32,0"	"50/24"	75
controllo_3	"POPTR_0005s23110.1"	93	"	"C/G"	"56,8/43,2"	"130/99"	229	stress_42	"POPTR_0005s23110.1"	93	"	"C/G"	"62,5/37,5"	"10/6"	16
controllo_3	"POPTR_0005s25850.1"	78	"	"T/C"	"56,8/43,2"	"79/60"	139	stress_12bis	"POPTR_0005s25850.1"	78	"	"T/C"	"60,0/40,0"	"9/6"	15
controllo_3	"POPTR_0005s20920.1"	64	"	"C/T"	"56,8/43,2"	"210/160"	370	stress_12bis	"POPTR_0005s20920.1"	64	"	"T/C"	"53,5/46,5"	"46/40"	86
controllo_3	"POPTR_0006s13310.1"	891	"	"C/T"	"56,8/43,2"	"251/191"	442	stress_12bis	"POPTR_0006s13310.1"	891	"	"C/T"	"63,8/36,2"	"247/140"	387
controllo_3	"POPTR_0006s13310.1"	891	"	"C/T"	"56,8/43,2"	"251/191"	442	stress_42	"POPTR_0006s13310.1"	891	"	"C/T"	"59,3/40,7"	"188/129"	317
controllo_3	"POPTR_0006s13310.1"	891	"	"C/T"	"56,8/43,2"	"251/191"	442	stress_45	"POPTR_0006s13310.1"	891	"	"C/T"	"52,0/47,8"	"222/204"	427
controllo_3	"POPTR_0018s11820.1"	990	"	"C/G"	"56,8/43,2"	"217/165"	382	stress_12bis	"POPTR_0018s11820.1"	990	"	"C/G"	"51,0/49,0"	"53/51"	104
controllo_3	"POPTR_0018s11820.1"	990	"	"C/G"	"56,8/43,2"	"217/165"	382	stress_42	"POPTR_0018s11820.1"	990	"	"C/G"	"51,6/48,4"	"16/15"	31
controllo_3	"POPTR_0018s11820.1"	990	"	"C/G"	"56,8/43,2"	"217/165"	382	stress_45	"POPTR_0018s11820.1"	990	"	"G/C"	"54,5/45,5"	"18/15"	33
controllo_3	"POPTR_0003s05110.1"	9	"	"G/A"	"56,8/43,2"	"151/115"	266	stress_12bis	"POPTR_0003s05110.1"	9	"	"G/A"	"57,7/42,3"	"41/30"	71
controllo_3	"POPTR_0003s05110.1"	9	"	"G/A"	"56,8/43,2"	"151/115"	266	stress_42	"POPTR_0003s05110.1"	9	"	"G/A"	"77,8/22,2"	"21/6"	27
controllo_3	"POPTR_0003s05110.1"	9	"	"G/A"	"56,8/43,2"	"151/115"	266	stress_45	"POPTR_0003s05110.1"	9	"	"G/A"	"57,1/42,9"	"12/9"	21
controllo_3	"POPTR_0014s02550.1"	1368	"	"G/T"	"56,8/43,2"	"100/76"	176	stress_12bis	"POPTR_0014s02550.1"	1368	"	"G/T"	"60,7/39,3"	"37/24"	61
controllo_3	"POPTR_0014s02550.1"	1368	"	"G/T"	"56,8/43,2"	"100/76"	176	stress_42	"POPTR_0014s02550.1"	1368	"	"G/T"	"56,2/43,8"	"41/32"	73
controllo_3	"POPTR_0014s02550.1"	1368	"	"G/T"	"56,8/43,2"	"100/76"	176	stress_45	"POPTR_0014s02550.1"	1368	"	"G/T"	"59,2/40,8"	"74/51"	125
controllo_3	"POPTR_0014s15120.1"	107	"	"T/A"	"56,8/43,2"	"71/54"	125	stress_12bis	"POPTR_0014s15120.1"	107	"	"T/A"	"62,7/37,3"	"37/22"	59
controllo_3	"POPTR_0014s15120.1"	107	"	"T/A"	"56,8/43,2"	"71/54"	125	stress_42	"POPTR_0014s15120.1"	107	"	"A/T"	"50,0/45,0"	"10/9"	20
controllo_3	"POPTR_0014s15120.1"	107	"	"T/A"	"56,8/43,2"	"71/54"	125	stress_45	"POPTR_0014s15120.1"	107	"	"T/A"	"61,9/38,1"	"13/8"	21
controllo_3	"POPTR_0004s24420.1"	231	"	"C/A"	"56,8/43,2"	"100/76"	176	stress_12bis	"POPTR_0004s24420.1"	231	"	"C/A"	"58,9/41,1"	"43/30"	73
controllo_3	"POPTR_0004s24420.1"	231	"	"C/A"	"56,8/43,2"	"100/76"	176	stress_42	"POPTR_0004s24420.1"	231	"	"C/A"	"65,8/34,2"	"50/26"	76
controllo_3	"POPTR_0004s24420.1"	231	"	"C/A"	"56,8/43,2"	"100/76"	176	stress_45	"POPTR_0004s24420.1"	231	"	"C/A"	"69,3/30,7"	"61/27"	88
controllo_3	"POPTR_0009s11920.1"	210	"	"C/T"	"56,8/43,2"	"79/60"	139	stress_12bis	"POPTR_0009s11920.1"	210	"	"T/C"	"61,4/38,6"	"27/17"	44
controllo_3	"POPTR_0009s11920.1"	210	"	"C/T"	"56,8/43,2"	"79/60"	139	stress_42	"POPTR_0009s11920.1"	210	"	"T/C"	"58,0/42,0"	"47/34"	81
controllo_3	"POPTR_0009s11920.1"	210	"	"C/T"	"56,8/43,2"	"79/60"	139	stress_45	"POPTR_0009s11920.1"	210	"	"T/C"	"53,2/46,8"	"66/58"	124
controllo_3	"POPTR_0015s07640.1"	888	"	"A/T"	"56,8/43,2"	"75/57"	132	stress_12bis	"POPTR_0015s07640.1"	888	"	"A/T"	"63,3/36,7"	"31/18"	49
controllo_3	"POPTR_0015s07640.1"	888	"	"A/T"	"56,8/43,2"	"75/57"	132	stress_42	"POPTR_0015s07640.1"	888	"	"A/T"	"50,7/49,3"	"35/34"	69
controllo_3	"POPTR_0015s07640.1"	888	"	"A/T"	"56,8/43,2"	"75/57"	132	stress_45	"POPTR_0015s07640.1"	888	"	"A/T"	"51,6/48,4"	"33/31"	64
controllo_3	"POPTR_0001s24450.1"	1191	"	"A/G"	"56,8/43,2"	"84/64"	148	stress_12bis	"POPTR_0001s24450.1"	1191	"	"A/G"	"59,2/40,8"	"29/20"	49
controllo_3	"POPTR_0001s24450.1"	1191	"	"A/G"	"56,8/43,2"	"84/64"	148	stress_42	"POPTR_0001s24450.1"	1191	"	"A/G"	"57,1/42,9"	"8/6"	14
controllo_3	"POPTR_0001s24450.1"	1191	"	"A/G"	"56,8/43,2"	"84/64"	148	stress_45	"POPTR_0001s24450.1"	1191	"	"G/A"	"53,1/46,9"	"17/15"	32
controllo_3	"POPTR_0001s10040.1"	672	"	"A/G"	"56,8/43,2"	"104/79"	183	stress_12bis	"POPTR_0001s10040.1"	672	"	"A/G"	"63,6/36,4"	"42/24"	66
controllo_3	"POPTR_0001s10040.1"	672	"	"A/G"	"56,8/43,2"	"104/79"	183	stress_42	"POPTR_0001s10040.1"	672	"	"A/G"	"62,9/37,1"	"39/23"	62
controllo_3	"POPTR_0001s10040.1"	672	"	"A/G"	"56,8/43,2"	"104/79"	183	stress_45	"POPTR_0001s10040.1"	672	"	"A/G"	"51,2/48,8"	"41/39"	80
controllo_3	"POPTR_0010s14080.1"	2758	"	"G/A"	"56,8/43,2"	"129/98"	227	stress_12bis	"POPTR_0010s14080.1"	2758	"	"G/A"	"58,9/41,1"	"56/39"	95
controllo_3	"POPTR_0010s14080.1"	2758	"	"G/A"	"56,8/43,2"	"129/98"	227	stress_42	"POPTR_0010s14080.1"	2758	"	"G/A"	"73,7/26,3"	"42/15"	57
controllo_3	"POPTR_0010s14080.1"	2758	"	"G/A"	"56,8/43,2"	"129/98"	227	stress_45	"POPTR_0010s14080.1"	2758	"	"G/A"	"72,7/27,3"	"48/18"	66
controllo_3	"POPTR_0010s17860.1"	651	"	"G/A"	"56,8/43,2"	"155/118"	273	stress_12bis	"POPTR_0010s17860.1"	651	"	"A/G"	"54,5/45,5"	"24/20"	44
controllo_3	"POPTR_0010s05170.1"	334	"	"A/G"	"56,8/43,2"	"158/120"	278	stress_12bis	"POPTR_0010s05170.1"	334	"	"A/G"	"67,9/32,1"	"19/9"	28
controllo_3	"POPTR_0010s16160.1"	99	"	"A/G"	"56,8/43,2"	"193/147"	340	stress_12bis	"POPTR_0010s16160.1"	99	"	"G/A"	"58,6/41,4"	"34/24"	58
controllo_3	"POPTR_0010s16160.1"	99	"	"A/G"	"56,8/43,2"	"193/147"	340	stress_42	"POPTR_0010s16160.1"	99	"	"G/A"	"66,7/33,3"	"36/18"	54
controllo_3	"POPTR_0010s16160.1"	99	"	"A/G"	"56,8/43,2"	"193/147"	340	stress_45	"POPTR_0010s16160.1"	99	"	"G/A"	"55,0/45,0"	"22/18"	40
controllo_3	"POPTR_0002s01740.1"	227	"	"G/C"	"56,8/43,2"	"434/330"	764	stress_12bis	"POPTR_0002s01740.1"	227	"	"G/C"	"61,0/38,4"	"89/56"	146
controllo_3	"POPTR_0002s01740.1"	227	"	"G/C"	"56,8/43,2"	"434/330"	764	stress_42	"POPTR_0002s01740.1"	227	"	"G/C"	"74,4/25,6"	"32/11"	43
controllo_3	"POPTR_0002s01740.1"	227	"	"G/C"	"56,8/43,2"	"434/330"	764	stress_45	"POPTR_0002s01740.1"	227	"	"G/C"	"65,2/34,8"	"30/16"	46
controllo_3	"POPTR_0002s18510.1"	288	"	"A/G"	"56,8/43,2"	"67/51"	118	stress_12bis	"POPTR_0002s18510.1"	288	"	"A/G"	"63,4/36,6"	"26/15"	41
controllo_3	"POPTR_0002s18510.1"	288	"	"A/G"	"56,8/43,2"	"67/51"	118	stress_42	"POPTR_0002s18510.1"	288	"	"A/G"	"56,2/43,8"	"18/14"	32
controllo_3	"POPTR_0002s18510.1"	288	"	"A/G"	"56,8/43,2"	"67/51"	118	stress_45	"POPTR_0002s18510.1"	288	"	"G/A"	"58,0/42,0"	"29/21"	50
controllo_3	"POPTR_0002s22600.1"	843	"	"A/G"	"56,8/43,2"	"996/757"	1753	stress_12bis	"POPTR_0002s22600.1"	843	"	"A/G"	"54,6/45,4"	"226/188"	414
controllo_3	"POPTR_0002s22600.1"	843	"	"A/G"	"56,8/43,2"	"996/757"	1753	stress_42	"POPTR_0002s22600.1"	843	"	"A/G"	"55,9/44,1"	"62/49"	111
controllo_3	"POPTR_0002s22600.1"	843	"	"A/G"	"56,8/43,2"	"996/757"	1753	stress_45	"POPTR_0002s22600.1"	843	"	"A/G"	"55,0/45,0"	"82/67"	149
controllo_3	"POPTR_0002s18110.1"	396	"	"C/T"	"56,8/43,2"	"196/149"	345	stress_12bis	"POPTR_0002s18110.1"	396	"	"C/T"	"66,3/33,7"	"67/34"	101
controllo_3	"POPTR_0002s18110.1"	396	"	"C/T"	"56,8/43,2"	"196/149"	345	stress_42	"POPTR_0002s18110.1"	396	"	"C/T"	"57,9/42,1"	"22/16"	38
controllo_3	"POPTR_0002s18110.1"	396	"	"C/T"	"56,8/43,2"	"196/149"	345	stress_45	"POPTR_0002s18110.1"	396	"	"C/T"	"73,3/26,7"	"22/8"	30
controllo_3	"POPTR_0002s10870.1"	333	"	"G/T"	"56,8/43,2"	"83/63"	146	stress_12bis	"POPTR_0002s10870.1"	333	"	"G/T"	"72,0/28,0"	"36/14"	50
controllo_3	"POPTR_0002s10870.1"	333	"	"G/T"	"56,8/43,2"	"83/63"	146	stress_42	"POPTR_0002s10870.1"	333	"	"G/T"	"54,5/45,5"	"6/5"	11
controllo_3	"POPTR_0002s10870.1"	333	"	"G/T"	"56,8/43,2"	"83/63"	146	stress_45	"POPTR_0002s10870.1"	333	"	"T/G"	"70,0/30,0"	"14/6"	20
controllo_3	"POPTR_0002s09480.1"	467	"	"C/A"	"56,8/43,2"	"46/35"	81	stress_45	"POPTR_0002s09480.1"	467	"	"C/A"	"53,2/46,8"	"82/72"	154
controllo_3	"POPTR_0016s14310.1"	62	"	"T/C"	"56,8/43,2"	"210/160"	370	stress_12bis	"POPTR_0016s14310.1"	62	"	"T/C"	"59,6/40,4"	"84/57"	141
controllo_3	"POPTR_0016s14310.1"	62	"	"T/C"	"56,8/43,2"	"210/160"	370	stress_42	"POPTR_0016s14310.1"	62	"	"C/T"	"50,0/50,0"	"8/8"	16
controllo_3	"POPTR_0016s14310.1"	62	"	"T/C"	"56,8/43,2"	"210/160"	370	stress_45	"POPTR_0016s14310.1"	62	"	"T/C"	"57,1/42,9"	"8/6"	14
controllo_3	"POPTR_0016s09190.1"	546	"	"C/T"	"56,8/43,2"	"84/64"	148	stress_12bis	"POPTR_0016s09190.1"	546	"	"T/C"	"53,6/46,4"	"30/26"	56
controllo_3	"POPTR_0016s09190.1"	546	"	"C/T"	"56,8/43,2"	"84/64"	148	stress_42	"POPTR_0016s09190.1"	546	"	"C/T"	"60,0/40,0"	"15/10"	25
controllo_3	"POPTR_0016s09190.1"	546	"	"C/T"	"56,8/43,2"	"84/64"	148	stress_45	"POPTR_0016s09190.1"	546	"	"C/T"	"63,4/36,6"	"26/15"	41
controllo_3	"POPTR_0006s03660.1"	2377	"	"T/C"	"56,9/42,5"	"87/65"	153	stress_12bis	"POPTR_0006s03660.1"	2377	"	"T/C"	"65,6/34,4"	"21/11"	32
controllo_3	"POPTR_0006s03660.1"	2377	"	"T/C"	"56,9/42,5"	"87/65"	153	stress_42	"POPTR_0006s03660.1"	2377	"	"C/T"	"53,8/46,2"	"7/6"	13
controllo_3	"POPTR_0006s03660.1"	2377	"	"T/C"	"56,9/42,5"	"87/65"	153	stress_45	"POPTR_0006s03660.1"	2377	"	"T/C"	"59,5/37,8"	"22/14"	37
controllo_3	"POPTR_0013s13220.1"	696	"	"A/G"	"56,9/42,5"	"87/65"	153	stress_12bis	"POPTR_0013s13220.1"	696	"	"A/G"	"63,0/37,0"	"46/27"	73
controllo_3	"POPTR_0013s13220.1"	696	"	"A/G"	"56,9/42,5"	"87/65"	153	stress_42	"POPTR_0013s13220.1"	696	"	"A/G"	"61,3/38,7"	"46/29"	75
controllo_3	"POPTR_0013s13220.1"	696	"	"A/G"	"56,9/42,5"	"87/65"	153	stress_45	"POPTR_0013s13220.1"	696	"	"G/A"	"50,5/48,6"	"53/51"	105
controllo_3	"POPTR_0006s24770.1"	87	"	"C/A"	"56,9/43,1"	"267/202"	469	stress_12bis	"POPTR_0006s24770.1"	87	"	"C/A"	"56,8/43,2"	"138/105"	243
controllo_3	"POPTR_0006s24770.1"	87	"	"C/A"	"56,9/43,1"	"267/202"	469	stress_42	"POPTR_0006s24770.1"	87	"	"A/C"	"52,9/47,1"	"73/65"	138
controllo_3	"POPTR_0006s24770.1"	87	"	"C/A"	"56,9/43,1"	"267/202"	469	stress_45	"POPTR_0006s24770.1"	87	"	"C/A"	"52,7/47,3"	"128/115"	243
controllo_3	"POPTR_0006s13000.1"	702	"	"T/A"	"56,9/43,1"	"82/62"	144	stress_12bis	"POPTR_0006s13000.1"	702	"	"A/T"	"53,8/46,2"	"7/6"	13
controllo_3	"POPTR_0006s13000.1"	702	"	"T/A"	"56,9/43,1"	"82/62"	144	stress_42	"POPTR_0006s13000.1"	702	"	"T/A"	"66,7/33,3"	"30/15"	45
controllo_3	"POPTR_0006s13000.1"	702	"	"T/A"	"56,9/43,1"	"82/62"	144	stress_45	"POPTR_0006s13000.1"	702	"	"T/A"	"78,9/21,1"	"45/12"	57
controllo_3	"POPTR_0006s23770.1"	150	"	"C/T"	"56,9/43,1"	"123/93"	216	stress_12bis	"POPTR_0006s23770.1"	150	"	"C/T"	"54,9/45,1"	"39/32"	71
controllo_3	"POPTR_0006s23770.1"	150	"	"C/T"	"56,9/43,1"	"123/93"	216	stress_42	"POPTR_0006s23770.1"	150	"	"T/C"	"64,3/35,7"	"9/5"	14
controllo_3	"POPTR_0006s23770.1"	150	"	"C/T"	"56,9/43,1"	"123/93"	216	stress_45	"POPTR_0006s23770.1"	150	"	"T/C"	"60,5/39,5"	"23/15"	38
controllo_3	"POPTR_0018s11170.1"	136	"	"T/C"	"56,9/43,1"	"107/81"	188	stress_12bis	"POPTR_0018s11170.1"	136	"	"T/C"	"60,0/40,0"	"21/14"	35
controllo_3	"POPTR_0018s11170.1"	136	"	"T/C"	"56,9/43,1"	"107/81"	188	stress_42	"POPTR_0018s11170.1"	136	"	"T/C"	"60,0/40,0"	"12/8"	20
controllo_3	"POPTR_0018s11170.1"	136	"	"T/C"	"56,9/43,1"	"107/81"	188	stress_45	"POPTR_0018s11170.1"	136	"	"C/T"	"77,8/22,2"	"14/4"	18
controllo_3	"POPTR_0003s13880.1"	64	"	"C/T"	"56,9/43,1"	"74/56"	130	stress_12bis	"POPTR_0003s13880.1"	64	"	"T/C"	"56,7/43,3"	"34/26"	60
controllo_3	"POPTR_0003s13880.1"	64	"	"C/T"	"56,9/43,1"	"74/56"	130	stress_42	"POPTR_0003s13880.1"	64	"	"C/T"	"61,3/38,7"	"92/58"	150
controllo_3	"POPTR_0003s13880.1"	64	"	"C/T"	"56,9/43,1"	"74/56"	130	stress_45	"POPTR_0003s13880.1"	64	"	"T/C"	"51,5/48,5"	"103/97"	200
controllo_3	"POPTR_0019s07540.1"	556	"	"A/G"	"56,9/43,1"	"58/44"	102	stress_12bis	"POPTR_0019s07540.1"	556	"	"A/G"	"57,1/42,9"	"12/9"	21
controllo_3	"POPTR_0019s07540.1"	556	"	"A/G"	"56,9/43,1"	"58/44"	102	stress_45	"POPTR_0019s07540.1"	556	"	"A/G"	"53,8/46,2"	"7/6"	13
controllo_3	"POPTR_0013s11340.1"	387	"	"G/A"	"56,9/43,1"	"58/44"	102	stress_12bis	"POPTR_0013s11340.1"	387	"	"G/A"	"60,0/40,0"	"15/10"	25
controllo_3	"POPTR_0013s07150.1"	735	"	"G/T"	"56,9/43,1"	"78/59"	137	stress_12bis	"POPTR_0013s07150.1"	735	"	"T/G"	"58,3/41,7"	"21/15"	36
controllo_3	"POPTR_0013s07150.1"	735	"	"G/T"	"56,9/43,1"	"78/59"	137	stress_42	"POPTR_0013s07150.1"	735	"	"T/G"	"63,6/36,4"	"7/4"	11
controllo_3	"POPTR_0013s07150.1"	735	"	"G/T"	"56,9/43,1"	"78/59"	137	stress_45	"POPTR_0013s07150.1"	735	"	"G/T"	"53,3/46,7"	"8/7"	15
controllo_3	"POPTR_0014s13660.1"	939	"	"T/C"	"56,9/43,1"	"395/299"	694	stress_12bis	"POPTR_0014s13660.1"	939	"	"T/C"	"61,3/38,7"	"111/70"	181
controllo_3	"POPTR_0014s13660.1"	939	"	"T/C"	"56,9/43,1"	"395/299"	694	stress_42	"POPTR_0014s13660.1"	939	"	"T/C"	"69,0/31,0"	"40/18"	58
controllo_3	"POPTR_0014s13660.1"	939	"	"T/C"	"56,9/43,1"	"395/299"	694	stress_45	"POPTR_0014s13660.1"	939	"	"T/C"	"57,8/42,2"	"37/27"	64
controllo_3	"POPTR_0014s10260.1"	1274	"	"T/C"	"56,9/43,1"	"128/97"	225	stress_12bis	"POPTR_0014s10260.1"	1274	"	"C/T"	"53,2/46,8"	"33/29"	62
controllo_3	"POPTR_0014s10260.1"	1274	"	"T/C"	"56,9/43,1"	"128/97"	225	stress_42	"POPTR_0014s10260.1"	1274	"	"T/C"	"51,5/48,5"	"17/16"	33
controllo_3	"POPTR_0014s10260.1"	1274	"	"T/C"	"56,9/43,1"	"128/97"	225	stress_45	"POPTR_0014s10260.1"	1274	"	"T/C"	"59,1/40,9"	"39/27"	66
controllo_3	"POPTR_0014s06370.1"	693	"	"A/G"	"56,9/43,1"	"164/124"	288	stress_12bis	"POPTR_0014s06370.1"	693	"	"G/A"	"56,8/43,2"	"50/38"	88
controllo_3	"POPTR_0014s06370.1"	693	"	"A/G"	"56,9/43,1"	"164/124"	288	stress_42	"POPTR_0014s06370.1"	693	"	"A/G"	"53,5/46,5"	"23/20"	43
controllo_3	"POPTR_0014s06370.1"	693	"	"A/G"	"56,9/43,1"	"164/124"	288	stress_45	"POPTR_0014s06370.1"	693	"	"A/G"	"59,5/40,5"	"66/45"	111
controllo_3	"POPTR_0004s18090.1"	348	"	"T/C"	"56,9/43,1"	"70/53"	123	stress_12bis	"POPTR_0004s18090.1"	348	"	"T/C"	"54,5/45,5"	"6/5"	11
controllo_3	"POPTR_0004s18090.1"	348	"	"T/C"	"56,9/43,1"	"70/53"	123	stress_42	"POPTR_0004s18090.1"	348	"	"T/C"	"62,5/37,5"	"10/6"	16
controllo_3	"POPTR_0004s18090.1"	348	"	"T/C"	"56,9/43,1"	"70/53"	123	stress_45	"POPTR_0004s18090.1"	348	"	"T/C"	"64,3/35,7"	"9/5"	14
controllo_3	"POPTR_0004s01470.1"	581	"	"G/A"	"56,9/43,1"	"616/466"	1082	stress_12bis	"POPTR_0004s01470.1"	581	"	"G/A"	"53,6/46,0"	"162/139"	302
controllo_3	"POPTR_0004s01470.1"	581	"	"G/A"	"56,9/43,1"	"616/466"	1082	stress_42	"POPTR_0004s01470.1"	581	"	"G/A"	"60,4/39,6"	"64/42"	106
controllo_3	"POPTR_0004s01470.1"	581	"	"G/A"	"56,9/43,1"	"616/466"	1082	stress_45	"POPTR_0004s01470.1"	581	"	"G/A"	"60,3/39,7"	"73/48"	121
controllo_3	"POPTR_0009s03440.1"	109	"	"T/C"	"56,9/43,1"	"78/59"	137	stress_12bis	"POPTR_0009s03440.1"	109	"	"C/T"	"50,0/50,0"	"24/24"	48
controllo_3	"POPTR_0009s03440.1"	109	"	"T/C"	"56,9/43,1"	"78/59"	137	stress_45	"POPTR_0009s03440.1"	109	"	"T/C"	"66,7/33,3"	"8/4"	12
controllo_3	"POPTR_0009s09710.1"	439	"	"A/T"	"56,9/43,1"	"165/125"	290	stress_12bis	"POPTR_0009s09710.1"	439	"	"A/T"	"64,6/35,4"	"117/64"	181
controllo_3	"POPTR_0009s09710.1"	439	"	"A/T"	"56,9/43,1"	"165/125"	290	stress_42	"POPTR_0009s09710.1"	439	"	"A/T"	"55,0/45,0"	"22/18"	40
controllo_3	"POPTR_0009s09710.1"	439	"	"A/T"	"56,9/43,1"	"165/125"	290	stress_45	"POPTR_0009s09710.1"	439	"	"A/T"	"54,7/45,3"	"35/29"	64
controllo_3	"POPTR_0015s10920.1"	141	"	"T/C"	"56,9/43,1"	"87/66"	153	stress_12bis	"POPTR_0015s10920.1"	141	"	"T/C"	"55,8/44,2"	"29/23"	52
controllo_3	"POPTR_0015s10920.1"	141	"	"T/C"	"56,9/43,1"	"87/66"	153	stress_45	"POPTR_0015s10920.1"	141	"	"C/T"	"67,5/32,5"	"27/13"	40
controllo_3	"POPTR_0001s26970.1"	568	"	"G/A"	"56,9/43,1"	"111/84"	195	stress_12bis	"POPTR_0001s26970.1"	568	"	"A/G"	"53,4/46,6"	"39/34"	73
controllo_3	"POPTR_0001s26970.1"	568	"	"G/A"	"56,9/43,1"	"111/84"	195	stress_42	"POPTR_0001s26970.1"	568	"	"A/G"	"53,8/46,2"	"7/6"	13
controllo_3	"POPTR_0001s26970.1"	568	"	"G/A"	"56,9/43,1"	"111/84"	195	stress_45	"POPTR_0001s26970.1"	568	"	"G/A"	"60,0/40,0"	"12/8"	20
controllo_3	"POPTR_0001s25520.1"	942	"	"T/A"	"56,9/43,1"	"70/53"	123	stress_12bis	"POPTR_0001s25520.1"	942	"	"A/T"	"54,1/45,9"	"20/17"	37
controllo_3	"POPTR_0001s25520.1"	942	"	"T/A"	"56,9/43,1"	"70/53"	123	stress_42	"POPTR_0001s25520.1"	942	"	"T/A"	"55,9/44,1"	"33/26"	59
controllo_3	"POPTR_0001s25520.1"	942	"	"T/A"	"56,9/43,1"	"70/53"	123	stress_45	"POPTR_0001s25520.1"	942	"	"T/A"	"70,7/29,3"	"29/12"	41
controllo_3	"POPTR_0001s34690.1"	45	"	"C/T"	"56,9/43,1"	"95/72"	167	stress_12bis	"POPTR_0001s34690.1"	45	"	"T/C"	"52,4/47,6"	"22/20"	42
controllo_3	"POPTR_0010s21840.1"	353	"	"A/G"	"56,9/43,1"	"74/56"	130	stress_12bis	"POPTR_0010s21840.1"	353	"	"A/G"	"60,4/39,6"	"29/19"	48
controllo_3	"POPTR_0010s21840.1"	353	"	"A/G"	"56,9/43,1"	"74/56"	130	stress_42	"POPTR_0010s21840.1"	353	"	"G/A"	"54,8/45,2"	"17/14"	31
controllo_3	"POPTR_0010s21840.1"	353	"	"A/G"	"56,9/43,1"	"74/56"	130	stress_45	"POPTR_0010s21840.1"	353	"	"A/G"	"68,8/31,2"	"11/5"	16
controllo_3	"POPTR_0010s21280.1"	207	"	"C/T"	"56,9/43,1"	"70/53"	123	stress_12bis	"POPTR_0010s21280.1"	207	"	"C/T"	"70,6/29,4"	"36/15"	51
controllo_3	"POPTR_0010s21280.1"	207	"	"C/T"	"56,9/43,1"	"70/53"	123	stress_42	"POPTR_0010s21280.1"	207	"	"C/T"	"62,5/37,5"	"10/6"	16
controllo_3	"POPTR_0010s21280.1"	207	"	"C/T"	"56,9/43,1"	"70/53"	123	stress_45	"POPTR_0010s21280.1"	207	"	"C/T"	"71,8/28,2"	"28/11"	39
controllo_3	"POPTR_0010s20060.1"	303	"	"G/A"	"56,9/43,1"	"332/251"	583	stress_12bis	"POPTR_0010s20060.1"	303	"	"G/A"	"56,4/43,6"	"114/88"	202
controllo_3	"POPTR_0010s20060.1"	303	"	"G/A"	"56,9/43,1"	"332/251"	583	stress_42	"POPTR_0010s20060.1"	303	"	"G/A"	"52,6/47,4"	"20/18"	38
controllo_3	"POPTR_0010s20060.1"	303	"	"G/A"	"56,9/43,1"	"332/251"	583	stress_45	"POPTR_0010s20060.1"	303	"	"A/G"	"64,4/35,6"	"29/16"	45
controllo_3	"POPTR_0010s16880.1"	184	"	"A/G"	"56,9/43,1"	"74/56"	130	stress_12bis	"POPTR_0010s16880.1"	184	"	"A/G"	"59,0/38,5"	"23/15"	39
controllo_3	"POPTR_0010s16880.1"	184	"	"A/G"	"56,9/43,1"	"74/56"	130	stress_45	"POPTR_0010s16880.1"	184	"	"A/G"	"57,1/42,9"	"8/6"	14
controllo_3	"POPTR_0007s12070.1"	159	"	"C/T"	"56,9/43,1"	"456/346"	802	stress_12bis	"POPTR_0007s12070.1"	159	"	"C/T"	"55,8/44,2"	"182/144"	326
controllo_3	"POPTR_0007s12070.1"	159	"	"C/T"	"56,9/43,1"	"456/346"	802	stress_42	"POPTR_0007s12070.1"	159	"	"T/C"	"52,5/47,5"	"32/29"	61
controllo_3	"POPTR_0007s12070.1"	159	"	"C/T"	"56,9/43,1"	"456/346"	802	stress_45	"POPTR_0007s12070.1"	159	"	"C/T"	"58,3/41,7"	"56/40"	96
controllo_3	"POPTR_0002s18020.1"	834	"	"T/C"	"56,9/43,1"	"70/53"	123	stress_12bis	"POPTR_0002s18020.1"	834	"	"C/T"	"51,9/48,1"	"28/26"	54
controllo_3	"POPTR_0002s18020.1"	834	"	"T/C"	"56,9/43,1"	"70/53"	123	stress_42	"POPTR_0002s18020.1"	834	"	"C/T"	"56,2/43,8"	"27/21"	48
controllo_3	"POPTR_0002s18020.1"	834	"	"T/C"	"56,9/43,1"	"70/53"	123	stress_45	"POPTR_0002s18020.1"	834	"	"T/C"	"56,6/43,4"	"47/36"	83
controllo_3	"POPTR_0002s08010.1"	1600	"	"A/G"	"56,9/43,1"	"74/56"	130	stress_12bis	"POPTR_0002s08010.1"	1600	"	"A/G"	"50,0/46,4"	"14/13"	28
controllo_3	"POPTR_0002s08010.1"	1600	"	"A/G"	"56,9/43,1"	"74/56"	130	stress_45	"POPTR_0002s08010.1"	1600	"	"A/G"	"55,0/45,0"	"11/9"	20
controllo_3	"POPTR_0008s06960.1"	537	"	"C/T"	"56,9/43,1"	"62/47"	109	stress_12bis	"POPTR_0008s06960.1"	537	"	"C/T"	"75,0/25,0"	"9/3"	12
controllo_3	"POPTR_0016s09280.1"	1923	"	"G/A"	"56,9/43,1"	"74/56"	130	stress_12bis	"POPTR_0016s09280.1"	1923	"	"A/G"	"56,2/43,8"	"27/21"	48
controllo_3	"POPTR_0016s09280.1"	1923	"	"G/A"	"56,9/43,1"	"74/56"	130	stress_42	"POPTR_0016s09280.1"	1923	"	"G/A"	"61,5/38,5"	"24/15"	39
controllo_3	"POPTR_0016s09280.1"	1923	"	"G/A"	"56,9/43,1"	"74/56"	130	stress_45	"POPTR_0016s09280.1"	1923	"	"G/A"	"60,0/40,0"	"30/20"	50
controllo_3	"POPTR_0016s02440.1"	452	"	"G/A"	"56,9/43,1"	"58/44"	102	stress_12bis	"POPTR_0016s02440.1"	452	"	"G/A"	"57,1/42,9"	"8/6"	14
controllo_3	"POPTR_0016s02440.1"	452	"	"G/A"	"56,9/43,1"	"58/44"	102	stress_45	"POPTR_0016s02440.1"	452	"	"G/A"	"63,6/36,4"	"14/8"	22
controllo_3	"POPTR_0002s08010.1"	1077	"	"C/T"	"57,0/42,5"	"106/79"	186	stress_12bis	"POPTR_0002s08010.1"	1077	"	"C/T"	"67,4/32,6"	"29/14"	43
controllo_3	"POPTR_0002s08010.1"	1077	"	"C/T"	"57,0/42,5"	"106/79"	186	stress_45	"POPTR_0002s08010.1"	1077	"	"C/T"	"55,6/44,4"	"10/8"	18
controllo_3	"POPTR_0017s06920.1"	969	"	"T/C"	"57,0/42,8"	"513/385"	900	stress_12bis	"POPTR_0017s06920.1"	969	"	"T/C"	"59,4/40,6"	"148/101"	249
controllo_3	"POPTR_0017s06920.1"	969	"	"T/C"	"57,0/42,8"	"513/385"	900	stress_42	"POPTR_0017s06920.1"	969	"	"T/C"	"58,8/41,2"	"10/7"	17
controllo_3	"POPTR_0006s12910.1"	798	"	"T/C"	"57,0/42,8"	"240/180"	421	stress_12bis	"POPTR_0006s12910.1"	798	"	"T/C"	"52,2/47,8"	"70/64"	134
controllo_3	"POPTR_0006s12910.1"	798	"	"T/C"	"57,0/42,8"	"240/180"	421	stress_42	"POPTR_0006s12910.1"	798	"	"T/C"	"56,6/43,4"	"60/46"	106
controllo_3	"POPTR_0006s12910.1"	798	"	"T/C"	"57,0/42,8"	"240/180"	421	stress_45	"POPTR_0006s12910.1"	798	"	"T/C"	"59,1/40,9"	"68/47"	115
controllo_3	"POPTR_0006s13310.1"	201	"	"T/A"	"57,0/43,0"	"243/183"	426	stress_12bis	"POPTR_0006s13310.1"	201	"	"T/A"	"64,2/35,8"	"244/136"	380
controllo_3	"POPTR_0006s13310.1"	201	"	"T/A"	"57,0/43,0"	"243/183"	426	stress_42	"POPTR_0006s13310.1"	201	"	"T/A"	"55,2/44,2"	"91/73"	165
controllo_3	"POPTR_0006s13310.1"	201	"	"T/A"	"57,0/43,0"	"243/183"	426	stress_45	"POPTR_0006s13310.1"	201	"	"T/A"	"55,9/43,8"	"204/160"	365
controllo_3	"POPTR_0006s23770.1"	301	"	"A/G"	"57,0/43,0"	"98/74"	172	stress_12bis	"POPTR_0006s23770.1"	301	"	"A/G"	"57,1/42,9"	"24/18"	42
controllo_3	"POPTR_0006s23770.1"	301	"	"A/G"	"57,0/43,0"	"98/74"	172	stress_45	"POPTR_0006s23770.1"	301	"	"A/G"	"50,0/50,0"	"12/12"	24
controllo_3	"POPTR_0013s01080.1"	2025	"	"A/T"	"57,0/43,0"	"102/77"	179	stress_12bis	"POPTR_0013s01080.1"	2025	"	"A/T"	"53,7/46,3"	"36/31"	67
controllo_3	"POPTR_0013s01080.1"	2025	"	"A/T"	"57,0/43,0"	"102/77"	179	stress_42	"POPTR_0013s01080.1"	2025	"	"A/T"	"53,5/46,5"	"23/20"	43
controllo_3	"POPTR_0013s01080.1"	2025	"	"A/T"	"57,0/43,0"	"102/77"	179	stress_45	"POPTR_0013s01080.1"	2025	"	"A/T"	"56,5/43,5"	"26/20"	46
controllo_3	"POPTR_0014s06380.1"	130	"	"G/A"	"57,0/43,0"	"163/123"	286	stress_12bis	"POPTR_0014s06380.1"	130	"	"G/A"	"53,9/46,1"	"55/47"	102
controllo_3	"POPTR_0014s06380.1"	130	"	"G/A"	"57,0/43,0"	"163/123"	286	stress_42	"POPTR_0014s06380.1"	130	"	"G/A"	"60,0/40,0"	"63/42"	105
controllo_3	"POPTR_0014s06380.1"	130	"	"G/A"	"57,0/43,0"	"163/123"	286	stress_45	"POPTR_0014s06380.1"	130	"	"G/A"	"60,0/40,0"	"72/48"	120
controllo_3	"POPTR_0014s17400.1"	582	"	"T/C"	"57,0/43,0"	"950/716"	1667	stress_12bis	"POPTR_0014s17400.1"	582	"	"T/C"	"60,3/39,7"	"316/208"	524
controllo_3	"POPTR_0014s17400.1"	582	"	"T/C"	"57,0/43,0"	"950/716"	1667	stress_42	"POPTR_0014s17400.1"	582	"	"T/C"	"58,9/41,1"	"123/86"	209
controllo_3	"POPTR_0014s17400.1"	582	"	"T/C"	"57,0/43,0"	"950/716"	1667	stress_45	"POPTR_0014s17400.1"	582	"	"T/C"	"61,5/38,5"	"160/100"	260
controllo_3	"POPTR_0014s10260.1"	292	"	"G/A"	"57,0/43,0"	"126/95"	221	stress_12bis	"POPTR_0014s10260.1"	292	"	"A/G"	"52,6/47,4"	"20/18"	38
controllo_3	"POPTR_0014s10260.1"	292	"	"G/A"	"57,0/43,0"	"126/95"	221	stress_42	"POPTR_0014s10260.1"	292	"	"A/G"	"60,9/39,1"	"14/9"	23
controllo_3	"POPTR_0014s10260.1"	292	"	"G/A"	"57,0/43,0"	"126/95"	221	stress_45	"POPTR_0014s10260.1"	292	"	"A/G"	"55,6/44,4"	"15/12"	27
controllo_3	"POPTR_0009s05840.1"	382	"	"C/T"	"57,0/43,0"	"138/104"	242	stress_12bis	"POPTR_0009s05840.1"	382	"	"C/T"	"51,7/48,3"	"15/14"	29
controllo_3	"POPTR_0009s05840.1"	382	"	"C/T"	"57,0/43,0"	"138/104"	242	stress_42	"POPTR_0009s05840.1"	382	"	"T/C"	"65,4/34,6"	"51/27"	78
controllo_3	"POPTR_0009s05840.1"	382	"	"C/T"	"57,0/43,0"	"138/104"	242	stress_45	"POPTR_0009s05840.1"	382	"	"T/C"	"59,0/41,0"	"92/64"	156
controllo_3	"POPTR_0009s09240.1"	945	"	"C/T"	"57,0/43,0"	"143/108"	251	stress_12bis	"POPTR_0009s09240.1"	945	"	"C/T"	"59,0/41,0"	"79/55"	134
controllo_3	"POPTR_0009s09240.1"	945	"	"C/T"	"57,0/43,0"	"143/108"	251	stress_42	"POPTR_0009s09240.1"	945	"	"C/T"	"64,3/35,7"	"36/20"	56
controllo_3	"POPTR_0009s09240.1"	945	"	"C/T"	"57,0/43,0"	"143/108"	251	stress_45	"POPTR_0009s09240.1"	945	"	"C/T"	"64,4/35,6"	"29/16"	45
controllo_3	"POPTR_0001s30310.1"	84	"	"T/C"	"57,0/43,0"	"77/58"	135	stress_12bis	"POPTR_0001s30310.1"	84	"	"C/T"	"56,4/43,6"	"31/24"	55
controllo_3	"POPTR_0001s30310.1"	84	"	"T/C"	"57,0/43,0"	"77/58"	135	stress_42	"POPTR_0001s30310.1"	84	"	"C/T"	"55,0/45,0"	"55/45"	100
controllo_3	"POPTR_0001s30310.1"	84	"	"T/C"	"57,0/43,0"	"77/58"	135	stress_45	"POPTR_0001s30310.1"	84	"	"T/C"	"58,1/41,9"	"61/44"	105
controllo_3	"POPTR_0001s36330.1"	1167	"	"G/A"	"57,0/43,0"	"102/77"	179	stress_12bis	"POPTR_0001s36330.1"	1167	"	"G/A"	"62,1/37,9"	"72/44"	116
controllo_3	"POPTR_0001s36330.1"	1167	"	"G/A"	"57,0/43,0"	"102/77"	179	stress_42	"POPTR_0001s36330.1"	1167	"	"G/A"	"80,0/20,0"	"40/10"	50
controllo_3	"POPTR_0001s36330.1"	1167	"	"G/A"	"57,0/43,0"	"102/77"	179	stress_45	"POPTR_0001s36330.1"	1167	"	"G/A"	"72,2/26,4"	"52/19"	72
controllo_3	"POPTR_0001s36560.1"	261	"	"A/G"	"57,0/43,0"	"286/216"	502	stress_12bis	"POPTR_0001s36560.1"	261	"	"A/G"	"51,9/48,1"	"67/62"	129
controllo_3	"POPTR_0001s36560.1"	261	"	"A/G"	"57,0/43,0"	"286/216"	502	stress_45	"POPTR_0001s36560.1"	261	"	"A/G"	"51,3/48,7"	"20/19"	39
controllo_3	"POPTR_0010s14080.1"	2229	"	"C/T"	"57,0/43,0"	"158/119"	277	stress_12bis	"POPTR_0010s14080.1"	2229	"	"C/T"	"59,7/40,3"	"80/54"	134
controllo_3	"POPTR_0010s14080.1"	2229	"	"C/T"	"57,0/43,0"	"158/119"	277	stress_42	"POPTR_0010s14080.1"	2229	"	"C/T"	"73,4/26,6"	"47/17"	64
controllo_3	"POPTR_0010s14080.1"	2229	"	"C/T"	"57,0/43,0"	"158/119"	277	stress_45	"POPTR_0010s14080.1"	2229	"	"C/T"	"74,7/25,3"	"56/19"	75
controllo_3	"POPTR_0007s06620.1"	124	"	"C/T"	"57,0/43,0"	"143/108"	251	stress_12bis	"POPTR_0007s06620.1"	124	"	"C/T"	"62,5/37,5"	"35/21"	56
controllo_3	"POPTR_0007s06620.1"	124	"	"C/T"	"57,0/43,0"	"143/108"	251	stress_45	"POPTR_0007s06620.1"	124	"	"C/T"	"63,2/36,8"	"12/7"	19
controllo_3	"POPTR_0002s13330.1"	137	"	"C/A"	"57,0/43,0"	"81/61"	142	stress_12bis	"POPTR_0002s13330.1"	137	"	"A/C"	"59,3/40,7"	"32/22"	54
controllo_3	"POPTR_0002s13330.1"	137	"	"C/A"	"57,0/43,0"	"81/61"	142	stress_45	"POPTR_0002s13330.1"	137	"	"C/A"	"52,9/47,1"	"9/8"	17
controllo_3	"POPTR_0002s25170.1"	447	"	"C/T"	"57,0/43,0"	"65/49"	114	stress_12bis	"POPTR_0002s25170.1"	447	"	"C/T"	"60,0/40,0"	"30/20"	50
controllo_3	"POPTR_0002s25170.1"	447	"	"C/T"	"57,0/43,0"	"65/49"	114	stress_42	"POPTR_0002s25170.1"	447	"	"T/C"	"73,7/26,3"	"28/10"	38
controllo_3	"POPTR_0002s25170.1"	447	"	"C/T"	"57,0/43,0"	"65/49"	114	stress_45	"POPTR_0002s25170.1"	447	"	"T/C"	"54,5/45,5"	"36/30"	66
controllo_3	"POPTR_0002s05660.1"	318	"	"C/T"	"57,0/43,0"	"524/395"	919	stress_12bis	"POPTR_0002s05660.1"	318	"	"C/T"	"55,6/44,4"	"164/131"	295
controllo_3	"POPTR_0002s05660.1"	318	"	"C/T"	"57,0/43,0"	"524/395"	919	stress_42	"POPTR_0002s05660.1"	318	"	"T/C"	"52,8/47,2"	"65/58"	123
controllo_3	"POPTR_0002s05660.1"	318	"	"C/T"	"57,0/43,0"	"524/395"	919	stress_45	"POPTR_0002s05660.1"	318	"	"C/T"	"50,4/49,6"	"70/69"	139
controllo_3	"POPTR_0002s10000.1"	630	"	"G/T"	"57,0/43,0"	"53/40"	93	stress_45	"POPTR_0002s10000.1"	630	"	"G/T"	"72,7/26,4"	"88/32"	121
controllo_3	"POPTR_0008s13780.1"	989	"	"A/G"	"57,0/43,0"	"122/92"	214	stress_12bis	"POPTR_0008s13780.1"	989	"	"A/G"	"55,6/44,4"	"15/12"	27
controllo_3	"POPTR_0008s13780.1"	989	"	"A/G"	"57,0/43,0"	"122/92"	214	stress_42	"POPTR_0008s13780.1"	989	"	"G/A"	"57,1/42,9"	"8/6"	14
controllo_3	"POPTR_0008s13780.1"	989	"	"A/G"	"57,0/43,0"	"122/92"	214	stress_45	"POPTR_0008s13780.1"	989	"	"A/G"	"56,0/44,0"	"14/11"	25
controllo_3	"POPTR_0016s11610.1"	672	"	"C/T"	"57,0/43,0"	"204/154"	358	stress_12bis	"POPTR_0016s11610.1"	672	"	"C/T"	"59,8/40,2"	"55/37"	92
controllo_3	"POPTR_0016s11610.1"	672	"	"C/T"	"57,0/43,0"	"204/154"	358	stress_42	"POPTR_0016s11610.1"	672	"	"C/T"	"65,6/34,4"	"21/11"	32
controllo_3	"POPTR_0016s11610.1"	672	"	"C/T"	"57,0/43,0"	"204/154"	358	stress_45	"POPTR_0016s11610.1"	672	"	"C/T"	"50,0/50,0"	"23/23"	46
controllo_3	"POPTR_0006s13240.1"	323	"	"T/C"	"57,1/42,5"	"152/113"	266	stress_12bis	"POPTR_0006s13240.1"	323	"	"T/C"	"57,7/42,3"	"75/55"	130
controllo_3	"POPTR_0006s13240.1"	323	"	"T/C"	"57,1/42,5"	"152/113"	266	stress_42	"POPTR_0006s13240.1"	323	"	"T/C"	"72,9/27,1"	"35/13"	48
controllo_3	"POPTR_0006s13240.1"	323	"	"T/C"	"57,1/42,5"	"152/113"	266	stress_45	"POPTR_0006s13240.1"	323	"	"T/C"	"60,0/40,0"	"45/30"	75
controllo_3	"POPTR_0002s14730.1"	964	"	"T/A"	"57,1/42,7"	"357/267"	625	stress_12bis	"POPTR_0002s14730.1"	964	"	"T/A"	"53,3/46,2"	"106/92"	199
controllo_3	"POPTR_0002s14730.1"	964	"	"T/A"	"57,1/42,7"	"357/267"	625	stress_42	"POPTR_0002s14730.1"	964	"	"T/A"	"72,7/27,3"	"32/12"	44
controllo_3	"POPTR_0002s14730.1"	964	"	"T/A"	"57,1/42,7"	"357/267"	625	stress_45	"POPTR_0002s14730.1"	964	"	"T/A"	"75,0/25,0"	"51/17"	68
controllo_3	"POPTR_0005s15660.1"	494	"	"C/T"	"57,1/42,8"	"10322/7738"	18077	stress_12bis	"POPTR_0005s15660.1"	494	"	"C/T"	"57,3/42,6"	"2493/1855"	4350
controllo_3	"POPTR_0005s15660.1"	494	"	"C/T"	"57,1/42,8"	"10322/7738"	18077	stress_42	"POPTR_0005s15660.1"	494	"	"C/T"	"51,4/48,6"	"677/641"	1318
controllo_3	"POPTR_0005s15660.1"	494	"	"C/T"	"57,1/42,8"	"10322/7738"	18077	stress_45	"POPTR_0005s15660.1"	494	"	"C/T"	"51,1/48,9"	"569/544"	1113
controllo_3	"POPTR_0014s08960.1"	160	"	"C/G"	"57,1/42,8"	"416/312"	729	stress_12bis	"POPTR_0014s08960.1"	160	"	"C/G"	"56,3/43,7"	"85/66"	151
controllo_3	"POPTR_0014s08960.1"	160	"	"C/G"	"57,1/42,8"	"416/312"	729	stress_42	"POPTR_0014s08960.1"	160	"	"C/G"	"53,3/46,7"	"8/7"	15
controllo_3	"POPTR_0014s08960.1"	160	"	"C/G"	"57,1/42,8"	"416/312"	729	stress_45	"POPTR_0014s08960.1"	160	"	"C/G"	"63,3/36,7"	"19/11"	30
controllo_3	"POPTR_0005s11710.1"	177	"	"T/C"	"57,1/42,9"	"64/48"	112	stress_12bis	"POPTR_0005s11710.1"	177	"	"T/C"	"65,8/34,2"	"25/13"	38
controllo_3	"POPTR_0005s11710.1"	177	"	"T/C"	"57,1/42,9"	"64/48"	112	stress_42	"POPTR_0005s11710.1"	177	"	"C/T"	"71,4/28,6"	"15/6"	21
controllo_3	"POPTR_0005s11710.1"	177	"	"T/C"	"57,1/42,9"	"64/48"	112	stress_45	"POPTR_0005s11710.1"	177	"	"C/T"	"52,0/48,0"	"13/12"	25
controllo_3	"POPTR_0284s00200.1"	363	"	"A/G"	"57,1/42,9"	"8/6"	14	stress_42	"POPTR_0284s00200.1"	363	"	"G/A"	"75,6/23,7"	"99/31"	131
controllo_3	"POPTR_0284s00200.1"	363	"	"A/G"	"57,1/42,9"	"8/6"	14	stress_45	"POPTR_0284s00200.1"	363	"	"G/A"	"75,8/24,2"	"116/37"	153
controllo_3	"POPTR_0017s14470.1"	870	"	"G/T"	"57,1/42,9"	"40/30"	70	stress_42	"POPTR_0017s14470.1"	870	"	"G/T"	"63,8/36,2"	"67/38"	105
controllo_3	"POPTR_0017s14470.1"	870	"	"G/T"	"57,1/42,9"	"40/30"	70	stress_45	"POPTR_0017s14470.1"	870	"	"G/T"	"63,6/36,4"	"105/60"	165
controllo_3	"POPTR_0006s08750.1"	126	"	"C/G"	"57,1/42,9"	"68/51"	119	stress_12bis	"POPTR_0006s08750.1"	126	"	"C/G"	"65,2/34,8"	"43/23"	66
controllo_3	"POPTR_0006s08750.1"	126	"	"C/G"	"57,1/42,9"	"68/51"	119	stress_42	"POPTR_0006s08750.1"	126	"	"C/G"	"66,7/33,3"	"18/9"	27
controllo_3	"POPTR_0006s08750.1"	126	"	"C/G"	"57,1/42,9"	"68/51"	119	stress_45	"POPTR_0006s08750.1"	126	"	"C/G"	"56,0/44,0"	"14/11"	25
controllo_3	"POPTR_0006s16030.1"	549	"	"G/A"	"57,1/42,9"	"124/93"	217	stress_42	"POPTR_0006s16030.1"	549	"	"G/A"	"81,8/18,2"	"9/2"	11
controllo_3	"POPTR_0003s04990.1"	228	"	"G/A"	"57,1/42,9"	"60/45"	105	stress_12bis	"POPTR_0003s04990.1"	228	"	"G/A"	"61,3/38,7"	"19/12"	31
controllo_3	"POPTR_0003s04990.1"	228	"	"G/A"	"57,1/42,9"	"60/45"	105	stress_42	"POPTR_0003s04990.1"	228	"	"A/G"	"64,3/35,7"	"9/5"	14
controllo_3	"POPTR_0003s04990.1"	228	"	"G/A"	"57,1/42,9"	"60/45"	105	stress_45	"POPTR_0003s04990.1"	228	"	"G/A"	"61,8/38,2"	"21/13"	34
controllo_3	"POPTR_0013s12130.1"	314	"	"A/T"	"57,1/42,9"	"88/66"	154	stress_12bis	"POPTR_0013s12130.1"	314	"	"A/T"	"62,9/37,1"	"22/13"	35
controllo_3	"POPTR_0013s12130.1"	314	"	"A/T"	"57,1/42,9"	"88/66"	154	stress_42	"POPTR_0013s12130.1"	314	"	"A/T"	"64,3/35,7"	"9/5"	14
controllo_3	"POPTR_0013s12130.1"	314	"	"A/T"	"57,1/42,9"	"88/66"	154	stress_45	"POPTR_0013s12130.1"	314	"	"A/T"	"70,0/30,0"	"14/6"	20
controllo_3	"POPTR_0014s08410.1"	303	"	"G/T"	"57,1/42,9"	"64/48"	112	stress_12bis	"POPTR_0014s08410.1"	303	"	"T/G"	"50,9/49,1"	"29/28"	57
controllo_3	"POPTR_0014s08410.1"	303	"	"G/T"	"57,1/42,9"	"64/48"	112	stress_42	"POPTR_0014s08410.1"	303	"	"G/T"	"50,0/50,0"	"6/6"	12
controllo_3	"POPTR_0014s08410.1"	303	"	"G/T"	"57,1/42,9"	"64/48"	112	stress_45	"POPTR_0014s08410.1"	303	"	"T/G"	"56,8/43,2"	"21/16"	37
controllo_3	"POPTR_0014s08410.1"	1266	"	"C/G"	"57,1/42,9"	"64/48"	112	stress_12bis	"POPTR_0014s08410.1"	1266	"	"C/G"	"50,8/49,2"	"30/29"	59
controllo_3	"POPTR_0014s08410.1"	1266	"	"C/G"	"57,1/42,9"	"64/48"	112	stress_42	"POPTR_0014s08410.1"	1266	"	"G/C"	"54,2/45,8"	"13/11"	24
controllo_3	"POPTR_0014s08410.1"	1266	"	"C/G"	"57,1/42,9"	"64/48"	112	stress_45	"POPTR_0014s08410.1"	1266	"	"G/C"	"53,7/46,3"	"22/19"	41
controllo_3	"POPTR_0012s11630.1"	474	"	"C/T"	"57,1/42,9"	"129/97"	226	stress_12bis	"POPTR_0012s11630.1"	474	"	"C/T"	"67,5/32,5"	"77/37"	114
controllo_3	"POPTR_0012s11630.1"	474	"	"C/T"	"57,1/42,9"	"129/97"	226	stress_42	"POPTR_0012s11630.1"	474	"	"C/T"	"72,2/27,8"	"52/20"	72
controllo_3	"POPTR_0012s11630.1"	474	"	"C/T"	"57,1/42,9"	"129/97"	226	stress_45	"POPTR_0012s11630.1"	474	"	"C/T"	"62,8/37,2"	"49/29"	78
controllo_3	"POPTR_0012s03610.1"	369	"	"T/C"	"57,1/42,9"	"93/70"	163	stress_12bis	"POPTR_0012s03610.1"	369	"	"C/T"	"50,0/50,0"	"33/33"	66
controllo_3	"POPTR_0012s03610.1"	369	"	"T/C"	"57,1/42,9"	"93/70"	163	stress_42	"POPTR_0012s03610.1"	369	"	"T/C"	"58,3/41,7"	"7/5"	12
controllo_3	"POPTR_0012s03610.1"	369	"	"T/C"	"57,1/42,9"	"93/70"	163	stress_45	"POPTR_0012s03610.1"	369	"	"T/C"	"58,3/41,7"	"14/10"	24
controllo_3	"POPTR_0015s08540.1"	1047	"	"C/T"	"57,1/42,9"	"125/94"	219	stress_12bis	"POPTR_0015s08540.1"	1047	"	"T/C"	"51,4/48,6"	"37/35"	72
controllo_3	"POPTR_0015s08540.1"	1047	"	"C/T"	"57,1/42,9"	"125/94"	219	stress_42	"POPTR_0015s08540.1"	1047	"	"T/C"	"54,8/45,2"	"17/14"	31
controllo_3	"POPTR_0015s08540.1"	1047	"	"C/T"	"57,1/42,9"	"125/94"	219	stress_45	"POPTR_0015s08540.1"	1047	"	"C/T"	"57,1/42,9"	"20/15"	35
controllo_3	"POPTR_0001s40700.1"	288	"	"C/T"	"57,1/42,9"	"152/114"	266	stress_12bis	"POPTR_0001s40700.1"	288	"	"C/T"	"55,3/44,7"	"57/46"	103
controllo_3	"POPTR_0001s40700.1"	288	"	"C/T"	"57,1/42,9"	"152/114"	266	stress_42	"POPTR_0001s40700.1"	288	"	"C/T"	"60,5/39,5"	"26/17"	43
controllo_3	"POPTR_0001s40700.1"	288	"	"C/T"	"57,1/42,9"	"152/114"	266	stress_45	"POPTR_0001s40700.1"	288	"	"C/T"	"71,8/28,2"	"51/20"	71
controllo_3	"POPTR_0001s26960.1"	78	"	"A/C"	"57,1/42,9"	"129/97"	226	stress_12bis	"POPTR_0001s26960.1"	78	"	"A/C"	"55,3/44,7"	"26/21"	47
controllo_3	"POPTR_0001s26960.1"	78	"	"A/C"	"57,1/42,9"	"129/97"	226	stress_42	"POPTR_0001s26960.1"	78	"	"A/C"	"55,0/45,0"	"11/9"	20
controllo_3	"POPTR_0001s26960.1"	78	"	"A/C"	"57,1/42,9"	"129/97"	226	stress_45	"POPTR_0001s26960.1"	78	"	"C/A"	"60,9/39,1"	"14/9"	23
controllo_3	"POPTR_0002s25170.1"	181	"	"T/C"	"57,1/42,9"	"89/67"	156	stress_12bis	"POPTR_0002s25170.1"	181	"	"T/C"	"52,1/47,9"	"37/34"	71
controllo_3	"POPTR_0002s25170.1"	181	"	"T/C"	"57,1/42,9"	"89/67"	156	stress_42	"POPTR_0002s25170.1"	181	"	"C/T"	"64,9/35,1"	"37/20"	57
controllo_3	"POPTR_0002s25170.1"	181	"	"T/C"	"57,1/42,9"	"89/67"	156	stress_45	"POPTR_0002s25170.1"	181	"	"C/T"	"50,0/50,0"	"45/45"	90
controllo_3	"POPTR_0002s04790.1"	471	"	"A/G"	"57,1/42,9"	"105/79"	184	stress_12bis	"POPTR_0002s04790.1"	471	"	"G/A"	"62,2/37,8"	"28/17"	45
controllo_3	"POPTR_0002s04790.1"	471	"	"A/G"	"57,1/42,9"	"105/79"	184	stress_42	"POPTR_0002s04790.1"	471	"	"G/A"	"57,1/42,9"	"12/9"	21
controllo_3	"POPTR_0002s04790.1"	471	"	"A/G"	"57,1/42,9"	"105/79"	184	stress_45	"POPTR_0002s04790.1"	471	"	"A/G"	"62,5/37,5"	"10/6"	16
controllo_3	"POPTR_0002s08010.1"	1021	"	"C/T"	"57,1/42,9"	"96/72"	168	stress_12bis	"POPTR_0002s08010.1"	1021	"	"C/T"	"52,9/47,1"	"18/16"	34
controllo_3	"POPTR_0002s08010.1"	1021	"	"C/T"	"57,1/42,9"	"96/72"	168	stress_45	"POPTR_0002s08010.1"	1021	"	"T/C"	"60,0/40,0"	"9/6"	15
controllo_3	"POPTR_0002s05780.1"	1101	"	"C/T"	"57,1/42,9"	"68/51"	119	stress_42	"POPTR_0002s05780.1"	1101	"	"C/T"	"64,0/36,0"	"16/9"	25
controllo_3	"POPTR_0002s05780.1"	1101	"	"C/T"	"57,1/42,9"	"68/51"	119	stress_45	"POPTR_0002s05780.1"	1101	"	"T/C"	"64,7/35,3"	"11/6"	17
controllo_3	"POPTR_0008s03160.1"	519	"	"C/T"	"57,1/42,9"	"165/124"	289	stress_12bis	"POPTR_0008s03160.1"	519	"	"T/C"	"54,5/45,5"	"54/45"	99
controllo_3	"POPTR_0008s03160.1"	519	"	"C/T"	"57,1/42,9"	"165/124"	289	stress_42	"POPTR_0008s03160.1"	519	"	"T/C"	"77,8/22,2"	"21/6"	27
controllo_3	"POPTR_0008s03160.1"	519	"	"C/T"	"57,1/42,9"	"165/124"	289	stress_45	"POPTR_0008s03160.1"	519	"	"T/C"	"54,4/45,6"	"31/26"	57
controllo_3	"POPTR_0008s14480.1"	513	"	"T/C"	"57,1/42,9"	"96/72"	168	stress_12bis	"POPTR_0008s14480.1"	513	"	"T/C"	"76,9/23,1"	"30/9"	39
controllo_3	"POPTR_0008s14480.1"	513	"	"T/C"	"57,1/42,9"	"96/72"	168	stress_42	"POPTR_0008s14480.1"	513	"	"T/C"	"58,3/41,7"	"7/5"	12
controllo_3	"POPTR_0008s14480.1"	513	"	"T/C"	"57,1/42,9"	"96/72"	168	stress_45	"POPTR_0008s14480.1"	513	"	"T/C"	"52,6/47,4"	"10/9"	19
controllo_3	"POPTR_0008s05640.1"	641	"	"G/A"	"57,1/42,9"	"68/51"	119	stress_12bis	"POPTR_0008s05640.1"	641	"	"G/A"	"64,0/36,0"	"16/9"	25
controllo_3	"POPTR_0008s05640.1"	641	"	"G/A"	"57,1/42,9"	"68/51"	119	stress_42	"POPTR_0008s05640.1"	641	"	"A/G"	"60,0/40,0"	"12/8"	20
controllo_3	"POPTR_0008s05640.1"	641	"	"G/A"	"57,1/42,9"	"68/51"	119	stress_45	"POPTR_0008s05640.1"	641	"	"A/G"	"50,0/50,0"	"11/11"	22
controllo_3	"POPTR_0008s06720.1"	79	"	"G/A"	"57,1/42,9"	"997/749"	1747	stress_12bis	"POPTR_0008s06720.1"	79	"	"G/A"	"60,7/39,3"	"275/178"	453
controllo_3	"POPTR_0008s06720.1"	79	"	"G/A"	"57,1/42,9"	"997/749"	1747	stress_42	"POPTR_0008s06720.1"	79	"	"A/G"	"67,3/32,7"	"68/33"	101
controllo_3	"POPTR_0008s06720.1"	79	"	"G/A"	"57,1/42,9"	"997/749"	1747	stress_45	"POPTR_0008s06720.1"	79	"	"A/G"	"65,0/35,0"	"78/42"	120
controllo_3	"POPTR_0016s11670.1"	261	"	"T/C"	"57,1/42,9"	"76/57"	133	stress_12bis	"POPTR_0016s11670.1"	261	"	"T/C"	"58,7/41,3"	"27/19"	46
controllo_3	"POPTR_0016s11670.1"	261	"	"T/C"	"57,1/42,9"	"76/57"	133	stress_42	"POPTR_0016s11670.1"	261	"	"C/T"	"54,2/45,8"	"52/44"	96
controllo_3	"POPTR_0016s11670.1"	261	"	"T/C"	"57,1/42,9"	"76/57"	133	stress_45	"POPTR_0016s11670.1"	261	"	"C/T"	"60,0/40,0"	"66/44"	110
controllo_3	"POPTR_0016s08520.1"	1036	"	"T/G"	"57,1/42,9"	"44/33"	77	stress_45	"POPTR_0016s08520.1"	1036	"	"T/G"	"56,6/43,4"	"69/53"	122
controllo_3	"POPTR_0016s12110.1"	269	"	"G/C"	"57,1/42,9"	"76/57"	133	stress_12bis	"POPTR_0016s12110.1"	269	"	"G/C"	"56,2/43,8"	"27/21"	48
controllo_3	"POPTR_0016s12110.1"	269	"	"G/C"	"57,1/42,9"	"76/57"	133	stress_42	"POPTR_0016s12110.1"	269	"	"G/C"	"52,6/47,4"	"10/9"	19
controllo_3	"POPTR_0016s12110.1"	269	"	"G/C"	"57,1/42,9"	"76/57"	133	stress_45	"POPTR_0016s12110.1"	269	"	"G/C"	"66,7/33,3"	"12/6"	18
controllo_3	"POPTR_0025s00560.1"	1821	"	"T/C"	"57,1/42,9"	"60/45"	105	stress_12bis	"POPTR_0025s00560.1"	1821	"	"C/T"	"64,3/35,7"	"18/10"	28
controllo_3	"POPTR_0025s00560.1"	1821	"	"T/C"	"57,1/42,9"	"60/45"	105	stress_42	"POPTR_0025s00560.1"	1821	"	"C/T"	"50,0/50,0"	"18/18"	36
controllo_3	"POPTR_0025s00560.1"	1821	"	"T/C"	"57,1/42,9"	"60/45"	105	stress_45	"POPTR_0025s00560.1"	1821	"	"C/T"	"62,5/37,5"	"30/18"	48
controllo_3	"POPTR_0006s11570.1"	522	"	"C/T"	"57,2/42,2"	"107/79"	187	stress_12bis	"POPTR_0006s11570.1"	522	"	"C/T"	"59,5/40,5"	"44/30"	74
controllo_3	"POPTR_0006s11570.1"	522	"	"C/T"	"57,2/42,2"	"107/79"	187	stress_42	"POPTR_0006s11570.1"	522	"	"C/T"	"63,3/36,7"	"38/22"	60
controllo_3	"POPTR_0006s11570.1"	522	"	"C/T"	"57,2/42,2"	"107/79"	187	stress_45	"POPTR_0006s11570.1"	522	"	"T/C"	"51,7/48,3"	"46/43"	89
controllo_3	"POPTR_0009s01470.1"	1566	"	"G/A"	"57,2/42,3"	"111/82"	194	stress_12bis	"POPTR_0009s01470.1"	1566	"	"G/A"	"51,4/48,6"	"36/34"	70
controllo_3	"POPTR_0009s01470.1"	1566	"	"G/A"	"57,2/42,3"	"111/82"	194	stress_42	"POPTR_0009s01470.1"	1566	"	"G/A"	"62,9/37,1"	"22/13"	35
controllo_3	"POPTR_0009s01470.1"	1566	"	"G/A"	"57,2/42,3"	"111/82"	194	stress_45	"POPTR_0009s01470.1"	1566	"	"G/A"	"62,5/37,5"	"30/18"	48
controllo_3	"POPTR_0005s13860.1"	138	"	"T/C"	"57,2/42,6"	"481/358"	841	stress_12bis	"POPTR_0005s13860.1"	138	"	"T/C"	"60,1/39,9"	"134/89"	223
controllo_3	"POPTR_0005s13860.1"	138	"	"T/C"	"57,2/42,6"	"481/358"	841	stress_42	"POPTR_0005s13860.1"	138	"	"T/C"	"71,4/28,6"	"35/14"	49
controllo_3	"POPTR_0005s13860.1"	138	"	"T/C"	"57,2/42,6"	"481/358"	841	stress_45	"POPTR_0005s13860.1"	138	"	"T/C"	"61,5/38,5"	"59/37"	96
controllo_3	"POPTR_0006s13310.1"	654	"	"T/A"	"57,2/42,8"	"341/255"	596	stress_12bis	"POPTR_0006s13310.1"	654	"	"T/A"	"64,8/35,2"	"342/186"	528
controllo_3	"POPTR_0006s13310.1"	654	"	"T/A"	"57,2/42,8"	"341/255"	596	stress_42	"POPTR_0006s13310.1"	654	"	"T/A"	"62,1/37,9"	"200/122"	322
controllo_3	"POPTR_0006s13310.1"	654	"	"T/A"	"57,2/42,8"	"341/255"	596	stress_45	"POPTR_0006s13310.1"	654	"	"T/A"	"56,7/43,1"	"314/239"	554
controllo_3	"POPTR_0006s11570.1"	1218	"	"G/A"	"57,2/42,8"	"158/118"	276	stress_12bis	"POPTR_0006s11570.1"	1218	"	"G/A"	"56,1/43,9"	"60/47"	107
controllo_3	"POPTR_0006s11570.1"	1218	"	"G/A"	"57,2/42,8"	"158/118"	276	stress_42	"POPTR_0006s11570.1"	1218	"	"G/A"	"53,3/46,7"	"64/56"	120
controllo_3	"POPTR_0006s11570.1"	1218	"	"G/A"	"57,2/42,8"	"158/118"	276	stress_45	"POPTR_0006s11570.1"	1218	"	"G/A"	"59,2/40,8"	"74/51"	125
controllo_3	"POPTR_0018s11820.1"	1218	"	"A/G"	"57,2/42,8"	"298/223"	521	stress_12bis	"POPTR_0018s11820.1"	1218	"	"G/A"	"52,3/47,7"	"79/72"	151
controllo_3	"POPTR_0018s11820.1"	1218	"	"A/G"	"57,2/42,8"	"298/223"	521	stress_42	"POPTR_0018s11820.1"	1218	"	"A/G"	"56,7/43,3"	"17/13"	30
controllo_3	"POPTR_0018s11820.1"	1218	"	"A/G"	"57,2/42,8"	"298/223"	521	stress_45	"POPTR_0018s11820.1"	1218	"	"A/G"	"67,7/32,3"	"21/10"	31
controllo_3	"POPTR_0018s09730.1"	711	"	"A/G"	"57,2/42,8"	"79/59"	138	stress_12bis	"POPTR_0018s09730.1"	711	"	"A/G"	"72,0/28,0"	"18/7"	25
controllo_3	"POPTR_0018s09730.1"	711	"	"A/G"	"57,2/42,8"	"79/59"	138	stress_42	"POPTR_0018s09730.1"	711	"	"A/G"	"58,3/41,7"	"123/88"	211
controllo_3	"POPTR_0018s09730.1"	711	"	"A/G"	"57,2/42,8"	"79/59"	138	stress_45	"POPTR_0018s09730.1"	711	"	"A/G"	"58,8/41,2"	"190/133"	323
controllo_3	"POPTR_0019s08090.1"	525	"	"T/C"	"57,2/42,8"	"83/62"	145	stress_12bis	"POPTR_0019s08090.1"	525	"	"C/T"	"51,9/48,1"	"27/25"	52
controllo_3	"POPTR_0019s08090.1"	525	"	"T/C"	"57,2/42,8"	"83/62"	145	stress_42	"POPTR_0019s08090.1"	525	"	"C/T"	"79,6/20,4"	"43/11"	54
controllo_3	"POPTR_0019s08090.1"	525	"	"T/C"	"57,2/42,8"	"83/62"	145	stress_45	"POPTR_0019s08090.1"	525	"	"C/T"	"62,3/37,7"	"38/23"	61
controllo_3	"POPTR_0013s07050.1"	1155	"	"G/A"	"57,2/42,8"	"91/68"	159	stress_12bis	"POPTR_0013s07050.1"	1155	"	"G/A"	"59,6/40,4"	"28/19"	47
controllo_3	"POPTR_0013s07050.1"	1155	"	"G/A"	"57,2/42,8"	"91/68"	159	stress_42	"POPTR_0013s07050.1"	1155	"	"G/A"	"66,7/33,3"	"36/18"	54
controllo_3	"POPTR_0013s07050.1"	1155	"	"G/A"	"57,2/42,8"	"91/68"	159	stress_45	"POPTR_0013s07050.1"	1155	"	"G/A"	"60,5/39,5"	"72/47"	119
controllo_3	"POPTR_0014s02550.1"	849	"	"G/A"	"57,2/42,8"	"79/59"	138	stress_12bis	"POPTR_0014s02550.1"	849	"	"G/A"	"67,4/32,6"	"29/14"	43
controllo_3	"POPTR_0014s02550.1"	849	"	"G/A"	"57,2/42,8"	"79/59"	138	stress_42	"POPTR_0014s02550.1"	849	"	"G/A"	"55,3/44,7"	"26/21"	47
controllo_3	"POPTR_0014s02550.1"	849	"	"G/A"	"57,2/42,8"	"79/59"	138	stress_45	"POPTR_0014s02550.1"	849	"	"G/A"	"65,8/34,2"	"52/27"	79
controllo_3	"POPTR_0011s14410.1"	119	"	"A/G"	"57,2/42,8"	"305/228"	533	stress_12bis	"POPTR_0011s14410.1"	119	"	"A/G"	"56,9/43,1"	"62/47"	109
controllo_3	"POPTR_0011s14410.1"	119	"	"A/G"	"57,2/42,8"	"305/228"	533	stress_42	"POPTR_0011s14410.1"	119	"	"A/G"	"66,7/33,3"	"12/6"	18
controllo_3	"POPTR_0011s14410.1"	119	"	"A/G"	"57,2/42,8"	"305/228"	533	stress_45	"POPTR_0011s14410.1"	119	"	"A/G"	"65,0/35,0"	"13/7"	20
controllo_3	"POPTR_0011s14410.1"	120	"	"G/C"	"57,2/42,8"	"315/236"	551	stress_12bis	"POPTR_0011s14410.1"	120	"	"G/C"	"58,5/41,5"	"62/44"	106
controllo_3	"POPTR_0011s14410.1"	120	"	"G/C"	"57,2/42,8"	"315/236"	551	stress_42	"POPTR_0011s14410.1"	120	"	"G/C"	"72,2/27,8"	"13/5"	18
controllo_3	"POPTR_0011s14410.1"	120	"	"G/C"	"57,2/42,8"	"315/236"	551	stress_45	"POPTR_0011s14410.1"	120	"	"G/C"	"66,7/33,3"	"12/6"	18
controllo_3	"POPTR_0010s22950.1"	63	"	"T/A"	"57,2/42,8"	"79/59"	138	stress_12bis	"POPTR_0010s22950.1"	63	"	"A/T"	"56,2/43,8"	"9/7"	16
controllo_3	"POPTR_0010s22950.1"	63	"	"T/A"	"57,2/42,8"	"79/59"	138	stress_42	"POPTR_0010s22950.1"	63	"	"T/A"	"52,7/47,3"	"117/105"	222
controllo_3	"POPTR_0010s22950.1"	63	"	"T/A"	"57,2/42,8"	"79/59"	138	stress_45	"POPTR_0010s22950.1"	63	"	"T/A"	"53,2/46,8"	"223/196"	419
controllo_3	"POPTR_0002s01740.1"	27	"	"T/A"	"57,2/42,8"	"246/184"	430	stress_12bis	"POPTR_0002s01740.1"	27	"	"T/A"	"58,7/41,3"	"37/26"	63
controllo_3	"POPTR_0002s01740.1"	27	"	"T/A"	"57,2/42,8"	"246/184"	430	stress_42	"POPTR_0002s01740.1"	27	"	"T/A"	"63,2/36,8"	"12/7"	19
controllo_3	"POPTR_0002s01740.1"	27	"	"T/A"	"57,2/42,8"	"246/184"	430	stress_45	"POPTR_0002s01740.1"	27	"	"A/T"	"52,6/47,4"	"10/9"	19
controllo_3	"POPTR_0002s18020.1"	1225	"	"T/C"	"57,2/42,8"	"79/59"	138	stress_12bis	"POPTR_0002s18020.1"	1225	"	"T/C"	"50,8/49,2"	"30/29"	59
controllo_3	"POPTR_0002s18020.1"	1225	"	"T/C"	"57,2/42,8"	"79/59"	138	stress_42	"POPTR_0002s18020.1"	1225	"	"T/C"	"57,0/41,8"	"45/33"	79
controllo_3	"POPTR_0002s18020.1"	1225	"	"T/C"	"57,2/42,8"	"79/59"	138	stress_45	"POPTR_0002s18020.1"	1225	"	"C/T"	"50,6/49,4"	"45/44"	89
controllo_3	"POPTR_0002s02310.1"	210	"	"G/A"	"57,2/42,8"	"123/92"	215	stress_12bis	"POPTR_0002s02310.1"	210	"	"G/A"	"65,1/34,9"	"41/22"	63
controllo_3	"POPTR_0002s02310.1"	210	"	"G/A"	"57,2/42,8"	"123/92"	215	stress_42	"POPTR_0002s02310.1"	210	"	"A/G"	"71,6/28,4"	"48/19"	67
controllo_3	"POPTR_0002s02310.1"	210	"	"G/A"	"57,2/42,8"	"123/92"	215	stress_45	"POPTR_0002s02310.1"	210	"	"A/G"	"55,2/44,8"	"37/30"	67
controllo_3	"POPTR_0003s18530.1"	951	"	"A/T"	"57,3/41,9"	"67/49"	117	stress_12bis	"POPTR_0003s18530.1"	951	"	"A/T"	"61,7/38,3"	"29/18"	47
controllo_3	"POPTR_0003s18530.1"	951	"	"A/T"	"57,3/41,9"	"67/49"	117	stress_42	"POPTR_0003s18530.1"	951	"	"A/T"	"51,2/48,8"	"21/20"	41
controllo_3	"POPTR_0003s18530.1"	951	"	"A/T"	"57,3/41,9"	"67/49"	117	stress_45	"POPTR_0003s18530.1"	951	"	"A/T"	"56,0/42,0"	"28/21"	50
controllo_3	"POPTR_0007s10980.1"	849	"	"T/C"	"57,3/42,3"	"141/104"	246	stress_12bis	"POPTR_0007s10980.1"	849	"	"C/T"	"62,2/37,8"	"51/31"	82
controllo_3	"POPTR_0007s10980.1"	849	"	"T/C"	"57,3/42,3"	"141/104"	246	stress_42	"POPTR_0007s10980.1"	849	"	"T/C"	"62,5/37,5"	"10/6"	16
controllo_3	"POPTR_0007s10980.1"	849	"	"T/C"	"57,3/42,3"	"141/104"	246	stress_45	"POPTR_0007s10980.1"	849	"	"T/C"	"51,5/48,5"	"17/16"	33
controllo_3	"POPTR_0001s01630.1"	1104	"	"A/C"	"57,3/42,4"	"223/165"	389	stress_12bis	"POPTR_0001s01630.1"	1104	"	"A/C"	"58,6/41,4"	"51/36"	87
controllo_3	"POPTR_0001s01630.1"	1104	"	"A/C"	"57,3/42,4"	"223/165"	389	stress_42	"POPTR_0001s01630.1"	1104	"	"C/A"	"57,1/42,9"	"8/6"	14
controllo_3	"POPTR_0005s26170.1"	66	"	"T/G"	"57,3/42,7"	"121/90"	211	stress_12bis	"POPTR_0005s26170.1"	66	"	"T/G"	"69,6/29,0"	"48/20"	69
controllo_3	"POPTR_0005s26170.1"	66	"	"T/G"	"57,3/42,7"	"121/90"	211	stress_42	"POPTR_0005s26170.1"	66	"	"G/T"	"60,9/39,1"	"28/18"	46
controllo_3	"POPTR_0005s26170.1"	66	"	"T/G"	"57,3/42,7"	"121/90"	211	stress_45	"POPTR_0005s26170.1"	66	"	"T/G"	"63,5/36,5"	"33/19"	52
controllo_3	"POPTR_0017s08610.1"	487	"	"T/C"	"57,3/42,7"	"47/35"	82	stress_45	"POPTR_0017s08610.1"	487	"	"C/T"	"56,9/43,1"	"74/56"	130
controllo_3	"POPTR_0006s24770.1"	258	"	"G/T"	"57,3/42,7"	"153/114"	267	stress_12bis	"POPTR_0006s24770.1"	258	"	"G/T"	"65,8/34,2"	"98/51"	149
controllo_3	"POPTR_0006s24770.1"	258	"	"G/T"	"57,3/42,7"	"153/114"	267	stress_42	"POPTR_0006s24770.1"	258	"	"G/T"	"52,1/47,9"	"50/46"	96
controllo_3	"POPTR_0006s24770.1"	258	"	"G/T"	"57,3/42,7"	"153/114"	267	stress_45	"POPTR_0006s24770.1"	258	"	"G/T"	"50,0/50,0"	"71/71"	142
controllo_3	"POPTR_0003s08800.1"	2022	"	"A/C"	"57,3/42,7"	"67/50"	117	stress_12bis	"POPTR_0003s08800.1"	2022	"	"A/C"	"63,9/36,1"	"23/13"	36
controllo_3	"POPTR_0003s08800.1"	2022	"	"A/C"	"57,3/42,7"	"67/50"	117	stress_42	"POPTR_0003s08800.1"	2022	"	"C/A"	"59,1/40,9"	"13/9"	22
controllo_3	"POPTR_0003s08800.1"	2022	"	"A/C"	"57,3/42,7"	"67/50"	117	stress_45	"POPTR_0003s08800.1"	2022	"	"C/A"	"53,6/46,4"	"15/13"	28
controllo_3	"POPTR_0013s07440.1"	906	"	"G/A"	"57,3/42,7"	"63/47"	110	stress_12bis	"POPTR_0013s07440.1"	906	"	"G/A"	"59,0/41,0"	"23/16"	39
controllo_3	"POPTR_0013s07440.1"	906	"	"G/A"	"57,3/42,7"	"63/47"	110	stress_42	"POPTR_0013s07440.1"	906	"	"G/A"	"61,5/38,5"	"16/10"	26
controllo_3	"POPTR_0013s07440.1"	906	"	"G/A"	"57,3/42,7"	"63/47"	110	stress_45	"POPTR_0013s07440.1"	906	"	"G/A"	"52,9/47,1"	"18/16"	34
controllo_3	"POPTR_0014s14200.1"	831	"	"G/A"	"57,3/42,7"	"114/85"	199	stress_12bis	"POPTR_0014s14200.1"	831	"	"G/A"	"58,8/41,2"	"10/7"	17
controllo_3	"POPTR_0014s14200.1"	831	"	"G/A"	"57,3/42,7"	"114/85"	199	stress_42	"POPTR_0014s14200.1"	831	"	"G/A"	"61,9/38,1"	"13/8"	21
controllo_3	"POPTR_0014s14200.1"	831	"	"G/A"	"57,3/42,7"	"114/85"	199	stress_45	"POPTR_0014s14200.1"	831	"	"G/A"	"68,3/31,7"	"56/26"	82
controllo_3	"POPTR_0004s07280.1"	900	"	"C/T"	"57,3/42,7"	"59/44"	103	stress_12bis	"POPTR_0004s07280.1"	900	"	"C/T"	"66,7/33,3"	"20/10"	30
controllo_3	"POPTR_0004s07280.1"	900	"	"C/T"	"57,3/42,7"	"59/44"	103	stress_42	"POPTR_0004s07280.1"	900	"	"C/T"	"68,4/31,6"	"26/12"	38
controllo_3	"POPTR_0004s07280.1"	900	"	"C/T"	"57,3/42,7"	"59/44"	103	stress_45	"POPTR_0004s07280.1"	900	"	"C/T"	"77,5/22,5"	"31/9"	40
controllo_3	"POPTR_0009s06720.1"	95	"	"C/T"	"57,3/42,7"	"82/61"	143	stress_12bis	"POPTR_0009s06720.1"	95	"	"C/T"	"54,3/45,7"	"25/21"	46
controllo_3	"POPTR_0009s06720.1"	95	"	"C/T"	"57,3/42,7"	"82/61"	143	stress_42	"POPTR_0009s06720.1"	95	"	"T/C"	"52,9/47,1"	"9/8"	17
controllo_3	"POPTR_0009s06720.1"	95	"	"C/T"	"57,3/42,7"	"82/61"	143	stress_45	"POPTR_0009s06720.1"	95	"	"C/T"	"57,9/42,1"	"11/8"	19
controllo_3	"POPTR_0009s01320.1"	471	"	"A/G"	"57,3/42,7"	"145/108"	253	stress_12bis	"POPTR_0009s01320.1"	471	"	"A/G"	"61,5/38,5"	"152/95"	247
controllo_3	"POPTR_0009s01320.1"	471	"	"A/G"	"57,3/42,7"	"145/108"	253	stress_42	"POPTR_0009s01320.1"	471	"	"A/G"	"57,0/42,5"	"130/97"	228
controllo_3	"POPTR_0009s01320.1"	471	"	"A/G"	"57,3/42,7"	"145/108"	253	stress_45	"POPTR_0009s01320.1"	471	"	"A/G"	"55,1/44,9"	"173/141"	314
controllo_3	"POPTR_0009s01470.1"	1719	"	"T/C"	"57,3/42,7"	"71/53"	124	stress_12bis	"POPTR_0009s01470.1"	1719	"	"T/C"	"65,4/34,6"	"17/9"	26
controllo_3	"POPTR_0009s01470.1"	1719	"	"T/C"	"57,3/42,7"	"71/53"	124	stress_42	"POPTR_0009s01470.1"	1719	"	"T/C"	"58,6/41,4"	"17/12"	29
controllo_3	"POPTR_0009s01470.1"	1719	"	"T/C"	"57,3/42,7"	"71/53"	124	stress_45	"POPTR_0009s01470.1"	1719	"	"T/C"	"51,7/48,3"	"15/14"	29
controllo_3	"POPTR_0001s15230.1"	249	"	"T/C"	"57,3/42,7"	"75/56"	131	stress_12bis	"POPTR_0001s15230.1"	249	"	"T/C"	"62,5/37,5"	"40/24"	64
controllo_3	"POPTR_0001s15230.1"	249	"	"T/C"	"57,3/42,7"	"75/56"	131	stress_42	"POPTR_0001s15230.1"	249	"	"T/C"	"56,2/43,8"	"9/7"	16
controllo_3	"POPTR_0001s15230.1"	249	"	"T/C"	"57,3/42,7"	"75/56"	131	stress_45	"POPTR_0001s15230.1"	249	"	"C/T"	"51,9/48,1"	"14/13"	27
controllo_3	"POPTR_0001s24670.1"	180	"	"T/C"	"57,3/42,7"	"59/44"	103	stress_12bis	"POPTR_0001s24670.1"	180	"	"T/C"	"78,9/21,1"	"15/4"	19
controllo_3	"POPTR_0001s24670.1"	180	"	"T/C"	"57,3/42,7"	"59/44"	103	stress_42	"POPTR_0001s24670.1"	180	"	"T/C"	"76,9/23,1"	"10/3"	13
controllo_3	"POPTR_0007s12010.1"	373	"	"C/G"	"57,3/42,7"	"98/73"	171	stress_12bis	"POPTR_0007s12010.1"	373	"	"C/G"	"51,2/48,8"	"21/20"	41
controllo_3	"POPTR_0007s12010.1"	373	"	"C/G"	"57,3/42,7"	"98/73"	171	stress_42	"POPTR_0007s12010.1"	373	"	"C/G"	"66,7/33,3"	"8/4"	12
controllo_3	"POPTR_0007s12010.1"	373	"	"C/G"	"57,3/42,7"	"98/73"	171	stress_45	"POPTR_0007s12010.1"	373	"	"G/C"	"53,8/46,2"	"7/6"	13
controllo_3	"POPTR_0002s06680.1"	543	"	"G/A"	"57,3/42,7"	"43/32"	75	stress_45	"POPTR_0002s06680.1"	543	"	"A/G"	"52,0/48,0"	"53/49"	102
controllo_3	"POPTR_0002s05660.1"	131	"	"C/T"	"57,3/42,7"	"473/353"	826	stress_12bis	"POPTR_0002s05660.1"	131	"	"C/T"	"56,9/43,1"	"156/118"	274
controllo_3	"POPTR_0002s05660.1"	131	"	"C/T"	"57,3/42,7"	"473/353"	826	stress_42	"POPTR_0002s05660.1"	131	"	"T/C"	"51,1/47,8"	"46/43"	90
controllo_3	"POPTR_0002s05660.1"	131	"	"C/T"	"57,3/42,7"	"473/353"	826	stress_45	"POPTR_0002s05660.1"	131	"	"C/T"	"50,9/48,1"	"54/51"	106
controllo_3	"POPTR_0008s01960.1"	969	"	"A/G"	"57,3/42,7"	"86/64"	150	stress_12bis	"POPTR_0008s01960.1"	969	"	"G/A"	"53,5/46,5"	"23/20"	43
controllo_3	"POPTR_0008s01960.1"	969	"	"A/G"	"57,3/42,7"	"86/64"	150	stress_42	"POPTR_0008s01960.1"	969	"	"A/G"	"50,0/50,0"	"24/24"	48
controllo_3	"POPTR_0008s01960.1"	969	"	"A/G"	"57,3/42,7"	"86/64"	150	stress_45	"POPTR_0008s01960.1"	969	"	"A/G"	"57,1/42,9"	"32/24"	56
controllo_3	"POPTR_0008s08400.1"	924	"	"C/T"	"57,3/42,7"	"63/47"	110	stress_12bis	"POPTR_0008s08400.1"	924	"	"C/T"	"66,7/33,3"	"8/4"	12
controllo_3	"POPTR_0008s08400.1"	924	"	"C/T"	"57,3/42,7"	"63/47"	110	stress_42	"POPTR_0008s08400.1"	924	"	"C/T"	"69,4/30,6"	"25/11"	36
controllo_3	"POPTR_0008s08400.1"	924	"	"C/T"	"57,3/42,7"	"63/47"	110	stress_45	"POPTR_0008s08400.1"	924	"	"C/T"	"69,7/30,3"	"46/20"	66
controllo_3	"POPTR_0016s14100.1"	591	"	"G/A"	"57,3/42,7"	"67/50"	117	stress_12bis	"POPTR_0016s14100.1"	591	"	"A/G"	"52,3/47,7"	"23/21"	44
controllo_3	"POPTR_0016s14100.1"	591	"	"G/A"	"57,3/42,7"	"67/50"	117	stress_42	"POPTR_0016s14100.1"	591	"	"G/A"	"72,7/27,3"	"8/3"	11
controllo_3	"POPTR_0001s40250.1"	1830	"	"A/G"	"57,4/41,0"	"35/25"	61	stress_45	"POPTR_0001s40250.1"	1830	"	"A/G"	"80,2/19,8"	"97/24"	121
controllo_3	"POPTR_0017s05700.1"	603	"	"A/G"	"57,4/42,3"	"225/166"	392	stress_12bis	"POPTR_0017s05700.1"	603	"	"A/G"	"54,3/45,7"	"63/53"	116
controllo_3	"POPTR_0017s05700.1"	603	"	"A/G"	"57,4/42,3"	"225/166"	392	stress_42	"POPTR_0017s05700.1"	603	"	"A/G"	"60,3/39,7"	"41/27"	68
controllo_3	"POPTR_0017s05700.1"	603	"	"A/G"	"57,4/42,3"	"225/166"	392	stress_45	"POPTR_0017s05700.1"	603	"	"A/G"	"62,8/37,2"	"54/32"	86
controllo_3	"POPTR_0001s36560.1"	328	"	"A/C"	"57,4/42,3"	"389/287"	678	stress_12bis	"POPTR_0001s36560.1"	328	"	"A/C"	"57,5/42,5"	"92/68"	160
controllo_3	"POPTR_0001s36560.1"	328	"	"A/C"	"57,4/42,3"	"389/287"	678	stress_42	"POPTR_0001s36560.1"	328	"	"C/A"	"60,0/40,0"	"12/8"	20
controllo_3	"POPTR_0001s36560.1"	328	"	"A/C"	"57,4/42,3"	"389/287"	678	stress_45	"POPTR_0001s36560.1"	328	"	"A/C"	"63,0/37,0"	"29/17"	46
controllo_3	"POPTR_0004s09910.1"	331	"	"T/C"	"57,4/42,4"	"8254/6092"	14368	stress_12bis	"POPTR_0004s09910.1"	331	"	"T/C"	"61,0/38,7"	"1612/1023"	2642
controllo_3	"POPTR_0004s09910.1"	331	"	"T/C"	"57,4/42,4"	"8254/6092"	14368	stress_42	"POPTR_0004s09910.1"	331	"	"T/C"	"65,1/34,6"	"233/124"	358
controllo_3	"POPTR_0004s09910.1"	331	"	"T/C"	"57,4/42,4"	"8254/6092"	14368	stress_45	"POPTR_0004s09910.1"	331	"	"T/C"	"62,4/37,1"	"254/151"	407
controllo_3	"POPTR_0006s08530.1"	290	"	"C/A"	"57,4/42,5"	"3028/2243"	5276	stress_12bis	"POPTR_0006s08530.1"	290	"	"C/A"	"57,1/42,9"	"1830/1377"	3207
controllo_3	"POPTR_0006s08530.1"	290	"	"C/A"	"57,4/42,5"	"3028/2243"	5276	stress_42	"POPTR_0006s08530.1"	290	"	"A/C"	"59,5/40,5"	"2056/1399"	3455
controllo_3	"POPTR_0006s08530.1"	290	"	"C/A"	"57,4/42,5"	"3028/2243"	5276	stress_45	"POPTR_0006s08530.1"	290	"	"A/C"	"55,9/44,0"	"1985/1563"	3550
controllo_3	"POPTR_0017s05700.1"	132	"	"G/A"	"57,4/42,6"	"224/166"	390	stress_12bis	"POPTR_0017s05700.1"	132	"	"G/A"	"59,5/40,5"	"66/45"	111
controllo_3	"POPTR_0017s05700.1"	132	"	"G/A"	"57,4/42,6"	"224/166"	390	stress_42	"POPTR_0017s05700.1"	132	"	"G/A"	"62,7/37,3"	"47/28"	75
controllo_3	"POPTR_0017s05700.1"	132	"	"G/A"	"57,4/42,6"	"224/166"	390	stress_45	"POPTR_0017s05700.1"	132	"	"A/G"	"54,5/45,5"	"54/45"	99
controllo_3	"POPTR_0017s12590.1"	1188	"	"G/A"	"57,4/42,6"	"89/66"	155	stress_12bis	"POPTR_0017s12590.1"	1188	"	"A/G"	"54,7/45,3"	"29/24"	53
controllo_3	"POPTR_0017s12590.1"	1188	"	"G/A"	"57,4/42,6"	"89/66"	155	stress_42	"POPTR_0017s12590.1"	1188	"	"A/G"	"70,0/30,0"	"7/3"	10
controllo_3	"POPTR_0017s12590.1"	1188	"	"G/A"	"57,4/42,6"	"89/66"	155	stress_45	"POPTR_0017s12590.1"	1188	"	"G/A"	"63,6/36,4"	"7/4"	11
controllo_3	"POPTR_0006s22950.1"	887	"	"C/T"	"57,4/42,6"	"135/100"	235	stress_12bis	"POPTR_0006s22950.1"	887	"	"C/T"	"65,6/34,4"	"40/21"	61
controllo_3	"POPTR_0006s22950.1"	887	"	"C/T"	"57,4/42,6"	"135/100"	235	stress_42	"POPTR_0006s22950.1"	887	"	"C/T"	"69,6/30,4"	"16/7"	23
controllo_3	"POPTR_0006s22950.1"	887	"	"C/T"	"57,4/42,6"	"135/100"	235	stress_45	"POPTR_0006s22950.1"	887	"	"C/T"	"75,0/25,0"	"21/7"	28
controllo_3	"POPTR_0006s13310.1"	1332	"	"G/A"	"57,4/42,6"	"70/52"	122	stress_12bis	"POPTR_0006s13310.1"	1332	"	"G/A"	"57,1/42,9"	"64/48"	112
controllo_3	"POPTR_0006s13310.1"	1332	"	"G/A"	"57,4/42,6"	"70/52"	122	stress_42	"POPTR_0006s13310.1"	1332	"	"G/A"	"69,8/29,1"	"60/25"	86
controllo_3	"POPTR_0006s13310.1"	1332	"	"G/A"	"57,4/42,6"	"70/52"	122	stress_45	"POPTR_0006s13310.1"	1332	"	"G/A"	"55,7/44,3"	"73/58"	131
controllo_3	"POPTR_0006s28350.1"	321	"	"C/T"	"57,4/42,6"	"74/55"	129	stress_12bis	"POPTR_0006s28350.1"	321	"	"C/T"	"60,0/40,0"	"9/6"	15
controllo_3	"POPTR_0006s28350.1"	321	"	"C/T"	"57,4/42,6"	"74/55"	129	stress_45	"POPTR_0006s28350.1"	321	"	"C/T"	"53,3/46,7"	"8/7"	15
controllo_3	"POPTR_0018s02230.1"	132	"	"C/A"	"57,4/42,6"	"89/66"	155	stress_12bis	"POPTR_0018s02230.1"	132	"	"A/C"	"54,5/45,5"	"42/35"	77
controllo_3	"POPTR_0018s02230.1"	132	"	"C/A"	"57,4/42,6"	"89/66"	155	stress_42	"POPTR_0018s02230.1"	132	"	"A/C"	"64,4/35,6"	"56/31"	87
controllo_3	"POPTR_0018s02230.1"	132	"	"C/A"	"57,4/42,6"	"89/66"	155	stress_45	"POPTR_0018s02230.1"	132	"	"A/C"	"59,4/40,6"	"98/67"	165
controllo_3	"POPTR_0013s07150.1"	191	"	"G/A"	"57,4/42,6"	"85/63"	148	stress_12bis	"POPTR_0013s07150.1"	191	"	"G/A"	"70,4/29,6"	"19/8"	27
controllo_3	"POPTR_0013s07150.1"	191	"	"G/A"	"57,4/42,6"	"85/63"	148	stress_45	"POPTR_0013s07150.1"	191	"	"G/A"	"64,7/35,3"	"11/6"	17
controllo_3	"POPTR_0013s00760.1"	723	"	"A/T"	"57,4/42,6"	"455/337"	792	stress_12bis	"POPTR_0013s00760.1"	723	"	"A/T"	"63,9/36,1"	"115/65"	180
controllo_3	"POPTR_0013s00760.1"	723	"	"A/T"	"57,4/42,6"	"455/337"	792	stress_42	"POPTR_0013s00760.1"	723	"	"A/T"	"54,7/45,3"	"35/29"	64
controllo_3	"POPTR_0013s00760.1"	723	"	"A/T"	"57,4/42,6"	"455/337"	792	stress_45	"POPTR_0013s00760.1"	723	"	"A/T"	"51,2/48,8"	"43/41"	84
controllo_3	"POPTR_0014s17400.1"	164	"	"C/A"	"57,4/42,6"	"1210/898"	2109	stress_12bis	"POPTR_0014s17400.1"	164	"	"C/A"	"60,2/39,8"	"397/263"	660
controllo_3	"POPTR_0014s17400.1"	164	"	"C/A"	"57,4/42,6"	"1210/898"	2109	stress_42	"POPTR_0014s17400.1"	164	"	"C/A"	"63,0/37,0"	"170/100"	270
controllo_3	"POPTR_0014s17400.1"	164	"	"C/A"	"57,4/42,6"	"1210/898"	2109	stress_45	"POPTR_0014s17400.1"	164	"	"C/A"	"57,9/42,1"	"208/151"	359
controllo_3	"POPTR_0014s15910.1"	219	"	"G/C"	"57,4/42,6"	"93/69"	162	stress_12bis	"POPTR_0014s15910.1"	219	"	"C/G"	"51,1/48,9"	"45/43"	88
controllo_3	"POPTR_0014s15910.1"	219	"	"G/C"	"57,4/42,6"	"93/69"	162	stress_42	"POPTR_0014s15910.1"	219	"	"C/G"	"55,9/44,1"	"57/45"	102
controllo_3	"POPTR_0014s15910.1"	219	"	"G/C"	"57,4/42,6"	"93/69"	162	stress_45	"POPTR_0014s15910.1"	219	"	"G/C"	"53,1/46,9"	"43/38"	81
controllo_3	"POPTR_0014s13430.1"	357	"	"C/T"	"57,4/42,6"	"62/46"	108	stress_12bis	"POPTR_0014s13430.1"	357	"	"C/T"	"48,3/48,3"	"14/14"	29
controllo_3	"POPTR_0004s17610.1"	381	"	"A/G"	"57,4/42,6"	"58/43"	101	stress_12bis	"POPTR_0004s17610.1"	381	"	"G/A"	"56,4/43,6"	"22/17"	39
controllo_3	"POPTR_0004s17610.1"	381	"	"A/G"	"57,4/42,6"	"58/43"	101	stress_42	"POPTR_0004s17610.1"	381	"	"G/A"	"52,6/47,4"	"91/82"	173
controllo_3	"POPTR_0004s17610.1"	381	"	"A/G"	"57,4/42,6"	"58/43"	101	stress_45	"POPTR_0004s17610.1"	381	"	"G/A"	"54,0/46,0"	"128/109"	237
controllo_3	"POPTR_0009s08850.1"	381	"	"T/C"	"57,4/42,6"	"58/43"	101	stress_42	"POPTR_0009s08850.1"	381	"	"T/C"	"53,8/46,2"	"7/6"	13
controllo_3	"POPTR_0009s08850.1"	381	"	"T/C"	"57,4/42,6"	"58/43"	101	stress_45	"POPTR_0009s08850.1"	381	"	"C/T"	"51,9/48,1"	"14/13"	27
controllo_3	"POPTR_0009s05240.1"	507	"	"G/A"	"57,4/42,6"	"365/271"	636	stress_12bis	"POPTR_0009s05240.1"	507	"	"A/G"	"54,8/45,2"	"92/76"	168
controllo_3	"POPTR_0009s05240.1"	507	"	"G/A"	"57,4/42,6"	"365/271"	636	stress_42	"POPTR_0009s05240.1"	507	"	"A/G"	"65,5/34,5"	"38/20"	58
controllo_3	"POPTR_0009s05240.1"	507	"	"G/A"	"57,4/42,6"	"365/271"	636	stress_45	"POPTR_0009s05240.1"	507	"	"A/G"	"69,3/30,7"	"52/23"	75
controllo_3	"POPTR_0009s01470.1"	1564	"	"G/A"	"57,4/42,6"	"112/83"	195	stress_12bis	"POPTR_0009s01470.1"	1564	"	"G/A"	"51,4/48,6"	"36/34"	70
controllo_3	"POPTR_0009s01470.1"	1564	"	"G/A"	"57,4/42,6"	"112/83"	195	stress_42	"POPTR_0009s01470.1"	1564	"	"G/A"	"63,9/36,1"	"23/13"	36
controllo_3	"POPTR_0009s01470.1"	1564	"	"G/A"	"57,4/42,6"	"112/83"	195	stress_45	"POPTR_0009s01470.1"	1564	"	"G/A"	"63,3/36,7"	"31/18"	49
controllo_3	"POPTR_0012s01250.1"	363	"	"C/T"	"57,4/42,6"	"220/163"	383	stress_12bis	"POPTR_0012s01250.1"	363	"	"C/T"	"58,0/42,0"	"51/37"	88
controllo_3	"POPTR_0012s01250.1"	363	"	"C/T"	"57,4/42,6"	"220/163"	383	stress_42	"POPTR_0012s01250.1"	363	"	"T/C"	"52,7/47,3"	"49/44"	93
controllo_3	"POPTR_0012s01250.1"	363	"	"C/T"	"57,4/42,6"	"220/163"	383	stress_45	"POPTR_0012s01250.1"	363	"	"C/T"	"61,0/39,0"	"50/32"	82
controllo_3	"POPTR_0011s05670.1"	892	"	"C/T"	"57,4/42,6"	"170/126"	296	stress_12bis	"POPTR_0011s05670.1"	892	"	"T/C"	"54,3/45,7"	"51/43"	94
controllo_3	"POPTR_0011s05670.1"	892	"	"C/T"	"57,4/42,6"	"170/126"	296	stress_42	"POPTR_0011s05670.1"	892	"	"C/T"	"63,0/37,0"	"34/20"	54
controllo_3	"POPTR_0011s05670.1"	892	"	"C/T"	"57,4/42,6"	"170/126"	296	stress_45	"POPTR_0011s05670.1"	892	"	"T/C"	"50,6/49,4"	"41/40"	81
controllo_3	"POPTR_0015s08540.1"	465	"	"T/A"	"57,4/42,6"	"112/83"	195	stress_12bis	"POPTR_0015s08540.1"	465	"	"A/T"	"67,1/32,9"	"49/24"	73
controllo_3	"POPTR_0015s08540.1"	465	"	"T/A"	"57,4/42,6"	"112/83"	195	stress_42	"POPTR_0015s08540.1"	465	"	"A/T"	"62,5/37,5"	"10/6"	16
controllo_3	"POPTR_0015s08540.1"	465	"	"T/A"	"57,4/42,6"	"112/83"	195	stress_45	"POPTR_0015s08540.1"	465	"	"A/T"	"63,2/36,8"	"12/7"	19
controllo_3	"POPTR_0001s40250.1"	1015	"	"C/G"	"57,4/42,6"	"35/26"	61	stress_45	"POPTR_0001s40250.1"	1015	"	"G/C"	"66,1/33,9"	"72/37"	109
controllo_3	"POPTR_0001s14280.1"	936	"	"A/G"	"57,4/42,6"	"81/60"	141	stress_12bis	"POPTR_0001s14280.1"	936	"	"A/G"	"59,2/40,8"	"42/29"	71
controllo_3	"POPTR_0001s14280.1"	936	"	"A/G"	"57,4/42,6"	"81/60"	141	stress_42	"POPTR_0001s14280.1"	936	"	"G/A"	"50,5/49,5"	"103/101"	204
controllo_3	"POPTR_0001s14280.1"	936	"	"A/G"	"57,4/42,6"	"81/60"	141	stress_45	"POPTR_0001s14280.1"	936	"	"G/A"	"51,0/49,0"	"124/119"	243
controllo_3	"POPTR_0010s17860.1"	1416	"	"A/T"	"57,4/42,6"	"144/107"	251	stress_12bis	"POPTR_0010s17860.1"	1416	"	"A/T"	"61,4/38,6"	"27/17"	44
controllo_3	"POPTR_0010s17860.1"	1416	"	"A/T"	"57,4/42,6"	"144/107"	251	stress_42	"POPTR_0010s17860.1"	1416	"	"T/A"	"52,6/47,4"	"10/9"	19
controllo_3	"POPTR_0010s17860.1"	1416	"	"A/T"	"57,4/42,6"	"144/107"	251	stress_45	"POPTR_0010s17860.1"	1416	"	"A/T"	"50,0/50,0"	"5/5"	10
controllo_3	"POPTR_0010s19860.1"	273	"	"A/G"	"57,4/42,6"	"58/43"	101	stress_12bis	"POPTR_0010s19860.1"	273	"	"G/A"	"53,5/46,5"	"23/20"	43
controllo_3	"POPTR_0010s19860.1"	273	"	"A/G"	"57,4/42,6"	"58/43"	101	stress_42	"POPTR_0010s19860.1"	273	"	"A/G"	"67,3/32,7"	"33/16"	49
controllo_3	"POPTR_0010s19860.1"	273	"	"A/G"	"57,4/42,6"	"58/43"	101	stress_45	"POPTR_0010s19860.1"	273	"	"G/A"	"55,4/44,6"	"62/50"	112
controllo_3	"POPTR_0002s15600.1"	324	"	"A/G"	"57,4/42,6"	"78/58"	136	stress_12bis	"POPTR_0002s15600.1"	324	"	"A/G"	"51,3/48,7"	"20/19"	39
controllo_3	"POPTR_0002s15600.1"	324	"	"A/G"	"57,4/42,6"	"78/58"	136	stress_42	"POPTR_0002s15600.1"	324	"	"A/G"	"50,0/50,0"	"7/7"	14
controllo_3	"POPTR_0002s15600.1"	324	"	"A/G"	"57,4/42,6"	"78/58"	136	stress_45	"POPTR_0002s15600.1"	324	"	"G/A"	"60,9/39,1"	"14/9"	23
controllo_3	"POPTR_0008s20250.1"	162	"	"G/A"	"57,4/42,6"	"58/43"	101	stress_12bis	"POPTR_0008s20250.1"	162	"	"A/G"	"50,0/50,0"	"28/28"	56
controllo_3	"POPTR_0008s20250.1"	162	"	"G/A"	"57,4/42,6"	"58/43"	101	stress_42	"POPTR_0008s20250.1"	162	"	"G/A"	"57,1/42,9"	"12/9"	21
controllo_3	"POPTR_0008s20250.1"	162	"	"G/A"	"57,4/42,6"	"58/43"	101	stress_45	"POPTR_0008s20250.1"	162	"	"G/A"	"57,9/42,1"	"11/8"	19
controllo_3	"POPTR_0008s15930.1"	1623	"	"C/T"	"57,4/42,6"	"62/46"	108	stress_12bis	"POPTR_0008s15930.1"	1623	"	"C/T"	"50,0/50,0"	"8/8"	16
controllo_3	"POPTR_0008s15930.1"	1623	"	"C/T"	"57,4/42,6"	"62/46"	108	stress_42	"POPTR_0008s15930.1"	1623	"	"C/T"	"63,2/36,8"	"12/7"	19
controllo_3	"POPTR_0008s15930.1"	1623	"	"C/T"	"57,4/42,6"	"62/46"	108	stress_45	"POPTR_0008s15930.1"	1623	"	"T/C"	"53,8/46,2"	"21/18"	39
controllo_3	"POPTR_0008s08400.1"	1107	"	"C/T"	"57,4/42,6"	"78/58"	136	stress_12bis	"POPTR_0008s08400.1"	1107	"	"C/T"	"57,1/42,9"	"12/9"	21
controllo_3	"POPTR_0008s08400.1"	1107	"	"C/T"	"57,4/42,6"	"78/58"	136	stress_42	"POPTR_0008s08400.1"	1107	"	"C/T"	"60,0/40,0"	"27/18"	45
controllo_3	"POPTR_0008s08400.1"	1107	"	"C/T"	"57,4/42,6"	"78/58"	136	stress_45	"POPTR_0008s08400.1"	1107	"	"C/T"	"66,0/34,0"	"35/18"	53
controllo_3	"POPTR_0013s00730.1"	648	"	"C/T"	"57,5/41,2"	"92/66"	160	stress_12bis	"POPTR_0013s00730.1"	648	"	"C/T"	"59,6/40,4"	"34/23"	57
controllo_3	"POPTR_0013s00730.1"	648	"	"C/T"	"57,5/41,2"	"92/66"	160	stress_42	"POPTR_0013s00730.1"	648	"	"T/C"	"52,0/48,0"	"13/12"	25
controllo_3	"POPTR_0013s00730.1"	648	"	"C/T"	"57,5/41,2"	"92/66"	160	stress_45	"POPTR_0013s00730.1"	648	"	"T/C"	"52,9/47,1"	"18/16"	34
controllo_3	"POPTR_0008s03160.1"	537	"	"C/T"	"57,5/41,4"	"168/121"	292	stress_12bis	"POPTR_0008s03160.1"	537	"	"T/C"	"52,3/46,8"	"57/51"	109
controllo_3	"POPTR_0008s03160.1"	537	"	"C/T"	"57,5/41,4"	"168/121"	292	stress_42	"POPTR_0008s03160.1"	537	"	"T/C"	"64,0/36,0"	"16/9"	25
controllo_3	"POPTR_0008s03160.1"	537	"	"C/T"	"57,5/41,4"	"168/121"	292	stress_45	"POPTR_0008s03160.1"	537	"	"T/C"	"53,2/43,5"	"33/27"	62
controllo_3	"POPTR_0019s04970.1"	672	"	"C/A"	"57,5/41,7"	"73/53"	127	stress_12bis	"POPTR_0019s04970.1"	672	"	"C/A"	"80,0/20,0"	"20/5"	25
controllo_3	"POPTR_0016s11610.1"	246	"	"T/C"	"57,5/42,2"	"158/116"	275	stress_12bis	"POPTR_0016s11610.1"	246	"	"T/C"	"56,3/43,7"	"40/31"	71
controllo_3	"POPTR_0016s11610.1"	246	"	"T/C"	"57,5/42,2"	"158/116"	275	stress_42	"POPTR_0016s11610.1"	246	"	"T/C"	"65,2/34,8"	"15/8"	23
controllo_3	"POPTR_0016s11610.1"	246	"	"T/C"	"57,5/42,2"	"158/116"	275	stress_45	"POPTR_0016s11610.1"	246	"	"T/C"	"61,9/38,1"	"26/16"	42
controllo_3	"POPTR_0014s02410.1"	70	"	"C/T"	"57,5/42,4"	"385/284"	670	stress_12bis	"POPTR_0014s02410.1"	70	"	"C/T"	"62,5/35,4"	"60/34"	96
controllo_3	"POPTR_0014s02410.1"	70	"	"C/T"	"57,5/42,4"	"385/284"	670	stress_42	"POPTR_0014s02410.1"	70	"	"T/C"	"53,0/47,0"	"53/47"	100
controllo_3	"POPTR_0014s02410.1"	70	"	"C/T"	"57,5/42,4"	"385/284"	670	stress_45	"POPTR_0014s02410.1"	70	"	"C/T"	"50,5/49,5"	"104/102"	206
controllo_3	"POPTR_0008s15800.1"	162	"	"G/C"	"57,5/42,4"	"358/264"	623	stress_12bis	"POPTR_0008s15800.1"	162	"	"G/C"	"53,9/46,1"	"118/101"	219
controllo_3	"POPTR_0008s15800.1"	162	"	"G/C"	"57,5/42,4"	"358/264"	623	stress_42	"POPTR_0008s15800.1"	162	"	"G/C"	"53,0/47,0"	"134/119"	253
controllo_3	"POPTR_0008s15800.1"	162	"	"G/C"	"57,5/42,4"	"358/264"	623	stress_45	"POPTR_0008s15800.1"	162	"	"G/C"	"51,0/49,0"	"155/149"	304
controllo_3	"POPTR_0008s15100.1"	149	"	"T/C"	"57,5/42,4"	"569/420"	990	stress_12bis	"POPTR_0008s15100.1"	149	"	"T/C"	"58,8/41,2"	"188/132"	320
controllo_3	"POPTR_0008s15100.1"	149	"	"T/C"	"57,5/42,4"	"569/420"	990	stress_42	"POPTR_0008s15100.1"	149	"	"T/C"	"51,7/48,3"	"62/58"	120
controllo_3	"POPTR_0008s15100.1"	149	"	"T/C"	"57,5/42,4"	"569/420"	990	stress_45	"POPTR_0008s15100.1"	149	"	"C/T"	"57,5/42,5"	"77/57"	134
controllo_3	"POPTR_0005s04090.1"	153	"	"T/C"	"57,5/42,5"	"204/151"	355	stress_12bis	"POPTR_0005s04090.1"	153	"	"T/C"	"56,2/43,8"	"54/42"	96
controllo_3	"POPTR_0005s04090.1"	153	"	"T/C"	"57,5/42,5"	"204/151"	355	stress_42	"POPTR_0005s04090.1"	153	"	"T/C"	"72,2/27,8"	"26/10"	36
controllo_3	"POPTR_0005s04090.1"	153	"	"T/C"	"57,5/42,5"	"204/151"	355	stress_45	"POPTR_0005s04090.1"	153	"	"T/C"	"65,1/34,9"	"28/15"	43
controllo_3	"POPTR_0006s23580.1"	297	"	"C/T"	"57,5/42,5"	"104/77"	181	stress_12bis	"POPTR_0006s23580.1"	297	"	"C/T"	"64,4/35,6"	"38/21"	59
controllo_3	"POPTR_0006s23580.1"	297	"	"C/T"	"57,5/42,5"	"104/77"	181	stress_42	"POPTR_0006s23580.1"	297	"	"T/C"	"57,6/42,4"	"57/42"	99
controllo_3	"POPTR_0006s23580.1"	297	"	"C/T"	"57,5/42,5"	"104/77"	181	stress_45	"POPTR_0006s23580.1"	297	"	"C/T"	"51,9/48,1"	"54/50"	104
controllo_3	"POPTR_0006s28990.1"	678	"	"C/T"	"57,5/42,5"	"142/105"	247	stress_12bis	"POPTR_0006s28990.1"	678	"	"C/T"	"51,4/48,6"	"18/17"	35
controllo_3	"POPTR_0006s28990.1"	678	"	"C/T"	"57,5/42,5"	"142/105"	247	stress_42	"POPTR_0006s28990.1"	678	"	"T/C"	"56,3/43,7"	"40/31"	71
controllo_3	"POPTR_0006s28990.1"	678	"	"C/T"	"57,5/42,5"	"142/105"	247	stress_45	"POPTR_0006s28990.1"	678	"	"C/T"	"58,4/41,6"	"52/37"	89
controllo_3	"POPTR_0006s13310.1"	66	"	"C/A"	"57,5/42,5"	"172/127"	299	stress_12bis	"POPTR_0006s13310.1"	66	"	"C/A"	"64,5/35,5"	"138/76"	214
controllo_3	"POPTR_0006s13310.1"	66	"	"C/A"	"57,5/42,5"	"172/127"	299	stress_42	"POPTR_0006s13310.1"	66	"	"C/A"	"57,8/42,2"	"74/54"	128
controllo_3	"POPTR_0006s13310.1"	66	"	"C/A"	"57,5/42,5"	"172/127"	299	stress_45	"POPTR_0006s13310.1"	66	"	"C/A"	"62,1/37,9"	"167/102"	269
controllo_3	"POPTR_0006s05160.1"	1299	"	"A/G"	"57,5/42,5"	"184/136"	320	stress_12bis	"POPTR_0006s05160.1"	1299	"	"A/G"	"52,0/48,0"	"52/48"	100
controllo_3	"POPTR_0006s05160.1"	1299	"	"A/G"	"57,5/42,5"	"184/136"	320	stress_42	"POPTR_0006s05160.1"	1299	"	"A/G"	"57,5/42,5"	"23/17"	40
controllo_3	"POPTR_0006s05160.1"	1299	"	"A/G"	"57,5/42,5"	"184/136"	320	stress_45	"POPTR_0006s05160.1"	1299	"	"A/G"	"57,1/42,9"	"32/24"	56
controllo_3	"POPTR_0003s18530.1"	549	"	"A/G"	"57,5/42,5"	"134/99"	233	stress_12bis	"POPTR_0003s18530.1"	549	"	"A/G"	"57,5/42,5"	"61/45"	106
controllo_3	"POPTR_0003s18530.1"	549	"	"A/G"	"57,5/42,5"	"134/99"	233	stress_42	"POPTR_0003s18530.1"	549	"	"G/A"	"57,6/42,4"	"34/25"	59
controllo_3	"POPTR_0003s18530.1"	549	"	"A/G"	"57,5/42,5"	"134/99"	233	stress_45	"POPTR_0003s18530.1"	549	"	"A/G"	"61,3/38,7"	"65/41"	106
controllo_3	"POPTR_0013s13220.1"	570	"	"A/G"	"57,5/42,5"	"77/57"	134	stress_12bis	"POPTR_0013s13220.1"	570	"	"A/G"	"63,3/36,7"	"50/29"	79
controllo_3	"POPTR_0013s13220.1"	570	"	"A/G"	"57,5/42,5"	"77/57"	134	stress_42	"POPTR_0013s13220.1"	570	"	"A/G"	"64,7/35,3"	"44/24"	68
controllo_3	"POPTR_0013s13220.1"	570	"	"A/G"	"57,5/42,5"	"77/57"	134	stress_45	"POPTR_0013s13220.1"	570	"	"G/A"	"51,5/48,5"	"69/65"	134
controllo_3	"POPTR_0013s07150.1"	103	"	"A/G"	"57,5/42,5"	"73/54"	127	stress_12bis	"POPTR_0013s07150.1"	103	"	"A/G"	"57,1/42,9"	"12/9"	21
controllo_3	"POPTR_0013s07150.1"	103	"	"A/G"	"57,5/42,5"	"73/54"	127	stress_45	"POPTR_0013s07150.1"	103	"	"A/G"	"64,3/35,7"	"9/5"	14
controllo_3	"POPTR_0014s12470.1"	269	"	"T/C"	"57,5/42,5"	"88/65"	153	stress_12bis	"POPTR_0014s12470.1"	269	"	"T/C"	"60,0/40,0"	"39/26"	65
controllo_3	"POPTR_0014s12470.1"	269	"	"T/C"	"57,5/42,5"	"88/65"	153	stress_42	"POPTR_0014s12470.1"	269	"	"C/T"	"67,4/32,6"	"31/15"	46
controllo_3	"POPTR_0014s12470.1"	269	"	"T/C"	"57,5/42,5"	"88/65"	153	stress_45	"POPTR_0014s12470.1"	269	"	"C/T"	"57,1/42,9"	"32/24"	56
controllo_3	"POPTR_0004s23490.1"	45	"	"T/C"	"57,5/42,5"	"69/51"	120	stress_12bis	"POPTR_0004s23490.1"	45	"	"T/C"	"60,5/39,5"	"26/17"	43
controllo_3	"POPTR_0004s23490.1"	45	"	"T/C"	"57,5/42,5"	"69/51"	120	stress_42	"POPTR_0004s23490.1"	45	"	"T/C"	"61,9/38,1"	"13/8"	21
controllo_3	"POPTR_0004s23490.1"	45	"	"T/C"	"57,5/42,5"	"69/51"	120	stress_45	"POPTR_0004s23490.1"	45	"	"T/C"	"61,0/39,0"	"25/16"	41
controllo_3	"POPTR_0004s18090.1"	380	"	"G/A"	"57,5/42,5"	"73/54"	127	stress_42	"POPTR_0004s18090.1"	380	"	"A/G"	"50,0/50,0"	"8/8"	16
controllo_3	"POPTR_0004s18090.1"	380	"	"G/A"	"57,5/42,5"	"73/54"	127	stress_45	"POPTR_0004s18090.1"	380	"	"G/A"	"54,5/45,5"	"6/5"	11
controllo_3	"POPTR_0009s06690.1"	420	"	"G/T"	"57,5/42,5"	"111/82"	193	stress_12bis	"POPTR_0009s06690.1"	420	"	"G/T"	"56,1/43,9"	"32/25"	57
controllo_3	"POPTR_0009s06690.1"	420	"	"G/T"	"57,5/42,5"	"111/82"	193	stress_42	"POPTR_0009s06690.1"	420	"	"G/T"	"52,2/47,8"	"48/44"	92
controllo_3	"POPTR_0009s06690.1"	420	"	"G/T"	"57,5/42,5"	"111/82"	193	stress_45	"POPTR_0009s06690.1"	420	"	"G/T"	"58,8/41,2"	"100/70"	170
controllo_3	"POPTR_0009s02070.1"	624	"	"A/G"	"57,5/42,5"	"320/237"	557	stress_12bis	"POPTR_0009s02070.1"	624	"	"A/G"	"51,6/48,4"	"48/45"	93
controllo_3	"POPTR_0009s02070.1"	624	"	"A/G"	"57,5/42,5"	"320/237"	557	stress_42	"POPTR_0009s02070.1"	624	"	"A/G"	"59,3/40,7"	"73/50"	123
controllo_3	"POPTR_0009s02070.1"	624	"	"A/G"	"57,5/42,5"	"320/237"	557	stress_45	"POPTR_0009s02070.1"	624	"	"A/G"	"54,9/45,1"	"101/83"	184
controllo_3	"POPTR_0009s09580.1"	1053	"	"G/A"	"57,5/42,5"	"73/54"	127	stress_12bis	"POPTR_0009s09580.1"	1053	"	"G/A"	"63,8/36,2"	"30/17"	47
controllo_3	"POPTR_0009s09580.1"	1053	"	"G/A"	"57,5/42,5"	"73/54"	127	stress_42	"POPTR_0009s09580.1"	1053	"	"G/A"	"61,9/38,1"	"13/8"	21
controllo_3	"POPTR_0009s09580.1"	1053	"	"G/A"	"57,5/42,5"	"73/54"	127	stress_45	"POPTR_0009s09580.1"	1053	"	"G/A"	"57,9/42,1"	"11/8"	19
controllo_3	"POPTR_0012s06320.1"	2894	"	"T/C"	"57,5/42,5"	"61/45"	106	stress_12bis	"POPTR_0012s06320.1"	2894	"	"T/C"	"55,3/44,7"	"21/17"	38
controllo_3	"POPTR_0012s06320.1"	2894	"	"T/C"	"57,5/42,5"	"61/45"	106	stress_42	"POPTR_0012s06320.1"	2894	"	"T/C"	"55,2/44,8"	"32/26"	58
controllo_3	"POPTR_0012s06320.1"	2894	"	"T/C"	"57,5/42,5"	"61/45"	106	stress_45	"POPTR_0012s06320.1"	2894	"	"T/C"	"64,1/34,6"	"50/27"	78
controllo_3	"POPTR_0011s14350.1"	2389	"	"A/G"	"57,5/42,5"	"61/45"	106	stress_12bis	"POPTR_0011s14350.1"	2389	"	"A/G"	"68,8/31,2"	"22/10"	32
controllo_3	"POPTR_0011s14350.1"	2389	"	"A/G"	"57,5/42,5"	"61/45"	106	stress_45	"POPTR_0011s14350.1"	2389	"	"A/G"	"58,3/41,7"	"7/5"	12
controllo_3	"POPTR_0001s30840.1"	156	"	"A/G"	"57,5/42,5"	"145/107"	252	stress_12bis	"POPTR_0001s30840.1"	156	"	"A/G"	"54,9/45,1"	"39/32"	71
controllo_3	"POPTR_0001s30840.1"	156	"	"A/G"	"57,5/42,5"	"145/107"	252	stress_42	"POPTR_0001s30840.1"	156	"	"G/A"	"60,0/40,0"	"12/8"	20
controllo_3	"POPTR_0001s30840.1"	156	"	"A/G"	"57,5/42,5"	"145/107"	252	stress_45	"POPTR_0001s30840.1"	156	"	"A/G"	"53,3/46,7"	"16/14"	30
controllo_3	"POPTR_0001s01630.1"	405	"	"C/T"	"57,5/42,5"	"212/157"	369	stress_12bis	"POPTR_0001s01630.1"	405	"	"C/T"	"66,2/33,8"	"51/26"	77
controllo_3	"POPTR_0002s01320.1"	1830	"	"C/T"	"57,5/42,5"	"425/314"	739	stress_12bis	"POPTR_0002s01320.1"	1830	"	"C/T"	"54,9/45,1"	"112/92"	204
controllo_3	"POPTR_0002s01320.1"	1830	"	"C/T"	"57,5/42,5"	"425/314"	739	stress_42	"POPTR_0002s01320.1"	1830	"	"C/T"	"53,8/46,2"	"43/37"	80
controllo_3	"POPTR_0002s01320.1"	1830	"	"C/T"	"57,5/42,5"	"425/314"	739	stress_45	"POPTR_0002s01320.1"	1830	"	"C/T"	"57,0/43,0"	"81/61"	142
controllo_3	"POPTR_0002s24310.1"	369	"	"A/T"	"57,5/42,5"	"84/62"	146	stress_12bis	"POPTR_0002s24310.1"	369	"	"T/A"	"60,5/39,5"	"23/15"	38
controllo_3	"POPTR_0002s24310.1"	369	"	"A/T"	"57,5/42,5"	"84/62"	146	stress_42	"POPTR_0002s24310.1"	369	"	"T/A"	"59,1/31,8"	"13/7"	22
controllo_3	"POPTR_0002s24310.1"	369	"	"A/T"	"57,5/42,5"	"84/62"	146	stress_45	"POPTR_0002s24310.1"	369	"	"A/T"	"47,4/42,1"	"9/8"	19
controllo_3	"POPTR_0008s15930.1"	1621	"	"A/G"	"57,5/42,5"	"65/48"	113	stress_12bis	"POPTR_0008s15930.1"	1621	"	"A/G"	"53,3/46,7"	"8/7"	15
controllo_3	"POPTR_0008s15930.1"	1621	"	"A/G"	"57,5/42,5"	"65/48"	113	stress_42	"POPTR_0008s15930.1"	1621	"	"A/G"	"63,6/36,4"	"14/8"	22
controllo_3	"POPTR_0008s15930.1"	1621	"	"A/G"	"57,5/42,5"	"65/48"	113	stress_45	"POPTR_0008s15930.1"	1621	"	"G/A"	"55,3/44,7"	"21/17"	38
controllo_3	"POPTR_0008s20590.1"	333	"	"G/A"	"57,5/42,5"	"202/149"	351	stress_12bis	"POPTR_0008s20590.1"	333	"	"G/A"	"70,4/29,6"	"100/42"	142
controllo_3	"POPTR_0008s20590.1"	333	"	"G/A"	"57,5/42,5"	"202/149"	351	stress_42	"POPTR_0008s20590.1"	333	"	"G/A"	"60,7/39,3"	"74/48"	122
controllo_3	"POPTR_0008s20590.1"	333	"	"G/A"	"57,5/42,5"	"202/149"	351	stress_45	"POPTR_0008s20590.1"	333	"	"G/A"	"61,0/39,0"	"83/53"	136
controllo_3	"POPTR_0016s08520.1"	702	"	"G/T"	"57,5/42,5"	"50/37"	87	stress_45	"POPTR_0016s08520.1"	702	"	"G/T"	"52,3/47,7"	"57/52"	109
controllo_3	"POPTR_0016s02440.1"	776	"	"A/T"	"57,5/42,5"	"69/51"	120	stress_12bis	"POPTR_0016s02440.1"	776	"	"A/T"	"72,0/28,0"	"18/7"	25
controllo_3	"POPTR_0016s02440.1"	776	"	"A/T"	"57,5/42,5"	"69/51"	120	stress_45	"POPTR_0016s02440.1"	776	"	"A/T"	"51,6/48,4"	"16/15"	31
controllo_3	"POPTR_0002s15840.1"	168	"	"C/A"	"57,6/37,3"	"68/44"	118	stress_12bis	"POPTR_0002s15840.1"	168	"	"C/A"	"67,3/32,7"	"33/16"	49
controllo_3	"POPTR_0002s15840.1"	168	"	"C/A"	"57,6/37,3"	"68/44"	118	stress_42	"POPTR_0002s15840.1"	168	"	"C/A"	"54,5/45,5"	"6/5"	11
controllo_3	"POPTR_0011s02610.1"	749	"	"C/T"	"57,6/41,9"	"132/96"	229	stress_12bis	"POPTR_0011s02610.1"	749	"	"C/T"	"62,5/37,5"	"20/12"	32
controllo_3	"POPTR_0011s02610.1"	749	"	"C/T"	"57,6/41,9"	"132/96"	229	stress_45	"POPTR_0011s02610.1"	749	"	"T/C"	"64,3/35,7"	"9/5"	14
controllo_3	"POPTR_0010s19930.1"	242	"	"C/A"	"57,6/42,2"	"259/190"	450	stress_12bis	"POPTR_0010s19930.1"	242	"	"A/C"	"78,1/21,9"	"25/7"	32
controllo_3	"POPTR_0010s19930.1"	242	"	"C/A"	"57,6/42,2"	"259/190"	450	stress_42	"POPTR_0010s19930.1"	242	"	"A/C"	"67,5/32,5"	"154/74"	228
controllo_3	"POPTR_0010s19930.1"	242	"	"C/A"	"57,6/42,2"	"259/190"	450	stress_45	"POPTR_0010s19930.1"	242	"	"A/C"	"66,5/33,5"	"137/69"	206
controllo_3	"POPTR_0006s08530.1"	231	"	"G/A"	"57,6/42,3"	"3108/2283"	5394	stress_12bis	"POPTR_0006s08530.1"	231	"	"G/A"	"59,8/40,1"	"1948/1307"	3257
controllo_3	"POPTR_0006s08530.1"	231	"	"G/A"	"57,6/42,3"	"3108/2283"	5394	stress_42	"POPTR_0006s08530.1"	231	"	"G/A"	"74,9/25,0"	"2929/980"	3913
controllo_3	"POPTR_0006s08530.1"	231	"	"G/A"	"57,6/42,3"	"3108/2283"	5394	stress_45	"POPTR_0006s08530.1"	231	"	"G/A"	"70,5/29,4"	"2760/1152"	3914
controllo_3	"POPTR_0013s13190.1"	294	"	"C/T"	"57,6/42,4"	"170/125"	295	stress_12bis	"POPTR_0013s13190.1"	294	"	"C/T"	"57,0/43,0"	"57/43"	100
controllo_3	"POPTR_0013s13190.1"	294	"	"C/T"	"57,6/42,4"	"170/125"	295	stress_42	"POPTR_0013s13190.1"	294	"	"C/T"	"59,1/40,9"	"26/18"	44
controllo_3	"POPTR_0013s13190.1"	294	"	"C/T"	"57,6/42,4"	"170/125"	295	stress_45	"POPTR_0013s13190.1"	294	"	"C/T"	"63,3/36,7"	"19/11"	30
controllo_3	"POPTR_0014s09800.1"	534	"	"C/T"	"57,6/42,4"	"121/89"	210	stress_12bis	"POPTR_0014s09800.1"	534	"	"C/T"	"59,1/40,9"	"39/27"	66
controllo_3	"POPTR_0014s09800.1"	534	"	"C/T"	"57,6/42,4"	"121/89"	210	stress_42	"POPTR_0014s09800.1"	534	"	"C/T"	"80,0/20,0"	"16/4"	20
controllo_3	"POPTR_0014s09800.1"	534	"	"C/T"	"57,6/42,4"	"121/89"	210	stress_45	"POPTR_0014s09800.1"	534	"	"C/T"	"69,6/30,4"	"16/7"	23
controllo_3	"POPTR_0004s01510.1"	354	"	"A/G"	"57,6/42,4"	"312/230"	542	stress_12bis	"POPTR_0004s01510.1"	354	"	"A/G"	"81,8/18,2"	"18/4"	22
controllo_3	"POPTR_0009s02370.1"	121	"	"G/A"	"57,6/42,4"	"72/53"	125	stress_12bis	"POPTR_0009s02370.1"	121	"	"A/G"	"68,9/31,1"	"62/28"	90
controllo_3	"POPTR_0009s02370.1"	121	"	"G/A"	"57,6/42,4"	"72/53"	125	stress_42	"POPTR_0009s02370.1"	121	"	"A/G"	"62,9/37,1"	"22/13"	35
controllo_3	"POPTR_0009s02370.1"	121	"	"G/A"	"57,6/42,4"	"72/53"	125	stress_45	"POPTR_0009s02370.1"	121	"	"A/G"	"58,6/41,4"	"34/24"	58
controllo_3	"POPTR_0001s45410.1"	1248	"	"C/G"	"57,6/42,4"	"68/50"	118	stress_12bis	"POPTR_0001s45410.1"	1248	"	"C/G"	"64,6/35,4"	"31/17"	48
controllo_3	"POPTR_0001s45410.1"	1248	"	"C/G"	"57,6/42,4"	"68/50"	118	stress_42	"POPTR_0001s45410.1"	1248	"	"G/C"	"62,5/37,5"	"10/6"	16
controllo_3	"POPTR_0001s45410.1"	1248	"	"C/G"	"57,6/42,4"	"68/50"	118	stress_45	"POPTR_0001s45410.1"	1248	"	"C/G"	"81,8/18,2"	"18/4"	22
controllo_3	"POPTR_0001s32770.1"	984	"	"T/C"	"57,6/42,4"	"80/59"	139	stress_12bis	"POPTR_0001s32770.1"	984	"	"C/T"	"58,6/41,4"	"17/12"	29
controllo_3	"POPTR_0001s32770.1"	984	"	"T/C"	"57,6/42,4"	"80/59"	139	stress_42	"POPTR_0001s32770.1"	984	"	"C/T"	"57,7/42,3"	"30/22"	52
controllo_3	"POPTR_0001s32770.1"	984	"	"T/C"	"57,6/42,4"	"80/59"	139	stress_45	"POPTR_0001s32770.1"	984	"	"T/C"	"62,1/37,9"	"36/22"	58
controllo_3	"POPTR_0001s33910.1"	270	"	"T/C"	"57,6/42,4"	"106/78"	184	stress_12bis	"POPTR_0001s33910.1"	270	"	"T/C"	"57,4/42,6"	"27/20"	47
controllo_3	"POPTR_0001s33910.1"	270	"	"T/C"	"57,6/42,4"	"106/78"	184	stress_42	"POPTR_0001s33910.1"	270	"	"C/T"	"52,6/47,4"	"10/9"	19
controllo_3	"POPTR_0001s33910.1"	270	"	"T/C"	"57,6/42,4"	"106/78"	184	stress_45	"POPTR_0001s33910.1"	270	"	"T/C"	"70,8/29,2"	"17/7"	24
controllo_3	"POPTR_0007s15300.1"	1087	"	"T/C"	"57,6/42,4"	"19/14"	33	stress_42	"POPTR_0007s15300.1"	1087	"	"T/C"	"72,0/28,0"	"77/30"	107
controllo_3	"POPTR_0002s14730.1"	969	"	"C/A"	"57,6/42,4"	"354/261"	615	stress_12bis	"POPTR_0002s14730.1"	969	"	"C/A"	"53,3/46,7"	"104/91"	195
controllo_3	"POPTR_0002s14730.1"	969	"	"C/A"	"57,6/42,4"	"354/261"	615	stress_42	"POPTR_0002s14730.1"	969	"	"C/A"	"74,5/25,5"	"35/12"	47
controllo_3	"POPTR_0002s14730.1"	969	"	"C/A"	"57,6/42,4"	"354/261"	615	stress_45	"POPTR_0002s14730.1"	969	"	"C/A"	"74,6/25,4"	"47/16"	63
controllo_3	"POPTR_0002s19060.1"	1431	"	"T/C"	"57,6/42,4"	"38/28"	66	stress_42	"POPTR_0002s19060.1"	1431	"	"C/T"	"61,8/38,2"	"63/39"	102
controllo_3	"POPTR_0002s19060.1"	1431	"	"T/C"	"57,6/42,4"	"38/28"	66	stress_45	"POPTR_0002s19060.1"	1431	"	"C/T"	"59,2/40,8"	"61/42"	103
controllo_3	"POPTR_0008s05470.1"	1641	"	"A/T"	"57,6/42,4"	"159/117"	276	stress_12bis	"POPTR_0008s05470.1"	1641	"	"A/T"	"67,4/32,6"	"29/14"	43
controllo_3	"POPTR_0008s05470.1"	1641	"	"A/T"	"57,6/42,4"	"159/117"	276	stress_42	"POPTR_0008s05470.1"	1641	"	"A/T"	"70,0/30,0"	"21/9"	30
controllo_3	"POPTR_0008s05470.1"	1641	"	"A/T"	"57,6/42,4"	"159/117"	276	stress_45	"POPTR_0008s05470.1"	1641	"	"A/T"	"63,6/36,4"	"42/24"	66
controllo_3	"POPTR_0008s05480.1"	1239	"	"A/G"	"57,6/42,4"	"352/259"	611	stress_12bis	"POPTR_0008s05480.1"	1239	"	"A/G"	"57,6/42,4"	"110/81"	191
controllo_3	"POPTR_0008s05480.1"	1239	"	"A/G"	"57,6/42,4"	"352/259"	611	stress_42	"POPTR_0008s05480.1"	1239	"	"A/G"	"54,1/45,9"	"92/78"	170
controllo_3	"POPTR_0008s05480.1"	1239	"	"A/G"	"57,6/42,4"	"352/259"	611	stress_45	"POPTR_0008s05480.1"	1239	"	"A/G"	"55,3/44,7"	"205/166"	371
controllo_3	"POPTR_0008s11320.1"	199	"	"A/G"	"57,6/42,4"	"76/56"	132	stress_12bis	"POPTR_0008s11320.1"	199	"	"A/G"	"53,3/46,7"	"16/14"	30
controllo_3	"POPTR_0006s18760.1"	516	"	"C/G"	"57,7/41,5"	"82/59"	142	stress_12bis	"POPTR_0006s18760.1"	516	"	"C/G"	"50,0/50,0"	"13/13"	26
controllo_3	"POPTR_0006s18760.1"	516	"	"C/G"	"57,7/41,5"	"82/59"	142	stress_45	"POPTR_0006s18760.1"	516	"	"G/C"	"63,6/36,4"	"7/4"	11
controllo_3	"POPTR_0007s13110.1"	219	"	"C/T"	"57,7/42,0"	"199/145"	345	stress_12bis	"POPTR_0007s13110.1"	219	"	"C/T"	"56,9/43,1"	"33/25"	58
controllo_3	"POPTR_0007s13110.1"	219	"	"C/T"	"57,7/42,0"	"199/145"	345	stress_42	"POPTR_0007s13110.1"	219	"	"C/T"	"56,8/43,2"	"50/38"	88
controllo_3	"POPTR_0007s13110.1"	219	"	"C/T"	"57,7/42,0"	"199/145"	345	stress_45	"POPTR_0007s13110.1"	219	"	"T/C"	"51,8/48,2"	"59/55"	114
controllo_3	"POPTR_0011s02770.1"	495	"	"C/A"	"57,7/42,2"	"373/273"	647	stress_12bis	"POPTR_0011s02770.1"	495	"	"A/C"	"76,0/24,0"	"95/30"	125
controllo_3	"POPTR_0011s02770.1"	495	"	"C/A"	"57,7/42,2"	"373/273"	647	stress_42	"POPTR_0011s02770.1"	495	"	"A/C"	"66,7/33,3"	"28/14"	42
controllo_3	"POPTR_0011s02770.1"	495	"	"C/A"	"57,7/42,2"	"373/273"	647	stress_45	"POPTR_0011s02770.1"	495	"	"A/C"	"68,1/30,4"	"47/21"	69
controllo_3	"POPTR_0008s18230.1"	208	"	"T/A"	"57,7/42,2"	"316/231"	548	stress_12bis	"POPTR_0008s18230.1"	208	"	"T/A"	"58,0/42,0"	"109/79"	188
controllo_3	"POPTR_0008s18230.1"	208	"	"T/A"	"57,7/42,2"	"316/231"	548	stress_42	"POPTR_0008s18230.1"	208	"	"T/A"	"57,8/41,1"	"52/37"	90
controllo_3	"POPTR_0008s18230.1"	208	"	"T/A"	"57,7/42,2"	"316/231"	548	stress_45	"POPTR_0008s18230.1"	208	"	"T/A"	"62,7/37,3"	"37/22"	59
controllo_3	"POPTR_0006s03660.1"	1212	"	"C/G"	"57,7/42,3"	"71/52"	123	stress_12bis	"POPTR_0006s03660.1"	1212	"	"C/G"	"54,5/45,5"	"12/10"	22
controllo_3	"POPTR_0006s03660.1"	1212	"	"C/G"	"57,7/42,3"	"71/52"	123	stress_45	"POPTR_0006s03660.1"	1212	"	"C/G"	"52,6/47,4"	"10/9"	19
controllo_3	"POPTR_0003s11300.1"	692	"	"A/T"	"57,7/42,3"	"138/101"	239	stress_12bis	"POPTR_0003s11300.1"	692	"	"A/T"	"58,2/41,8"	"46/33"	79
controllo_3	"POPTR_0003s11300.1"	692	"	"A/T"	"57,7/42,3"	"138/101"	239	stress_45	"POPTR_0003s11300.1"	692	"	"A/T"	"50,0/50,0"	"5/5"	10
controllo_3	"POPTR_0003s10660.1"	489	"	"C/T"	"57,7/42,3"	"71/52"	123	stress_12bis	"POPTR_0003s10660.1"	489	"	"C/T"	"56,2/43,8"	"9/7"	16
controllo_3	"POPTR_0013s01930.1"	804	"	"T/A"	"57,7/42,3"	"60/44"	104	stress_12bis	"POPTR_0013s01930.1"	804	"	"A/T"	"55,1/44,9"	"27/22"	49
controllo_3	"POPTR_0013s01930.1"	804	"	"T/A"	"57,7/42,3"	"60/44"	104	stress_42	"POPTR_0013s01930.1"	804	"	"A/T"	"50,0/50,0"	"10/10"	20
controllo_3	"POPTR_0013s01930.1"	804	"	"T/A"	"57,7/42,3"	"60/44"	104	stress_45	"POPTR_0013s01930.1"	804	"	"A/T"	"63,6/36,4"	"7/4"	11
controllo_3	"POPTR_0014s17280.1"	747	"	"C/T"	"57,7/42,3"	"82/60"	142	stress_12bis	"POPTR_0014s17280.1"	747	"	"C/T"	"55,3/44,7"	"26/21"	47
controllo_3	"POPTR_0014s17280.1"	747	"	"C/T"	"57,7/42,3"	"82/60"	142	stress_42	"POPTR_0014s17280.1"	747	"	"T/C"	"52,5/47,5"	"32/29"	61
controllo_3	"POPTR_0014s17280.1"	747	"	"C/T"	"57,7/42,3"	"82/60"	142	stress_45	"POPTR_0014s17280.1"	747	"	"C/T"	"67,2/32,8"	"45/22"	67
controllo_3	"POPTR_0004s03160.1"	204	"	"G/A"	"57,7/42,3"	"411/301"	712	stress_12bis	"POPTR_0004s03160.1"	204	"	"A/G"	"51,0/49,0"	"78/75"	153
controllo_3	"POPTR_0004s03160.1"	204	"	"G/A"	"57,7/42,3"	"411/301"	712	stress_42	"POPTR_0004s03160.1"	204	"	"A/G"	"61,9/38,1"	"13/8"	21
controllo_3	"POPTR_0004s03160.1"	204	"	"G/A"	"57,7/42,3"	"411/301"	712	stress_45	"POPTR_0004s03160.1"	204	"	"A/G"	"77,8/22,2"	"14/4"	18
controllo_3	"POPTR_0004s01990.1"	685	"	"A/G"	"57,7/42,3"	"252/185"	437	stress_12bis	"POPTR_0004s01990.1"	685	"	"G/A"	"55,7/44,3"	"39/31"	70
controllo_3	"POPTR_0004s20830.1"	1713	"	"G/C"	"57,7/42,3"	"64/47"	111	stress_12bis	"POPTR_0004s20830.1"	1713	"	"C/G"	"61,0/39,0"	"50/32"	82
controllo_3	"POPTR_0004s20830.1"	1713	"	"G/C"	"57,7/42,3"	"64/47"	111	stress_42	"POPTR_0004s20830.1"	1713	"	"G/C"	"63,3/36,7"	"57/33"	90
controllo_3	"POPTR_0004s20830.1"	1713	"	"G/C"	"57,7/42,3"	"64/47"	111	stress_45	"POPTR_0004s20830.1"	1713	"	"G/C"	"58,2/41,8"	"32/23"	55
controllo_3	"POPTR_0009s02370.1"	195	"	"A/C"	"57,7/42,3"	"60/44"	104	stress_12bis	"POPTR_0009s02370.1"	195	"	"A/C"	"60,5/39,5"	"49/32"	81
controllo_3	"POPTR_0009s02370.1"	195	"	"A/C"	"57,7/42,3"	"60/44"	104	stress_42	"POPTR_0009s02370.1"	195	"	"A/C"	"54,7/45,3"	"29/24"	53
controllo_3	"POPTR_0009s02370.1"	195	"	"A/C"	"57,7/42,3"	"60/44"	104	stress_45	"POPTR_0009s02370.1"	195	"	"A/C"	"50,0/50,0"	"31/31"	62
controllo_3	"POPTR_0012s11630.1"	495	"	"C/T"	"57,7/42,3"	"131/96"	227	stress_12bis	"POPTR_0012s11630.1"	495	"	"C/T"	"70,1/29,9"	"94/40"	134
controllo_3	"POPTR_0012s11630.1"	495	"	"C/T"	"57,7/42,3"	"131/96"	227	stress_42	"POPTR_0012s11630.1"	495	"	"C/T"	"65,4/34,6"	"51/27"	78
controllo_3	"POPTR_0012s11630.1"	495	"	"C/T"	"57,7/42,3"	"131/96"	227	stress_45	"POPTR_0012s11630.1"	495	"	"C/T"	"58,1/41,9"	"50/36"	86
controllo_3	"POPTR_0011s05670.1"	300	"	"G/A"	"57,7/42,3"	"154/113"	267	stress_12bis	"POPTR_0011s05670.1"	300	"	"G/A"	"64,9/35,1"	"61/33"	94
controllo_3	"POPTR_0011s05670.1"	300	"	"G/A"	"57,7/42,3"	"154/113"	267	stress_42	"POPTR_0011s05670.1"	300	"	"G/A"	"79,4/20,6"	"27/7"	34
controllo_3	"POPTR_0011s05670.1"	300	"	"G/A"	"57,7/42,3"	"154/113"	267	stress_45	"POPTR_0011s05670.1"	300	"	"G/A"	"62,3/37,7"	"33/20"	53
controllo_3	"POPTR_0011s08940.1"	408	"	"C/T"	"57,7/42,3"	"629/461"	1090	stress_12bis	"POPTR_0011s08940.1"	408	"	"C/T"	"54,0/46,0"	"170/145"	315
controllo_3	"POPTR_0011s08940.1"	408	"	"C/T"	"57,7/42,3"	"629/461"	1090	stress_42	"POPTR_0011s08940.1"	408	"	"T/C"	"69,5/30,5"	"41/18"	59
controllo_3	"POPTR_0011s08940.1"	408	"	"C/T"	"57,7/42,3"	"629/461"	1090	stress_45	"POPTR_0011s08940.1"	408	"	"C/T"	"55,7/44,3"	"54/43"	97
controllo_3	"POPTR_0001s45410.1"	624	"	"C/T"	"57,7/42,3"	"64/47"	111	stress_12bis	"POPTR_0001s45410.1"	624	"	"C/T"	"50,7/49,3"	"34/33"	67
controllo_3	"POPTR_0001s45410.1"	624	"	"C/T"	"57,7/42,3"	"64/47"	111	stress_42	"POPTR_0001s45410.1"	624	"	"C/T"	"60,9/39,1"	"14/9"	23
controllo_3	"POPTR_0001s45410.1"	624	"	"C/T"	"57,7/42,3"	"64/47"	111	stress_45	"POPTR_0001s45410.1"	624	"	"C/T"	"71,4/28,6"	"10/4"	14
controllo_3	"POPTR_0001s47020.1"	2022	"	"T/C"	"57,7/42,3"	"120/88"	208	stress_12bis	"POPTR_0001s47020.1"	2022	"	"T/C"	"74,6/25,4"	"47/16"	63
controllo_3	"POPTR_0001s47020.1"	2022	"	"T/C"	"57,7/42,3"	"120/88"	208	stress_42	"POPTR_0001s47020.1"	2022	"	"T/C"	"60,6/39,4"	"40/26"	66
controllo_3	"POPTR_0001s47020.1"	2022	"	"T/C"	"57,7/42,3"	"120/88"	208	stress_45	"POPTR_0001s47020.1"	2022	"	"T/C"	"51,3/48,7"	"58/55"	113
controllo_3	"POPTR_0001s04310.1"	669	"	"A/G"	"57,7/42,3"	"64/47"	111	stress_12bis	"POPTR_0001s04310.1"	669	"	"A/G"	"53,3/46,7"	"16/14"	30
controllo_3	"POPTR_0007s10140.1"	636	"	"G/A"	"57,7/42,3"	"64/47"	111	stress_12bis	"POPTR_0007s10140.1"	636	"	"A/G"	"60,9/39,1"	"14/9"	23
controllo_3	"POPTR_0007s10140.1"	636	"	"G/A"	"57,7/42,3"	"64/47"	111	stress_42	"POPTR_0007s10140.1"	636	"	"A/G"	"55,0/45,0"	"11/9"	20
controllo_3	"POPTR_0007s10140.1"	636	"	"G/A"	"57,7/42,3"	"64/47"	111	stress_45	"POPTR_0007s10140.1"	636	"	"A/G"	"83,3/16,7"	"15/3"	18
controllo_3	"POPTR_0002s22600.1"	1158	"	"G/T"	"57,7/42,3"	"845/619"	1464	stress_12bis	"POPTR_0002s22600.1"	1158	"	"G/T"	"53,6/45,8"	"177/151"	330
controllo_3	"POPTR_0002s22600.1"	1158	"	"G/T"	"57,7/42,3"	"845/619"	1464	stress_42	"POPTR_0002s22600.1"	1158	"	"G/T"	"59,1/40,9"	"78/54"	132
controllo_3	"POPTR_0002s22600.1"	1158	"	"G/T"	"57,7/42,3"	"845/619"	1464	stress_45	"POPTR_0002s22600.1"	1158	"	"G/T"	"63,9/36,1"	"108/61"	169
controllo_3	"POPTR_0002s10870.1"	238	"	"A/G"	"57,7/42,3"	"90/66"	156	stress_12bis	"POPTR_0002s10870.1"	238	"	"A/G"	"73,9/26,1"	"34/12"	46
controllo_3	"POPTR_0002s10870.1"	238	"	"A/G"	"57,7/42,3"	"90/66"	156	stress_45	"POPTR_0002s10870.1"	238	"	"G/A"	"66,7/33,3"	"14/7"	21
controllo_3	"POPTR_0002s05660.1"	525	"	"T/C"	"57,7/42,3"	"568/416"	984	stress_12bis	"POPTR_0002s05660.1"	525	"	"T/C"	"55,4/44,6"	"148/119"	267
controllo_3	"POPTR_0002s05660.1"	525	"	"T/C"	"57,7/42,3"	"568/416"	984	stress_42	"POPTR_0002s05660.1"	525	"	"C/T"	"50,8/49,2"	"67/65"	132
controllo_3	"POPTR_0002s05660.1"	525	"	"T/C"	"57,7/42,3"	"568/416"	984	stress_45	"POPTR_0002s05660.1"	525	"	"T/C"	"55,6/44,4"	"79/63"	142
controllo_3	"POPTR_0002s14730.1"	1309	"	"A/C"	"57,7/42,3"	"498/365"	863	stress_12bis	"POPTR_0002s14730.1"	1309	"	"A/C"	"57,8/42,2"	"148/108"	256
controllo_3	"POPTR_0002s14730.1"	1309	"	"A/C"	"57,7/42,3"	"498/365"	863	stress_42	"POPTR_0002s14730.1"	1309	"	"A/C"	"63,5/36,5"	"33/19"	52
controllo_3	"POPTR_0002s14730.1"	1309	"	"A/C"	"57,7/42,3"	"498/365"	863	stress_45	"POPTR_0002s14730.1"	1309	"	"A/C"	"65,9/34,1"	"54/28"	82
controllo_3	"POPTR_0008s05470.1"	246	"	"T/C"	"57,7/42,3"	"112/82"	194	stress_12bis	"POPTR_0008s05470.1"	246	"	"T/C"	"60,6/39,4"	"20/13"	33
controllo_3	"POPTR_0008s05470.1"	246	"	"T/C"	"57,7/42,3"	"112/82"	194	stress_42	"POPTR_0008s05470.1"	246	"	"T/C"	"84,6/15,4"	"11/2"	13
controllo_3	"POPTR_0008s05470.1"	246	"	"T/C"	"57,7/42,3"	"112/82"	194	stress_45	"POPTR_0008s05470.1"	246	"	"T/C"	"71,9/28,1"	"23/9"	32
controllo_3	"POPTR_0008s19960.1"	762	"	"C/T"	"57,7/42,3"	"113/83"	196	stress_12bis	"POPTR_0008s19960.1"	762	"	"C/T"	"51,5/48,5"	"17/16"	33
controllo_3	"POPTR_0008s19960.1"	762	"	"C/T"	"57,7/42,3"	"113/83"	196	stress_45	"POPTR_0008s19960.1"	762	"	"C/T"	"54,5/45,5"	"6/5"	11
controllo_3	"POPTR_0016s03070.1"	167	"	"T/G"	"57,7/42,3"	"64/47"	111	stress_12bis	"POPTR_0016s03070.1"	167	"	"T/G"	"72,7/27,3"	"32/12"	44
controllo_3	"POPTR_0016s03070.1"	167	"	"T/G"	"57,7/42,3"	"64/47"	111	stress_42	"POPTR_0016s03070.1"	167	"	"T/G"	"62,5/37,5"	"15/9"	24
controllo_3	"POPTR_0016s03070.1"	167	"	"T/G"	"57,7/42,3"	"64/47"	111	stress_45	"POPTR_0016s03070.1"	167	"	"T/G"	"51,9/48,1"	"14/13"	27
controllo_3	"POPTR_0016s14310.1"	797	"	"A/G"	"57,7/42,3"	"214/157"	371	stress_12bis	"POPTR_0016s14310.1"	797	"	"G/A"	"51,3/48,7"	"78/74"	152
controllo_3	"POPTR_0016s14310.1"	797	"	"A/G"	"57,7/42,3"	"214/157"	371	stress_42	"POPTR_0016s14310.1"	797	"	"A/G"	"63,2/36,8"	"12/7"	19
controllo_3	"POPTR_0016s14310.1"	797	"	"A/G"	"57,7/42,3"	"214/157"	371	stress_45	"POPTR_0016s14310.1"	797	"	"A/G"	"71,4/28,6"	"20/8"	28
controllo_3	"POPTR_0002s05840.1"	582	"	"T/C"	"57,8/41,0"	"100/71"	173	stress_12bis	"POPTR_0002s05840.1"	582	"	"T/C"	"59,2/40,8"	"29/20"	49
controllo_3	"POPTR_0002s05840.1"	582	"	"T/C"	"57,8/41,0"	"100/71"	173	stress_42	"POPTR_0002s05840.1"	582	"	"T/C"	"62,9/36,2"	"66/38"	105
controllo_3	"POPTR_0002s05840.1"	582	"	"T/C"	"57,8/41,0"	"100/71"	173	stress_45	"POPTR_0002s05840.1"	582	"	"T/C"	"67,7/31,6"	"107/50"	158
controllo_3	"POPTR_0016s14100.1"	978	"	"G/C"	"57,8/41,1"	"107/76"	185	stress_12bis	"POPTR_0016s14100.1"	978	"	"G/C"	"52,3/47,7"	"34/31"	65
controllo_3	"POPTR_0016s14100.1"	978	"	"G/C"	"57,8/41,1"	"107/76"	185	stress_42	"POPTR_0016s14100.1"	978	"	"C/G"	"53,3/46,7"	"8/7"	15
controllo_3	"POPTR_0016s14100.1"	978	"	"G/C"	"57,8/41,1"	"107/76"	185	stress_45	"POPTR_0016s14100.1"	978	"	"C/G"	"57,1/42,9"	"16/12"	28
controllo_3	"POPTR_0015s11640.2"	429	"	"T/C"	"57,8/41,5"	"426/306"	737	stress_12bis	"POPTR_0015s11640.2"	429	"	"T/C"	"52,7/46,6"	"139/123"	264
controllo_3	"POPTR_0015s11640.2"	429	"	"T/C"	"57,8/41,5"	"426/306"	737	stress_42	"POPTR_0015s11640.2"	429	"	"T/C"	"66,7/33,3"	"48/24"	72
controllo_3	"POPTR_0015s11640.2"	429	"	"T/C"	"57,8/41,5"	"426/306"	737	stress_45	"POPTR_0015s11640.2"	429	"	"T/C"	"60,2/39,8"	"106/70"	176
controllo_3	"POPTR_0010s21270.1"	1908	"	"T/A"	"57,8/41,5"	"177/127"	306	stress_12bis	"POPTR_0010s21270.1"	1908	"	"T/A"	"70,1/29,9"	"75/32"	107
controllo_3	"POPTR_0010s21270.1"	1908	"	"T/A"	"57,8/41,5"	"177/127"	306	stress_42	"POPTR_0010s21270.1"	1908	"	"T/A"	"62,0/38,0"	"49/30"	79
controllo_3	"POPTR_0010s21270.1"	1908	"	"T/A"	"57,8/41,5"	"177/127"	306	stress_45	"POPTR_0010s21270.1"	1908	"	"T/A"	"61,4/38,6"	"78/49"	127
controllo_3	"POPTR_0002s03020.1"	159	"	"T/C"	"57,8/41,7"	"348/251"	602	stress_12bis	"POPTR_0002s03020.1"	159	"	"T/C"	"53,9/46,1"	"82/70"	152
controllo_3	"POPTR_0002s03020.1"	159	"	"T/C"	"57,8/41,7"	"348/251"	602	stress_42	"POPTR_0002s03020.1"	159	"	"T/C"	"75,6/24,4"	"180/58"	238
controllo_3	"POPTR_0002s03020.1"	159	"	"T/C"	"57,8/41,7"	"348/251"	602	stress_45	"POPTR_0002s03020.1"	159	"	"T/C"	"77,6/22,4"	"420/121"	541
controllo_3	"POPTR_0009s09710.1"	405	"	"T/C"	"57,8/41,8"	"144/104"	249	stress_12bis	"POPTR_0009s09710.1"	405	"	"T/C"	"63,0/36,4"	"109/63"	173
controllo_3	"POPTR_0009s09710.1"	405	"	"T/C"	"57,8/41,8"	"144/104"	249	stress_42	"POPTR_0009s09710.1"	405	"	"C/T"	"53,1/46,9"	"26/23"	49
controllo_3	"POPTR_0009s09710.1"	405	"	"T/C"	"57,8/41,8"	"144/104"	249	stress_45	"POPTR_0009s09710.1"	405	"	"T/C"	"53,2/46,8"	"25/22"	47
controllo_3	"POPTR_0009s05840.1"	318	"	"A/T"	"57,8/41,8"	"130/94"	225	stress_12bis	"POPTR_0009s05840.1"	318	"	"A/T"	"60,7/39,3"	"17/11"	28
controllo_3	"POPTR_0009s05840.1"	318	"	"A/T"	"57,8/41,8"	"130/94"	225	stress_42	"POPTR_0009s05840.1"	318	"	"A/T"	"56,9/43,1"	"37/28"	65
controllo_3	"POPTR_0009s05840.1"	318	"	"A/T"	"57,8/41,8"	"130/94"	225	stress_45	"POPTR_0009s05840.1"	318	"	"A/T"	"58,8/41,2"	"104/73"	177
controllo_3	"POPTR_0009s05240.1"	939	"	"T/C"	"57,8/42,1"	"467/340"	808	stress_12bis	"POPTR_0009s05240.1"	939	"	"C/T"	"52,7/47,3"	"118/106"	224
controllo_3	"POPTR_0009s05240.1"	939	"	"T/C"	"57,8/42,1"	"467/340"	808	stress_42	"POPTR_0009s05240.1"	939	"	"C/T"	"77,3/22,7"	"75/22"	97
controllo_3	"POPTR_0009s05240.1"	939	"	"T/C"	"57,8/42,1"	"467/340"	808	stress_45	"POPTR_0009s05240.1"	939	"	"C/T"	"64,4/35,6"	"65/36"	101
controllo_3	"POPTR_0011s02770.1"	207	"	"T/C"	"57,8/42,1"	"365/266"	632	stress_12bis	"POPTR_0011s02770.1"	207	"	"C/T"	"75,0/25,0"	"102/34"	136
controllo_3	"POPTR_0011s02770.1"	207	"	"T/C"	"57,8/42,1"	"365/266"	632	stress_42	"POPTR_0011s02770.1"	207	"	"C/T"	"53,3/46,7"	"16/14"	30
controllo_3	"POPTR_0011s02770.1"	207	"	"T/C"	"57,8/42,1"	"365/266"	632	stress_45	"POPTR_0011s02770.1"	207	"	"C/T"	"63,9/36,1"	"39/22"	61
controllo_3	"POPTR_0005s23110.1"	147	"	"T/C"	"57,8/42,2"	"63/46"	109	stress_12bis	"POPTR_0005s23110.1"	147	"	"T/C"	"70,3/29,7"	"26/11"	37
controllo_3	"POPTR_0005s26220.1"	124	"	"C/T"	"57,8/42,2"	"48/35"	83	stress_42	"POPTR_0005s26220.1"	124	"	"C/T"	"66,8/33,2"	"125/62"	187
controllo_3	"POPTR_0005s26220.1"	124	"	"C/T"	"57,8/42,2"	"48/35"	83	stress_45	"POPTR_0005s26220.1"	124	"	"C/T"	"68,0/32,0"	"102/48"	150
controllo_3	"POPTR_0006s11570.1"	180	"	"T/C"	"57,8/42,2"	"145/106"	251	stress_12bis	"POPTR_0006s11570.1"	180	"	"C/T"	"51,2/48,8"	"42/40"	82
controllo_3	"POPTR_0006s11570.1"	180	"	"T/C"	"57,8/42,2"	"145/106"	251	stress_42	"POPTR_0006s11570.1"	180	"	"C/T"	"51,0/49,0"	"25/24"	49
controllo_3	"POPTR_0006s11570.1"	180	"	"T/C"	"57,8/42,2"	"145/106"	251	stress_45	"POPTR_0006s11570.1"	180	"	"T/C"	"52,9/47,1"	"45/40"	85
controllo_3	"POPTR_0013s01790.1"	154	"	"C/T"	"57,8/42,2"	"63/46"	109	stress_12bis	"POPTR_0013s01790.1"	154	"	"T/C"	"55,2/44,8"	"16/13"	29
controllo_3	"POPTR_0013s01790.1"	154	"	"C/T"	"57,8/42,2"	"63/46"	109	stress_42	"POPTR_0013s01790.1"	154	"	"C/T"	"53,8/46,2"	"7/6"	13
controllo_3	"POPTR_0013s01790.1"	154	"	"C/T"	"57,8/42,2"	"63/46"	109	stress_45	"POPTR_0013s01790.1"	154	"	"T/C"	"55,6/44,4"	"10/8"	18
controllo_3	"POPTR_0014s14200.1"	472	"	"T/C"	"57,8/42,2"	"137/100"	237	stress_12bis	"POPTR_0014s14200.1"	472	"	"T/C"	"59,1/40,9"	"13/9"	22
controllo_3	"POPTR_0014s14200.1"	472	"	"T/C"	"57,8/42,2"	"137/100"	237	stress_42	"POPTR_0014s14200.1"	472	"	"T/C"	"73,9/26,1"	"17/6"	23
controllo_3	"POPTR_0014s14200.1"	472	"	"T/C"	"57,8/42,2"	"137/100"	237	stress_45	"POPTR_0014s14200.1"	472	"	"T/C"	"70,8/29,2"	"63/26"	89
controllo_3	"POPTR_0014s10260.1"	1390	"	"A/C"	"57,8/42,2"	"160/117"	277	stress_12bis	"POPTR_0014s10260.1"	1390	"	"C/A"	"59,1/39,4"	"39/26"	66
controllo_3	"POPTR_0014s10260.1"	1390	"	"A/C"	"57,8/42,2"	"160/117"	277	stress_42	"POPTR_0014s10260.1"	1390	"	"A/C"	"59,5/40,5"	"22/15"	37
controllo_3	"POPTR_0014s10260.1"	1390	"	"A/C"	"57,8/42,2"	"160/117"	277	stress_45	"POPTR_0014s10260.1"	1390	"	"A/C"	"55,0/45,0"	"44/36"	80
controllo_3	"POPTR_0009s09710.1"	403	"	"C/G"	"57,8/42,2"	"144/105"	249	stress_12bis	"POPTR_0009s09710.1"	403	"	"C/G"	"62,8/37,2"	"108/64"	172
controllo_3	"POPTR_0009s09710.1"	403	"	"C/G"	"57,8/42,2"	"144/105"	249	stress_42	"POPTR_0009s09710.1"	403	"	"G/C"	"54,0/46,0"	"27/23"	50
controllo_3	"POPTR_0009s09710.1"	403	"	"C/G"	"57,8/42,2"	"144/105"	249	stress_45	"POPTR_0009s09710.1"	403	"	"C/G"	"55,3/44,7"	"26/21"	47
controllo_3	"POPTR_0009s01320.1"	469	"	"T/C"	"57,8/42,2"	"148/108"	256	stress_12bis	"POPTR_0009s01320.1"	469	"	"T/C"	"61,3/38,3"	"152/95"	248
controllo_3	"POPTR_0009s01320.1"	469	"	"T/C"	"57,8/42,2"	"148/108"	256	stress_42	"POPTR_0009s01320.1"	469	"	"T/C"	"57,5/42,5"	"131/97"	228
controllo_3	"POPTR_0009s01320.1"	469	"	"T/C"	"57,8/42,2"	"148/108"	256	stress_45	"POPTR_0009s01320.1"	469	"	"T/C"	"54,5/45,5"	"174/145"	319
controllo_3	"POPTR_0015s10920.1"	1617	"	"G/A"	"57,8/42,2"	"118/86"	204	stress_12bis	"POPTR_0015s10920.1"	1617	"	"G/A"	"50,7/49,3"	"34/33"	67
controllo_3	"POPTR_0015s10920.1"	1617	"	"G/A"	"57,8/42,2"	"118/86"	204	stress_42	"POPTR_0015s10920.1"	1617	"	"G/A"	"54,5/45,5"	"12/10"	22
controllo_3	"POPTR_0015s10920.1"	1617	"	"G/A"	"57,8/42,2"	"118/86"	204	stress_45	"POPTR_0015s10920.1"	1617	"	"A/G"	"54,9/45,1"	"28/23"	51
controllo_3	"POPTR_0001s14280.1"	1119	"	"G/A"	"57,8/42,2"	"78/57"	135	stress_12bis	"POPTR_0001s14280.1"	1119	"	"G/A"	"52,6/47,4"	"40/36"	76
controllo_3	"POPTR_0001s14280.1"	1119	"	"G/A"	"57,8/42,2"	"78/57"	135	stress_42	"POPTR_0001s14280.1"	1119	"	"A/G"	"50,4/49,6"	"134/132"	266
controllo_3	"POPTR_0001s14280.1"	1119	"	"G/A"	"57,8/42,2"	"78/57"	135	stress_45	"POPTR_0001s14280.1"	1119	"	"A/G"	"53,9/46,1"	"173/148"	321
controllo_3	"POPTR_0001s03980.1"	1599	"	"T/C"	"57,8/42,2"	"67/49"	116	stress_12bis	"POPTR_0001s03980.1"	1599	"	"T/C"	"74,2/25,8"	"23/8"	31
controllo_3	"POPTR_0001s03980.1"	1599	"	"T/C"	"57,8/42,2"	"67/49"	116	stress_42	"POPTR_0001s03980.1"	1599	"	"C/T"	"51,7/48,3"	"15/14"	29
controllo_3	"POPTR_0001s03980.1"	1599	"	"T/C"	"57,8/42,2"	"67/49"	116	stress_45	"POPTR_0001s03980.1"	1599	"	"T/C"	"61,7/38,3"	"29/18"	47
controllo_3	"POPTR_0001s10880.1"	1134	"	"G/A"	"57,8/42,2"	"63/46"	109	stress_12bis	"POPTR_0001s10880.1"	1134	"	"G/A"	"54,4/45,6"	"43/36"	79
controllo_3	"POPTR_0001s10880.1"	1134	"	"G/A"	"57,8/42,2"	"63/46"	109	stress_42	"POPTR_0001s10880.1"	1134	"	"G/A"	"61,5/38,5"	"24/15"	39
controllo_3	"POPTR_0001s10880.1"	1134	"	"G/A"	"57,8/42,2"	"63/46"	109	stress_45	"POPTR_0001s10880.1"	1134	"	"A/G"	"52,5/47,5"	"21/19"	40
controllo_3	"POPTR_0001s10040.1"	122	"	"A/T"	"57,8/42,2"	"78/57"	135	stress_12bis	"POPTR_0001s10040.1"	122	"	"T/A"	"53,7/46,3"	"36/31"	67
controllo_3	"POPTR_0001s10040.1"	122	"	"A/T"	"57,8/42,2"	"78/57"	135	stress_42	"POPTR_0001s10040.1"	122	"	"A/T"	"53,3/46,7"	"24/21"	45
controllo_3	"POPTR_0001s10040.1"	122	"	"A/T"	"57,8/42,2"	"78/57"	135	stress_45	"POPTR_0001s10040.1"	122	"	"A/T"	"56,2/43,8"	"41/32"	73
controllo_3	"POPTR_0010s21270.1"	1776	"	"C/T"	"57,8/42,2"	"255/186"	441	stress_12bis	"POPTR_0010s21270.1"	1776	"	"C/T"	"62,1/37,9"	"100/61"	161
controllo_3	"POPTR_0010s21270.1"	1776	"	"C/T"	"57,8/42,2"	"255/186"	441	stress_42	"POPTR_0010s21270.1"	1776	"	"C/T"	"61,7/38,3"	"58/36"	94
controllo_3	"POPTR_0010s21270.1"	1776	"	"C/T"	"57,8/42,2"	"255/186"	441	stress_45	"POPTR_0010s21270.1"	1776	"	"C/T"	"58,4/41,1"	"118/83"	202
controllo_3	"POPTR_0010s17400.1"	69	"	"G/A"	"57,8/42,2"	"78/57"	135	stress_12bis	"POPTR_0010s17400.1"	69	"	"G/A"	"75,0/25,0"	"27/9"	36
controllo_3	"POPTR_0010s17400.1"	69	"	"G/A"	"57,8/42,2"	"78/57"	135	stress_42	"POPTR_0010s17400.1"	69	"	"G/A"	"72,7/27,3"	"8/3"	11
controllo_3	"POPTR_0010s17400.1"	69	"	"G/A"	"57,8/42,2"	"78/57"	135	stress_45	"POPTR_0010s17400.1"	69	"	"G/A"	"75,0/25,0"	"12/4"	16
controllo_3	"POPTR_0002s15600.1"	75	"	"C/A"	"57,8/42,2"	"67/49"	116	stress_12bis	"POPTR_0002s15600.1"	75	"	"C/A"	"65,0/35,0"	"13/7"	20
controllo_3	"POPTR_0002s15600.1"	75	"	"C/A"	"57,8/42,2"	"67/49"	116	stress_42	"POPTR_0002s15600.1"	75	"	"C/A"	"57,1/42,9"	"8/6"	14
controllo_3	"POPTR_0002s15600.1"	75	"	"C/A"	"57,8/42,2"	"67/49"	116	stress_45	"POPTR_0002s15600.1"	75	"	"C/A"	"64,7/35,3"	"11/6"	17
controllo_3	"POPTR_0002s08150.1"	354	"	"C/T"	"57,8/42,2"	"48/35"	83	stress_45	"POPTR_0002s08150.1"	354	"	"T/C"	"50,8/49,2"	"67/65"	132
controllo_3	"POPTR_0002s18500.1"	942	"	"T/A"	"57,8/42,2"	"107/78"	185	stress_12bis	"POPTR_0002s18500.1"	942	"	"T/A"	"72,3/27,7"	"34/13"	47
controllo_3	"POPTR_0002s18500.1"	942	"	"T/A"	"57,8/42,2"	"107/78"	185	stress_42	"POPTR_0002s18500.1"	942	"	"T/A"	"62,4/37,1"	"138/82"	221
controllo_3	"POPTR_0002s18500.1"	942	"	"T/A"	"57,8/42,2"	"107/78"	185	stress_45	"POPTR_0002s18500.1"	942	"	"T/A"	"59,0/41,0"	"124/86"	210
controllo_3	"POPTR_0002s22220.1"	591	"	"T/G"	"57,8/42,2"	"253/185"	438	stress_12bis	"POPTR_0002s22220.1"	591	"	"T/G"	"53,3/46,7"	"48/42"	90
controllo_3	"POPTR_0002s22220.1"	591	"	"T/G"	"57,8/42,2"	"253/185"	438	stress_42	"POPTR_0002s22220.1"	591	"	"T/G"	"53,8/46,2"	"35/30"	65
controllo_3	"POPTR_0002s22220.1"	591	"	"T/G"	"57,8/42,2"	"253/185"	438	stress_45	"POPTR_0002s22220.1"	591	"	"G/T"	"50,0/50,0"	"46/46"	92
controllo_3	"POPTR_0008s06960.1"	672	"	"A/G"	"57,8/42,2"	"59/43"	102	stress_42	"POPTR_0008s06960.1"	672	"	"G/A"	"70,0/30,0"	"7/3"	10
controllo_3	"POPTR_0010s14080.1"	501	"	"A/G"	"57,9/41,7"	"161/116"	278	stress_12bis	"POPTR_0010s14080.1"	501	"	"A/G"	"63,4/36,6"	"64/37"	101
controllo_3	"POPTR_0010s14080.1"	501	"	"A/G"	"57,9/41,7"	"161/116"	278	stress_42	"POPTR_0010s14080.1"	501	"	"A/G"	"66,7/33,3"	"12/6"	18
controllo_3	"POPTR_0010s14080.1"	501	"	"A/G"	"57,9/41,7"	"161/116"	278	stress_45	"POPTR_0010s14080.1"	501	"	"A/G"	"80,6/19,4"	"25/6"	31
controllo_3	"POPTR_0005s27240.1"	764	"	"A/G"	"57,9/42,1"	"66/48"	114	stress_12bis	"POPTR_0005s27240.1"	764	"	"A/G"	"76,8/23,2"	"43/13"	56
controllo_3	"POPTR_0005s27240.1"	764	"	"A/G"	"57,9/42,1"	"66/48"	114	stress_45	"POPTR_0005s27240.1"	764	"	"A/G"	"61,3/38,7"	"19/12"	31
controllo_3	"POPTR_0005s05130.1"	204	"	"G/A"	"57,9/42,1"	"81/59"	140	stress_12bis	"POPTR_0005s05130.1"	204	"	"A/G"	"50,0/50,0"	"7/7"	14
controllo_3	"POPTR_0005s05130.1"	204	"	"G/A"	"57,9/42,1"	"81/59"	140	stress_42	"POPTR_0005s05130.1"	204	"	"G/A"	"58,3/41,7"	"7/5"	12
controllo_3	"POPTR_0005s05130.1"	204	"	"G/A"	"57,9/42,1"	"81/59"	140	stress_45	"POPTR_0005s05130.1"	204	"	"G/A"	"64,7/35,3"	"11/6"	17
controllo_3	"POPTR_0005s08610.1"	213	"	"T/C"	"57,9/42,1"	"143/104"	247	stress_12bis	"POPTR_0005s08610.1"	213	"	"T/C"	"54,5/45,5"	"60/50"	110
controllo_3	"POPTR_0005s08610.1"	213	"	"T/C"	"57,9/42,1"	"143/104"	247	stress_42	"POPTR_0005s08610.1"	213	"	"T/C"	"54,5/45,5"	"24/20"	44
controllo_3	"POPTR_0005s08610.1"	213	"	"T/C"	"57,9/42,1"	"143/104"	247	stress_45	"POPTR_0005s08610.1"	213	"	"C/T"	"54,7/45,3"	"35/29"	64
controllo_3	"POPTR_0005s22830.1"	269	"	"C/A"	"57,9/42,1"	"238/173"	411	stress_12bis	"POPTR_0005s22830.1"	269	"	"C/A"	"59,9/40,1"	"106/71"	177
controllo_3	"POPTR_0005s22830.1"	269	"	"C/A"	"57,9/42,1"	"238/173"	411	stress_42	"POPTR_0005s22830.1"	269	"	"C/A"	"58,6/41,4"	"65/46"	111
controllo_3	"POPTR_0005s22830.1"	269	"	"C/A"	"57,9/42,1"	"238/173"	411	stress_45	"POPTR_0005s22830.1"	269	"	"C/A"	"56,1/42,9"	"55/42"	98
controllo_3	"POPTR_0017s00850.1"	138	"	"A/C"	"57,9/42,1"	"77/56"	133	stress_12bis	"POPTR_0017s00850.1"	138	"	"A/C"	"77,3/22,7"	"17/5"	22
controllo_3	"POPTR_0017s00850.1"	138	"	"A/C"	"57,9/42,1"	"77/56"	133	stress_42	"POPTR_0017s00850.1"	138	"	"C/A"	"50,7/49,3"	"34/33"	67
controllo_3	"POPTR_0017s00850.1"	138	"	"A/C"	"57,9/42,1"	"77/56"	133	stress_45	"POPTR_0017s00850.1"	138	"	"C/A"	"50,5/49,5"	"50/49"	99
controllo_3	"POPTR_0017s06920.1"	1633	"	"C/T"	"57,9/42,1"	"631/459"	1090	stress_12bis	"POPTR_0017s06920.1"	1633	"	"C/T"	"62,4/37,6"	"191/115"	306
controllo_3	"POPTR_0003s10090.1"	1179	"	"A/G"	"57,9/42,1"	"66/48"	114	stress_12bis	"POPTR_0003s10090.1"	1179	"	"A/G"	"66,7/33,3"	"26/13"	39
controllo_3	"POPTR_0003s10090.1"	1179	"	"A/G"	"57,9/42,1"	"66/48"	114	stress_42	"POPTR_0003s10090.1"	1179	"	"A/G"	"61,9/38,1"	"13/8"	21
controllo_3	"POPTR_0003s10090.1"	1179	"	"A/G"	"57,9/42,1"	"66/48"	114	stress_45	"POPTR_0003s10090.1"	1179	"	"A/G"	"58,8/41,2"	"20/14"	34
controllo_3	"POPTR_0019s12320.1"	212	"	"A/C"	"57,9/42,1"	"66/48"	114	stress_12bis	"POPTR_0019s12320.1"	212	"	"A/C"	"57,4/42,6"	"27/20"	47
controllo_3	"POPTR_0013s01080.1"	1569	"	"T/A"	"57,9/42,1"	"66/48"	114	stress_12bis	"POPTR_0013s01080.1"	1569	"	"T/A"	"54,9/45,1"	"28/23"	51
controllo_3	"POPTR_0013s01080.1"	1569	"	"T/A"	"57,9/42,1"	"66/48"	114	stress_42	"POPTR_0013s01080.1"	1569	"	"A/T"	"63,0/37,0"	"17/10"	27
controllo_3	"POPTR_0013s01080.1"	1569	"	"T/A"	"57,9/42,1"	"66/48"	114	stress_45	"POPTR_0013s01080.1"	1569	"	"T/A"	"53,8/46,2"	"14/12"	26
controllo_3	"POPTR_0004s09910.1"	440	"	"A/G"	"57,9/42,1"	"6294/4569"	10864	stress_12bis	"POPTR_0004s09910.1"	440	"	"A/G"	"58,0/42,0"	"1081/784"	1865
controllo_3	"POPTR_0004s09910.1"	440	"	"A/G"	"57,9/42,1"	"6294/4569"	10864	stress_42	"POPTR_0004s09910.1"	440	"	"A/G"	"59,1/40,9"	"137/95"	232
controllo_3	"POPTR_0004s09910.1"	440	"	"A/G"	"57,9/42,1"	"6294/4569"	10864	stress_45	"POPTR_0004s09910.1"	440	"	"A/G"	"60,7/39,3"	"176/114"	290
controllo_3	"POPTR_0004s01470.1"	597	"	"A/T"	"57,9/42,1"	"613/446"	1059	stress_12bis	"POPTR_0004s01470.1"	597	"	"A/T"	"57,8/42,2"	"174/127"	301
controllo_3	"POPTR_0004s01470.1"	597	"	"A/T"	"57,9/42,1"	"613/446"	1059	stress_42	"POPTR_0004s01470.1"	597	"	"A/T"	"55,7/44,3"	"59/47"	106
controllo_3	"POPTR_0004s01470.1"	597	"	"A/T"	"57,9/42,1"	"613/446"	1059	stress_45	"POPTR_0004s01470.1"	597	"	"A/T"	"60,0/40,0"	"75/50"	125
controllo_3	"POPTR_0009s11480.1"	666	"	"G/A"	"57,9/42,1"	"147/107"	254	stress_12bis	"POPTR_0009s11480.1"	666	"	"G/A"	"54,8/45,2"	"57/47"	104
controllo_3	"POPTR_0009s11480.1"	666	"	"G/A"	"57,9/42,1"	"147/107"	254	stress_42	"POPTR_0009s11480.1"	666	"	"G/A"	"55,6/44,4"	"10/8"	18
controllo_3	"POPTR_0009s11480.1"	666	"	"G/A"	"57,9/42,1"	"147/107"	254	stress_45	"POPTR_0009s11480.1"	666	"	"G/A"	"51,5/48,5"	"17/16"	33
controllo_3	"POPTR_0009s04820.1"	217	"	"C/A"	"57,9/42,1"	"95/69"	164	stress_12bis	"POPTR_0009s04820.1"	217	"	"A/C"	"55,9/44,1"	"19/15"	34
controllo_3	"POPTR_0009s04820.1"	217	"	"C/A"	"57,9/42,1"	"95/69"	164	stress_42	"POPTR_0009s04820.1"	217	"	"C/A"	"60,0/40,0"	"15/10"	25
controllo_3	"POPTR_0011s02770.1"	711	"	"G/A"	"57,9/42,1"	"334/243"	577	stress_12bis	"POPTR_0011s02770.1"	711	"	"A/G"	"77,3/22,7"	"68/20"	88
controllo_3	"POPTR_0011s02770.1"	711	"	"G/A"	"57,9/42,1"	"334/243"	577	stress_42	"POPTR_0011s02770.1"	711	"	"A/G"	"82,1/17,9"	"32/7"	39
controllo_3	"POPTR_0011s02770.1"	711	"	"G/A"	"57,9/42,1"	"334/243"	577	stress_45	"POPTR_0011s02770.1"	711	"	"A/G"	"83,8/16,2"	"31/6"	37
controllo_3	"POPTR_0015s04810.1"	325	"	"C/G"	"57,9/42,1"	"66/48"	114	stress_12bis	"POPTR_0015s04810.1"	325	"	"G/C"	"65,9/34,1"	"29/15"	44
controllo_3	"POPTR_0015s04810.1"	325	"	"C/G"	"57,9/42,1"	"66/48"	114	stress_45	"POPTR_0015s04810.1"	325	"	"G/C"	"70,0/30,0"	"7/3"	10
controllo_3	"POPTR_0015s06230.1"	942	"	"A/G"	"57,9/42,1"	"154/112"	266	stress_12bis	"POPTR_0015s06230.1"	942	"	"A/G"	"59,1/40,9"	"13/9"	22
controllo_3	"POPTR_0015s06230.1"	942	"	"A/G"	"57,9/42,1"	"154/112"	266	stress_42	"POPTR_0015s06230.1"	942	"	"A/G"	"60,0/40,0"	"6/4"	10
controllo_3	"POPTR_0015s06230.1"	942	"	"A/G"	"57,9/42,1"	"154/112"	266	stress_45	"POPTR_0015s06230.1"	942	"	"G/A"	"54,5/45,5"	"6/5"	11
controllo_3	"POPTR_0001s09030.1"	534	"	"C/T"	"57,9/42,1"	"11/8"	19	stress_45	"POPTR_0001s09030.1"	534	"	"T/C"	"66,7/33,3"	"98/49"	147
controllo_3	"POPTR_0001s01630.1"	25	"	"C/A"	"57,9/42,1"	"117/85"	202	stress_12bis	"POPTR_0001s01630.1"	25	"	"C/A"	"58,1/41,9"	"25/18"	43
controllo_3	"POPTR_0001s12970.1"	1821	"	"T/C"	"57,9/42,1"	"62/45"	107	stress_12bis	"POPTR_0001s12970.1"	1821	"	"C/T"	"56,2/43,8"	"18/14"	32
controllo_3	"POPTR_0001s12970.1"	1821	"	"T/C"	"57,9/42,1"	"62/45"	107	stress_45	"POPTR_0001s12970.1"	1821	"	"T/C"	"61,9/38,1"	"13/8"	21
controllo_3	"POPTR_0001s25520.1"	601	"	"C/T"	"57,9/42,1"	"66/48"	114	stress_12bis	"POPTR_0001s25520.1"	601	"	"C/T"	"51,4/48,6"	"19/18"	37
controllo_3	"POPTR_0001s25520.1"	601	"	"C/T"	"57,9/42,1"	"66/48"	114	stress_42	"POPTR_0001s25520.1"	601	"	"T/C"	"56,1/43,9"	"23/18"	41
controllo_3	"POPTR_0001s25520.1"	601	"	"C/T"	"57,9/42,1"	"66/48"	114	stress_45	"POPTR_0001s25520.1"	601	"	"C/T"	"58,1/41,9"	"18/13"	31
controllo_3	"POPTR_0010s21270.1"	906	"	"T/C"	"57,9/42,1"	"140/102"	242	stress_12bis	"POPTR_0010s21270.1"	906	"	"T/C"	"55,7/43,2"	"49/38"	88
controllo_3	"POPTR_0010s21270.1"	906	"	"T/C"	"57,9/42,1"	"140/102"	242	stress_42	"POPTR_0010s21270.1"	906	"	"T/C"	"64,3/35,7"	"18/10"	28
controllo_3	"POPTR_0010s21270.1"	906	"	"T/C"	"57,9/42,1"	"140/102"	242	stress_45	"POPTR_0010s21270.1"	906	"	"T/C"	"55,8/44,2"	"48/38"	86
controllo_3	"POPTR_0007s02460.1"	1044	"	"C/T"	"57,9/42,1"	"73/53"	126	stress_12bis	"POPTR_0007s02460.1"	1044	"	"T/C"	"55,2/44,8"	"16/13"	29
controllo_3	"POPTR_0007s02460.1"	1044	"	"C/T"	"57,9/42,1"	"73/53"	126	stress_42	"POPTR_0007s02460.1"	1044	"	"T/C"	"51,9/48,1"	"27/25"	52
controllo_3	"POPTR_0007s02460.1"	1044	"	"C/T"	"57,9/42,1"	"73/53"	126	stress_45	"POPTR_0007s02460.1"	1044	"	"C/T"	"68,2/31,8"	"30/14"	44
controllo_3	"POPTR_0007s04180.1"	519	"	"C/T"	"57,9/42,1"	"84/61"	145	stress_12bis	"POPTR_0007s04180.1"	519	"	"C/T"	"66,7/33,3"	"34/17"	51
controllo_3	"POPTR_0007s04180.1"	519	"	"C/T"	"57,9/42,1"	"84/61"	145	stress_42	"POPTR_0007s04180.1"	519	"	"C/T"	"70,6/29,4"	"12/5"	17
controllo_3	"POPTR_0007s04180.1"	519	"	"C/T"	"57,9/42,1"	"84/61"	145	stress_45	"POPTR_0007s04180.1"	519	"	"C/T"	"69,2/30,8"	"18/8"	26
controllo_3	"POPTR_0002s25170.1"	247	"	"A/G"	"57,9/42,1"	"106/77"	183	stress_12bis	"POPTR_0002s25170.1"	247	"	"A/G"	"50,0/50,0"	"34/34"	68
controllo_3	"POPTR_0002s25170.1"	247	"	"A/G"	"57,9/42,1"	"106/77"	183	stress_42	"POPTR_0002s25170.1"	247	"	"A/G"	"53,3/46,7"	"32/28"	60
controllo_3	"POPTR_0002s25170.1"	247	"	"A/G"	"57,9/42,1"	"106/77"	183	stress_45	"POPTR_0002s25170.1"	247	"	"A/G"	"53,4/46,6"	"55/48"	103
controllo_3	"POPTR_0016s00410.1"	2340	"	"C/A"	"57,9/42,1"	"62/45"	107	stress_12bis	"POPTR_0016s00410.1"	2340	"	"C/A"	"54,2/45,8"	"13/11"	24
controllo_3	"POPTR_0018s00850.1"	285	"	"A/T"	"58,0/41,8"	"204/147"	352	stress_12bis	"POPTR_0018s00850.1"	285	"	"A/T"	"71,6/28,4"	"53/21"	74
controllo_3	"POPTR_0018s00850.1"	285	"	"A/T"	"58,0/41,8"	"204/147"	352	stress_42	"POPTR_0018s00850.1"	285	"	"A/T"	"83,5/16,2"	"222/43"	266
controllo_3	"POPTR_0018s00850.1"	285	"	"A/T"	"58,0/41,8"	"204/147"	352	stress_45	"POPTR_0018s00850.1"	285	"	"A/T"	"79,9/19,5"	"263/64"	329
controllo_3	"POPTR_0002s22600.1"	246	"	"C/T"	"58,0/41,9"	"951/687"	1640	stress_12bis	"POPTR_0002s22600.1"	246	"	"C/T"	"61,0/39,0"	"221/141"	362
controllo_3	"POPTR_0002s22600.1"	246	"	"C/T"	"58,0/41,9"	"951/687"	1640	stress_42	"POPTR_0002s22600.1"	246	"	"C/T"	"61,9/38,1"	"73/45"	118
controllo_3	"POPTR_0002s22600.1"	246	"	"C/T"	"58,0/41,9"	"951/687"	1640	stress_45	"POPTR_0002s22600.1"	246	"	"C/T"	"56,7/43,3"	"97/74"	171
controllo_3	"POPTR_0005s10440.1"	213	"	"T/C"	"58,0/42,0"	"120/87"	207	stress_12bis	"POPTR_0005s10440.1"	213	"	"C/T"	"55,8/44,2"	"24/19"	43
controllo_3	"POPTR_0005s10440.1"	213	"	"T/C"	"58,0/42,0"	"120/87"	207	stress_42	"POPTR_0005s10440.1"	213	"	"C/T"	"50,9/49,1"	"27/26"	53
controllo_3	"POPTR_0005s10440.1"	213	"	"T/C"	"58,0/42,0"	"120/87"	207	stress_45	"POPTR_0005s10440.1"	213	"	"C/T"	"50,8/49,2"	"30/29"	59
controllo_3	"POPTR_0006s04960.1"	2228	"	"G/A"	"58,0/42,0"	"170/123"	293	stress_12bis	"POPTR_0006s04960.1"	2228	"	"A/G"	"51,1/48,9"	"24/23"	47
controllo_3	"POPTR_0006s04960.1"	2228	"	"G/A"	"58,0/42,0"	"170/123"	293	stress_42	"POPTR_0006s04960.1"	2228	"	"G/A"	"61,5/38,5"	"8/5"	13
controllo_3	"POPTR_0006s04960.1"	2228	"	"G/A"	"58,0/42,0"	"170/123"	293	stress_45	"POPTR_0006s04960.1"	2228	"	"G/A"	"65,4/34,6"	"17/9"	26
controllo_3	"POPTR_0013s07150.1"	1045	"	"T/C"	"58,0/42,0"	"120/87"	207	stress_12bis	"POPTR_0013s07150.1"	1045	"	"T/C"	"56,1/43,9"	"32/25"	57
controllo_3	"POPTR_0013s07150.1"	1045	"	"T/C"	"58,0/42,0"	"120/87"	207	stress_42	"POPTR_0013s07150.1"	1045	"	"C/T"	"64,3/35,7"	"9/5"	14
controllo_3	"POPTR_0013s07150.1"	1045	"	"T/C"	"58,0/42,0"	"120/87"	207	stress_45	"POPTR_0013s07150.1"	1045	"	"T/C"	"51,5/48,5"	"17/16"	33
controllo_3	"POPTR_0009s01320.1"	1263	"	"T/C"	"58,0/42,0"	"149/108"	257	stress_12bis	"POPTR_0009s01320.1"	1263	"	"T/C"	"61,2/38,8"	"150/95"	245
controllo_3	"POPTR_0009s01320.1"	1263	"	"T/C"	"58,0/42,0"	"149/108"	257	stress_42	"POPTR_0009s01320.1"	1263	"	"T/C"	"64,5/35,5"	"171/94"	265
controllo_3	"POPTR_0009s01320.1"	1263	"	"T/C"	"58,0/42,0"	"149/108"	257	stress_45	"POPTR_0009s01320.1"	1263	"	"T/C"	"61,9/38,1"	"200/123"	323
controllo_3	"POPTR_0009s09240.1"	756	"	"T/C"	"58,0/42,0"	"101/73"	174	stress_12bis	"POPTR_0009s09240.1"	756	"	"C/T"	"50,5/49,5"	"48/47"	95
controllo_3	"POPTR_0009s09240.1"	756	"	"T/C"	"58,0/42,0"	"101/73"	174	stress_42	"POPTR_0009s09240.1"	756	"	"T/C"	"51,0/49,0"	"25/24"	49
controllo_3	"POPTR_0009s09240.1"	756	"	"T/C"	"58,0/42,0"	"101/73"	174	stress_45	"POPTR_0009s09240.1"	756	"	"T/C"	"65,7/34,3"	"23/12"	35
controllo_3	"POPTR_0009s05240.1"	327	"	"C/T"	"58,0/42,0"	"304/220"	524	stress_12bis	"POPTR_0009s05240.1"	327	"	"C/T"	"50,0/50,0"	"69/69"	138
controllo_3	"POPTR_0009s05240.1"	327	"	"C/T"	"58,0/42,0"	"304/220"	524	stress_42	"POPTR_0009s05240.1"	327	"	"T/C"	"73,3/26,7"	"33/12"	45
controllo_3	"POPTR_0009s05240.1"	327	"	"C/T"	"58,0/42,0"	"304/220"	524	stress_45	"POPTR_0009s05240.1"	327	"	"T/C"	"65,1/34,9"	"41/22"	63
controllo_3	"POPTR_0011s09370.1"	4308	"	"C/T"	"58,0/42,0"	"80/58"	138	stress_12bis	"POPTR_0011s09370.1"	4308	"	"C/T"	"60,7/39,3"	"17/11"	28
controllo_3	"POPTR_0011s09370.1"	4308	"	"C/T"	"58,0/42,0"	"80/58"	138	stress_42	"POPTR_0011s09370.1"	4308	"	"C/T"	"60,0/40,0"	"12/8"	20
controllo_3	"POPTR_0011s09370.1"	4308	"	"C/T"	"58,0/42,0"	"80/58"	138	stress_45	"POPTR_0011s09370.1"	4308	"	"C/T"	"72,0/28,0"	"18/7"	25
controllo_3	"POPTR_0015s12460.1"	369	"	"T/G"	"58,0/42,0"	"69/50"	119	stress_12bis	"POPTR_0015s12460.1"	369	"	"G/T"	"50,0/50,0"	"18/18"	36
controllo_3	"POPTR_0015s12460.1"	369	"	"T/G"	"58,0/42,0"	"69/50"	119	stress_42	"POPTR_0015s12460.1"	369	"	"G/T"	"50,0/50,0"	"25/25"	50
controllo_3	"POPTR_0015s12460.1"	369	"	"T/G"	"58,0/42,0"	"69/50"	119	stress_45	"POPTR_0015s12460.1"	369	"	"G/T"	"55,7/44,3"	"59/47"	106
controllo_3	"POPTR_0001s07850.1"	1423	"	"A/C"	"58,0/42,0"	"94/68"	162	stress_12bis	"POPTR_0001s07850.1"	1423	"	"A/C"	"60,0/40,0"	"21/14"	35
controllo_3	"POPTR_0001s07850.1"	1423	"	"A/C"	"58,0/42,0"	"94/68"	162	stress_42	"POPTR_0001s07850.1"	1423	"	"A/C"	"56,0/44,0"	"28/22"	50
controllo_3	"POPTR_0001s07850.1"	1423	"	"A/C"	"58,0/42,0"	"94/68"	162	stress_45	"POPTR_0001s07850.1"	1423	"	"A/C"	"55,6/44,4"	"30/24"	54
controllo_3	"POPTR_0010s14080.1"	2188	"	"C/T"	"58,0/42,0"	"127/92"	219	stress_12bis	"POPTR_0010s14080.1"	2188	"	"C/T"	"64,5/35,5"	"69/38"	107
controllo_3	"POPTR_0010s14080.1"	2188	"	"C/T"	"58,0/42,0"	"127/92"	219	stress_42	"POPTR_0010s14080.1"	2188	"	"C/T"	"84,2/15,8"	"32/6"	38
controllo_3	"POPTR_0010s14080.1"	2188	"	"C/T"	"58,0/42,0"	"127/92"	219	stress_45	"POPTR_0010s14080.1"	2188	"	"C/T"	"75,0/25,0"	"39/13"	52
controllo_3	"POPTR_0010s14080.1"	2730	"	"G/A"	"58,0/42,0"	"167/121"	288	stress_12bis	"POPTR_0010s14080.1"	2730	"	"G/A"	"62,2/37,8"	"79/48"	127
controllo_3	"POPTR_0010s14080.1"	2730	"	"G/A"	"58,0/42,0"	"167/121"	288	stress_42	"POPTR_0010s14080.1"	2730	"	"G/A"	"72,0/28,0"	"54/21"	75
controllo_3	"POPTR_0010s14080.1"	2730	"	"G/A"	"58,0/42,0"	"167/121"	288	stress_45	"POPTR_0010s14080.1"	2730	"	"G/A"	"75,7/24,3"	"56/18"	74
controllo_3	"POPTR_0007s10980.1"	1823	"	"C/T"	"58,0/42,0"	"134/97"	231	stress_12bis	"POPTR_0007s10980.1"	1823	"	"C/T"	"50,0/50,0"	"36/36"	72
controllo_3	"POPTR_0007s10980.1"	1823	"	"C/T"	"58,0/42,0"	"134/97"	231	stress_42	"POPTR_0007s10980.1"	1823	"	"C/T"	"52,4/47,6"	"11/10"	21
controllo_3	"POPTR_0007s10980.1"	1823	"	"C/T"	"58,0/42,0"	"134/97"	231	stress_45	"POPTR_0007s10980.1"	1823	"	"T/C"	"53,1/46,9"	"17/15"	32
controllo_3	"POPTR_0002s05660.1"	558	"	"A/G"	"58,0/42,0"	"609/441"	1050	stress_12bis	"POPTR_0002s05660.1"	558	"	"A/G"	"59,6/40,4"	"195/132"	327
controllo_3	"POPTR_0002s05660.1"	558	"	"A/G"	"58,0/42,0"	"609/441"	1050	stress_42	"POPTR_0002s05660.1"	558	"	"A/G"	"53,3/46,7"	"90/79"	169
controllo_3	"POPTR_0002s05660.1"	558	"	"A/G"	"58,0/42,0"	"609/441"	1050	stress_45	"POPTR_0002s05660.1"	558	"	"A/G"	"57,1/42,9"	"92/69"	161
controllo_3	"POPTR_0002s05840.1"	995	"	"C/T"	"58,0/42,0"	"131/95"	226	stress_12bis	"POPTR_0002s05840.1"	995	"	"C/T"	"70,2/29,8"	"40/17"	57
controllo_3	"POPTR_0002s05840.1"	995	"	"C/T"	"58,0/42,0"	"131/95"	226	stress_42	"POPTR_0002s05840.1"	995	"	"C/T"	"58,4/41,6"	"101/72"	173
controllo_3	"POPTR_0002s05840.1"	995	"	"C/T"	"58,0/42,0"	"131/95"	226	stress_45	"POPTR_0002s05840.1"	995	"	"C/T"	"54,1/45,9"	"93/79"	172
controllo_3	"POPTR_0008s01960.1"	474	"	"T/C"	"58,0/42,0"	"80/58"	138	stress_12bis	"POPTR_0008s01960.1"	474	"	"T/C"	"62,8/37,2"	"27/16"	43
controllo_3	"POPTR_0008s01960.1"	474	"	"T/C"	"58,0/42,0"	"80/58"	138	stress_42	"POPTR_0008s01960.1"	474	"	"C/T"	"59,1/40,9"	"13/9"	22
controllo_3	"POPTR_0008s01960.1"	474	"	"T/C"	"58,0/42,0"	"80/58"	138	stress_45	"POPTR_0008s01960.1"	474	"	"T/C"	"57,1/42,9"	"24/18"	42
controllo_3	"POPTR_0016s01870.1"	1101	"	"C/T"	"58,0/42,0"	"65/47"	112	stress_42	"POPTR_0016s01870.1"	1101	"	"T/C"	"60,0/40,0"	"9/6"	15
controllo_3	"POPTR_0016s01870.1"	1101	"	"C/T"	"58,0/42,0"	"65/47"	112	stress_45	"POPTR_0016s01870.1"	1101	"	"T/C"	"64,5/35,5"	"20/11"	31
controllo_3	"POPTR_0016s08520.1"	600	"	"G/A"	"58,0/42,0"	"47/34"	81	stress_45	"POPTR_0016s08520.1"	600	"	"G/A"	"59,8/40,2"	"61/41"	102
controllo_3	"POPTR_0004s16740.1"	681	"	"T/C"	"58,1/41,0"	"133/94"	229	stress_12bis	"POPTR_0004s16740.1"	681	"	"T/C"	"57,5/42,5"	"42/31"	73
controllo_3	"POPTR_0004s16740.1"	681	"	"T/C"	"58,1/41,0"	"133/94"	229	stress_42	"POPTR_0004s16740.1"	681	"	"C/T"	"50,0/50,0"	"45/45"	90
controllo_3	"POPTR_0004s16740.1"	681	"	"T/C"	"58,1/41,0"	"133/94"	229	stress_45	"POPTR_0004s16740.1"	681	"	"T/C"	"58,3/41,7"	"60/43"	103
controllo_3	"POPTR_0010s05170.1"	552	"	"A/C"	"58,1/41,6"	"200/143"	344	stress_12bis	"POPTR_0010s05170.1"	552	"	"C/A"	"52,6/47,4"	"10/9"	19
controllo_3	"POPTR_0005s11600.1"	1002	"	"T/A"	"58,1/41,9"	"68/49"	117	stress_42	"POPTR_0005s11600.1"	1002	"	"T/A"	"58,3/41,7"	"21/15"	36
controllo_3	"POPTR_0005s11600.1"	1002	"	"T/A"	"58,1/41,9"	"68/49"	117	stress_45	"POPTR_0005s11600.1"	1002	"	"A/T"	"60,7/39,3"	"37/24"	61
controllo_3	"POPTR_0018s00850.1"	477	"	"A/G"	"58,1/41,9"	"144/104"	248	stress_12bis	"POPTR_0018s00850.1"	477	"	"A/G"	"51,5/48,5"	"34/32"	66
controllo_3	"POPTR_0018s00850.1"	477	"	"A/G"	"58,1/41,9"	"144/104"	248	stress_42	"POPTR_0018s00850.1"	477	"	"G/A"	"69,8/30,2"	"127/55"	182
controllo_3	"POPTR_0018s00850.1"	477	"	"A/G"	"58,1/41,9"	"144/104"	248	stress_45	"POPTR_0018s00850.1"	477	"	"G/A"	"68,1/31,9"	"139/65"	204
controllo_3	"POPTR_0013s12130.1"	216	"	"G/T"	"58,1/41,9"	"68/49"	117	stress_12bis	"POPTR_0013s12130.1"	216	"	"G/T"	"60,9/39,1"	"14/9"	23
controllo_3	"POPTR_0013s12130.1"	216	"	"G/T"	"58,1/41,9"	"68/49"	117	stress_45	"POPTR_0013s12130.1"	216	"	"G/T"	"71,4/28,6"	"10/4"	14
controllo_3	"POPTR_0013s01080.1"	1651	"	"A/G"	"58,1/41,9"	"93/67"	160	stress_12bis	"POPTR_0013s01080.1"	1651	"	"A/G"	"68,3/31,7"	"41/19"	60
controllo_3	"POPTR_0013s01080.1"	1651	"	"A/G"	"58,1/41,9"	"93/67"	160	stress_42	"POPTR_0013s01080.1"	1651	"	"A/G"	"57,9/42,1"	"11/8"	19
controllo_3	"POPTR_0013s01080.1"	1651	"	"A/G"	"58,1/41,9"	"93/67"	160	stress_45	"POPTR_0013s01080.1"	1651	"	"A/G"	"52,8/47,2"	"19/17"	36
controllo_3	"POPTR_0014s09180.1"	241	"	"G/A"	"58,1/41,9"	"118/85"	203	stress_12bis	"POPTR_0014s09180.1"	241	"	"G/A"	"63,6/36,4"	"35/20"	55
controllo_3	"POPTR_0014s15960.1"	906	"	"C/T"	"58,1/41,9"	"25/18"	43	stress_42	"POPTR_0014s15960.1"	906	"	"T/C"	"60,5/39,5"	"153/100"	253
controllo_3	"POPTR_0014s15960.1"	906	"	"C/T"	"58,1/41,9"	"25/18"	43	stress_45	"POPTR_0014s15960.1"	906	"	"T/C"	"65,7/34,3"	"111/58"	169
controllo_3	"POPTR_0004s15960.1"	1481	"	"T/C"	"58,1/41,9"	"129/93"	222	stress_42	"POPTR_0004s15960.1"	1481	"	"T/C"	"68,8/31,2"	"22/10"	32
controllo_3	"POPTR_0004s15960.1"	1481	"	"T/C"	"58,1/41,9"	"129/93"	222	stress_45	"POPTR_0004s15960.1"	1481	"	"T/C"	"52,1/47,9"	"25/23"	48
controllo_3	"POPTR_0004s18200.1"	323	"	"A/T"	"58,1/41,9"	"75/54"	129	stress_12bis	"POPTR_0004s18200.1"	323	"	"A/T"	"54,3/45,7"	"25/21"	46
controllo_3	"POPTR_0004s18200.1"	323	"	"A/T"	"58,1/41,9"	"75/54"	129	stress_42	"POPTR_0004s18200.1"	323	"	"A/T"	"61,1/38,9"	"44/28"	72
controllo_3	"POPTR_0004s18200.1"	323	"	"A/T"	"58,1/41,9"	"75/54"	129	stress_45	"POPTR_0004s18200.1"	323	"	"A/T"	"60,9/39,1"	"42/27"	69
controllo_3	"POPTR_0004s07280.1"	522	"	"T/G"	"58,1/41,9"	"72/52"	124	stress_12bis	"POPTR_0004s07280.1"	522	"	"G/T"	"50,0/50,0"	"18/18"	36
controllo_3	"POPTR_0004s07280.1"	522	"	"T/G"	"58,1/41,9"	"72/52"	124	stress_42	"POPTR_0004s07280.1"	522	"	"T/G"	"66,7/33,3"	"24/12"	36
controllo_3	"POPTR_0004s07280.1"	522	"	"T/G"	"58,1/41,9"	"72/52"	124	stress_45	"POPTR_0004s07280.1"	522	"	"T/G"	"64,7/35,3"	"22/12"	34
controllo_3	"POPTR_0004s07280.1"	963	"	"C/A"	"58,1/41,9"	"72/52"	124	stress_12bis	"POPTR_0004s07280.1"	963	"	"C/A"	"58,8/41,2"	"20/14"	34
controllo_3	"POPTR_0004s07280.1"	963	"	"C/A"	"58,1/41,9"	"72/52"	124	stress_42	"POPTR_0004s07280.1"	963	"	"A/C"	"54,8/45,2"	"23/19"	42
controllo_3	"POPTR_0004s07280.1"	963	"	"C/A"	"58,1/41,9"	"72/52"	124	stress_45	"POPTR_0004s07280.1"	963	"	"C/A"	"52,5/47,5"	"21/19"	40
controllo_3	"POPTR_0004s24420.1"	183	"	"T/G"	"58,1/41,9"	"104/75"	179	stress_12bis	"POPTR_0004s24420.1"	183	"	"T/G"	"54,8/45,2"	"34/28"	62
controllo_3	"POPTR_0004s24420.1"	183	"	"T/G"	"58,1/41,9"	"104/75"	179	stress_42	"POPTR_0004s24420.1"	183	"	"T/G"	"70,1/29,9"	"61/26"	87
controllo_3	"POPTR_0004s24420.1"	183	"	"T/G"	"58,1/41,9"	"104/75"	179	stress_45	"POPTR_0004s24420.1"	183	"	"T/G"	"71,4/27,4"	"60/23"	84
controllo_3	"POPTR_0009s13650.1"	783	"	"G/A"	"58,1/41,9"	"72/52"	124	stress_12bis	"POPTR_0009s13650.1"	783	"	"G/A"	"51,4/48,6"	"37/35"	72
controllo_3	"POPTR_0009s13650.1"	783	"	"G/A"	"58,1/41,9"	"72/52"	124	stress_42	"POPTR_0009s13650.1"	783	"	"A/G"	"53,3/46,7"	"24/21"	45
controllo_3	"POPTR_0009s13650.1"	783	"	"G/A"	"58,1/41,9"	"72/52"	124	stress_45	"POPTR_0009s13650.1"	783	"	"A/G"	"52,5/47,5"	"21/19"	40
controllo_3	"POPTR_0012s04220.1"	241	"	"A/G"	"58,1/41,9"	"86/62"	148	stress_12bis	"POPTR_0012s04220.1"	241	"	"G/A"	"57,1/42,9"	"12/9"	21
controllo_3	"POPTR_0012s04220.1"	241	"	"A/G"	"58,1/41,9"	"86/62"	148	stress_45	"POPTR_0012s04220.1"	241	"	"G/A"	"53,8/46,2"	"7/6"	13
controllo_3	"POPTR_0015s10920.1"	1788	"	"A/G"	"58,1/41,9"	"118/85"	203	stress_12bis	"POPTR_0015s10920.1"	1788	"	"G/A"	"56,0/44,0"	"47/37"	84
controllo_3	"POPTR_0015s10920.1"	1788	"	"A/G"	"58,1/41,9"	"118/85"	203	stress_42	"POPTR_0015s10920.1"	1788	"	"G/A"	"51,9/48,1"	"14/13"	27
controllo_3	"POPTR_0015s10920.1"	1788	"	"A/G"	"58,1/41,9"	"118/85"	203	stress_45	"POPTR_0015s10920.1"	1788	"	"A/G"	"53,6/46,4"	"30/26"	56
controllo_3	"POPTR_0001s21340.1"	1345	"	"G/A"	"58,1/41,9"	"61/44"	105	stress_12bis	"POPTR_0001s21340.1"	1345	"	"G/A"	"66,7/33,3"	"14/7"	21
controllo_3	"POPTR_0001s21340.1"	1345	"	"G/A"	"58,1/41,9"	"61/44"	105	stress_42	"POPTR_0001s21340.1"	1345	"	"A/G"	"57,1/42,9"	"8/6"	14
controllo_3	"POPTR_0001s21340.1"	1345	"	"G/A"	"58,1/41,9"	"61/44"	105	stress_45	"POPTR_0001s21340.1"	1345	"	"G/A"	"72,2/27,8"	"13/5"	18
controllo_3	"POPTR_0001s40250.1"	1938	"	"T/C"	"58,1/41,9"	"43/31"	74	stress_45	"POPTR_0001s40250.1"	1938	"	"T/C"	"75,2/23,6"	"124/39"	165
controllo_3	"POPTR_0001s26970.1"	269	"	"T/G"	"58,1/41,9"	"93/67"	160	stress_12bis	"POPTR_0001s26970.1"	269	"	"G/T"	"53,1/46,9"	"26/23"	49
controllo_3	"POPTR_0001s26970.1"	269	"	"T/G"	"58,1/41,9"	"93/67"	160	stress_42	"POPTR_0001s26970.1"	269	"	"T/G"	"71,4/28,6"	"10/4"	14
controllo_3	"POPTR_0001s26970.1"	269	"	"T/G"	"58,1/41,9"	"93/67"	160	stress_45	"POPTR_0001s26970.1"	269	"	"G/T"	"57,1/35,7"	"8/5"	14
controllo_3	"POPTR_0001s23820.1"	312	"	"T/C"	"58,1/41,9"	"72/52"	124	stress_12bis	"POPTR_0001s23820.1"	312	"	"T/C"	"73,9/26,1"	"34/12"	46
controllo_3	"POPTR_0001s23820.1"	312	"	"T/C"	"58,1/41,9"	"72/52"	124	stress_45	"POPTR_0001s23820.1"	312	"	"T/C"	"60,0/40,0"	"27/18"	45
controllo_3	"POPTR_0001s25630.1"	1189	"	"C/T"	"58,1/41,9"	"108/78"	186	stress_12bis	"POPTR_0001s25630.1"	1189	"	"C/T"	"55,8/44,2"	"29/23"	52
controllo_3	"POPTR_0001s25630.1"	1189	"	"C/T"	"58,1/41,9"	"108/78"	186	stress_45	"POPTR_0001s25630.1"	1189	"	"C/T"	"50,0/50,0"	"7/7"	14
controllo_3	"POPTR_0010s13990.1"	418	"	"A/G"	"58,1/41,9"	"72/52"	124	stress_12bis	"POPTR_0010s13990.1"	418	"	"A/G"	"70,0/30,0"	"14/6"	20
controllo_3	"POPTR_0010s10140.1"	282	"	"C/T"	"58,1/41,9"	"72/52"	124	stress_12bis	"POPTR_0010s10140.1"	282	"	"C/T"	"63,3/36,7"	"31/18"	49
controllo_3	"POPTR_0010s10140.1"	282	"	"C/T"	"58,1/41,9"	"72/52"	124	stress_42	"POPTR_0010s10140.1"	282	"	"C/T"	"55,4/44,6"	"36/29"	65
controllo_3	"POPTR_0010s10140.1"	282	"	"C/T"	"58,1/41,9"	"72/52"	124	stress_45	"POPTR_0010s10140.1"	282	"	"C/T"	"56,4/43,6"	"62/48"	110
controllo_3	"POPTR_0010s13740.1"	312	"	"G/C"	"58,1/41,9"	"72/52"	124	stress_12bis	"POPTR_0010s13740.1"	312	"	"G/C"	"61,7/38,3"	"29/18"	47
controllo_3	"POPTR_0007s10140.1"	624	"	"T/G"	"58,1/41,9"	"68/49"	117	stress_12bis	"POPTR_0007s10140.1"	624	"	"T/G"	"54,2/45,8"	"13/11"	24
controllo_3	"POPTR_0007s10140.1"	624	"	"T/G"	"58,1/41,9"	"68/49"	117	stress_42	"POPTR_0007s10140.1"	624	"	"G/T"	"61,1/38,9"	"11/7"	18
controllo_3	"POPTR_0007s10140.1"	624	"	"T/G"	"58,1/41,9"	"68/49"	117	stress_45	"POPTR_0007s10140.1"	624	"	"G/T"	"77,8/22,2"	"14/4"	18
controllo_3	"POPTR_0008s01960.1"	504	"	"C/T"	"58,1/41,9"	"75/54"	129	stress_12bis	"POPTR_0008s01960.1"	504	"	"C/T"	"58,5/41,5"	"24/17"	41
controllo_3	"POPTR_0008s01960.1"	504	"	"C/T"	"58,1/41,9"	"75/54"	129	stress_42	"POPTR_0008s01960.1"	504	"	"T/C"	"81,2/18,8"	"13/3"	16
controllo_3	"POPTR_0008s01960.1"	504	"	"C/T"	"58,1/41,9"	"75/54"	129	stress_45	"POPTR_0008s01960.1"	504	"	"C/T"	"55,9/44,1"	"19/15"	34
controllo_3	"POPTR_0016s10780.1"	43	"	"A/G"	"58,1/41,9"	"118/85"	203	stress_12bis	"POPTR_0016s10780.1"	43	"	"G/A"	"65,0/35,0"	"13/7"	20
controllo_3	"POPTR_0016s02440.1"	1014	"	"T/C"	"58,1/41,9"	"68/49"	117	stress_12bis	"POPTR_0016s02440.1"	1014	"	"T/C"	"66,7/33,3"	"12/6"	18
controllo_3	"POPTR_0016s02440.1"	1014	"	"T/C"	"58,1/41,9"	"68/49"	117	stress_45	"POPTR_0016s02440.1"	1014	"	"T/C"	"51,9/48,1"	"14/13"	27
controllo_3	"POPTR_0016s03980.1"	1362	"	"G/A"	"58,1/41,9"	"61/44"	105	stress_12bis	"POPTR_0016s03980.1"	1362	"	"A/G"	"53,8/46,2"	"14/12"	26
controllo_3	"POPTR_0016s03980.1"	1362	"	"G/A"	"58,1/41,9"	"61/44"	105	stress_42	"POPTR_0016s03980.1"	1362	"	"A/G"	"71,4/28,6"	"10/4"	14
controllo_3	"POPTR_0016s03980.1"	1362	"	"G/A"	"58,1/41,9"	"61/44"	105	stress_45	"POPTR_0016s03980.1"	1362	"	"A/G"	"75,0/25,0"	"9/3"	12
controllo_3	"POPTR_0001s21740.1"	387	"	"C/T"	"58,2/41,6"	"288/206"	495	stress_12bis	"POPTR_0001s21740.1"	387	"	"C/T"	"56,4/43,6"	"79/61"	140
controllo_3	"POPTR_0001s21740.1"	387	"	"C/T"	"58,2/41,6"	"288/206"	495	stress_42	"POPTR_0001s21740.1"	387	"	"C/T"	"52,7/47,3"	"39/35"	74
controllo_3	"POPTR_0001s21740.1"	387	"	"C/T"	"58,2/41,6"	"288/206"	495	stress_45	"POPTR_0001s21740.1"	387	"	"C/T"	"54,8/45,2"	"68/56"	124
controllo_3	"POPTR_0002s14730.1"	54	"	"T/C"	"58,2/41,6"	"210/150"	361	stress_12bis	"POPTR_0002s14730.1"	54	"	"T/C"	"58,6/41,4"	"51/36"	87
controllo_3	"POPTR_0002s14730.1"	54	"	"T/C"	"58,2/41,6"	"210/150"	361	stress_45	"POPTR_0002s14730.1"	54	"	"T/C"	"55,6/44,4"	"10/8"	18
controllo_3	"POPTR_0005s17740.1"	516	"	"G/C"	"58,2/41,8"	"103/74"	177	stress_12bis	"POPTR_0005s17740.1"	516	"	"G/C"	"59,5/40,5"	"25/17"	42
controllo_3	"POPTR_0005s17740.1"	516	"	"G/C"	"58,2/41,8"	"103/74"	177	stress_42	"POPTR_0005s17740.1"	516	"	"C/G"	"52,0/48,0"	"13/12"	25
controllo_3	"POPTR_0005s17740.1"	516	"	"G/C"	"58,2/41,8"	"103/74"	177	stress_45	"POPTR_0005s17740.1"	516	"	"G/C"	"51,5/48,5"	"34/32"	66
controllo_3	"POPTR_0006s13310.1"	672	"	"T/C"	"58,2/41,8"	"288/207"	495	stress_12bis	"POPTR_0006s13310.1"	672	"	"T/C"	"65,3/34,7"	"293/156"	449
controllo_3	"POPTR_0006s13310.1"	672	"	"T/C"	"58,2/41,8"	"288/207"	495	stress_42	"POPTR_0006s13310.1"	672	"	"T/C"	"61,1/38,9"	"176/112"	288
controllo_3	"POPTR_0006s13310.1"	672	"	"T/C"	"58,2/41,8"	"288/207"	495	stress_45	"POPTR_0006s13310.1"	672	"	"T/C"	"57,7/42,1"	"285/208"	494
controllo_3	"POPTR_0018s02960.1"	548	"	"T/C"	"58,2/41,8"	"71/51"	122	stress_12bis	"POPTR_0018s02960.1"	548	"	"C/T"	"61,1/38,9"	"11/7"	18
controllo_3	"POPTR_0018s02960.1"	548	"	"T/C"	"58,2/41,8"	"71/51"	122	stress_42	"POPTR_0018s02960.1"	548	"	"C/T"	"72,2/27,8"	"13/5"	18
controllo_3	"POPTR_0018s02960.1"	548	"	"T/C"	"58,2/41,8"	"71/51"	122	stress_45	"POPTR_0018s02960.1"	548	"	"C/T"	"82,4/17,6"	"14/3"	17
controllo_3	"POPTR_0003s17030.1"	207	"	"G/T"	"58,2/41,8"	"82/59"	141	stress_12bis	"POPTR_0003s17030.1"	207	"	"G/T"	"56,2/43,8"	"27/21"	48
controllo_3	"POPTR_0003s17030.1"	207	"	"G/T"	"58,2/41,8"	"82/59"	141	stress_42	"POPTR_0003s17030.1"	207	"	"G/T"	"53,5/46,5"	"23/20"	43
controllo_3	"POPTR_0003s17030.1"	207	"	"G/T"	"58,2/41,8"	"82/59"	141	stress_45	"POPTR_0003s17030.1"	207	"	"G/T"	"58,1/41,9"	"18/13"	31
controllo_3	"POPTR_0003s11300.1"	369	"	"C/T"	"58,2/41,8"	"152/109"	261	stress_12bis	"POPTR_0003s11300.1"	369	"	"C/T"	"68,3/31,7"	"69/32"	101
controllo_3	"POPTR_0003s11300.1"	369	"	"C/T"	"58,2/41,8"	"152/109"	261	stress_45	"POPTR_0003s11300.1"	369	"	"C/T"	"56,5/43,5"	"13/10"	23
controllo_3	"POPTR_0013s03700.1"	174	"	"C/G"	"58,2/41,8"	"199/143"	342	stress_12bis	"POPTR_0013s03700.1"	174	"	"C/G"	"61,5/38,5"	"56/35"	91
controllo_3	"POPTR_0013s03700.1"	174	"	"C/G"	"58,2/41,8"	"199/143"	342	stress_42	"POPTR_0013s03700.1"	174	"	"C/G"	"56,4/43,6"	"22/17"	39
controllo_3	"POPTR_0013s03700.1"	174	"	"C/G"	"58,2/41,8"	"199/143"	342	stress_45	"POPTR_0013s03700.1"	174	"	"G/C"	"55,2/44,8"	"32/26"	58
controllo_3	"POPTR_0014s14200.1"	1110	"	"T/C"	"58,2/41,8"	"196/141"	337	stress_12bis	"POPTR_0014s14200.1"	1110	"	"C/T"	"56,0/44,0"	"14/11"	25
controllo_3	"POPTR_0014s14200.1"	1110	"	"T/C"	"58,2/41,8"	"196/141"	337	stress_42	"POPTR_0014s14200.1"	1110	"	"T/C"	"51,4/48,6"	"18/17"	35
controllo_3	"POPTR_0014s14200.1"	1110	"	"T/C"	"58,2/41,8"	"196/141"	337	stress_45	"POPTR_0014s14200.1"	1110	"	"T/C"	"69,7/30,3"	"85/37"	122
controllo_3	"POPTR_0004s23490.1"	794	"	"C/T"	"58,2/41,8"	"121/87"	208	stress_12bis	"POPTR_0004s23490.1"	794	"	"C/T"	"63,9/36,1"	"46/26"	72
controllo_3	"POPTR_0004s23490.1"	794	"	"C/T"	"58,2/41,8"	"121/87"	208	stress_42	"POPTR_0004s23490.1"	794	"	"C/T"	"52,4/47,6"	"22/20"	42
controllo_3	"POPTR_0004s23490.1"	794	"	"C/T"	"58,2/41,8"	"121/87"	208	stress_45	"POPTR_0004s23490.1"	794	"	"C/T"	"65,3/34,7"	"66/35"	101
controllo_3	"POPTR_0004s00480.1"	47	"	"C/A"	"58,2/41,8"	"145/104"	249	stress_12bis	"POPTR_0004s00480.1"	47	"	"C/A"	"52,9/47,1"	"63/56"	119
controllo_3	"POPTR_0004s00480.1"	47	"	"C/A"	"58,2/41,8"	"145/104"	249	stress_42	"POPTR_0004s00480.1"	47	"	"A/C"	"50,7/49,3"	"36/35"	71
controllo_3	"POPTR_0004s00480.1"	47	"	"C/A"	"58,2/41,8"	"145/104"	249	stress_45	"POPTR_0004s00480.1"	47	"	"C/A"	"61,4/38,6"	"70/44"	114
controllo_3	"POPTR_0012s01430.1"	339	"	"C/T"	"58,2/41,8"	"78/56"	134	stress_12bis	"POPTR_0012s01430.1"	339	"	"T/C"	"52,6/47,4"	"30/27"	57
controllo_3	"POPTR_0012s01430.1"	339	"	"C/T"	"58,2/41,8"	"78/56"	134	stress_42	"POPTR_0012s01430.1"	339	"	"C/T"	"60,0/40,0"	"6/4"	10
controllo_3	"POPTR_0012s01430.1"	339	"	"C/T"	"58,2/41,8"	"78/56"	134	stress_45	"POPTR_0012s01430.1"	339	"	"C/T"	"50,0/50,0"	"9/9"	18
controllo_3	"POPTR_0012s01430.1"	427	"	"G/A"	"58,2/41,8"	"64/46"	110	stress_12bis	"POPTR_0012s01430.1"	427	"	"G/A"	"65,9/34,1"	"27/14"	41
controllo_3	"POPTR_0012s01430.1"	427	"	"G/A"	"58,2/41,8"	"64/46"	110	stress_42	"POPTR_0012s01430.1"	427	"	"G/A"	"57,1/42,9"	"8/6"	14
controllo_3	"POPTR_0012s01430.1"	427	"	"G/A"	"58,2/41,8"	"64/46"	110	stress_45	"POPTR_0012s01430.1"	427	"	"G/A"	"70,6/29,4"	"12/5"	17
controllo_3	"POPTR_0001s37480.1"	175	"	"A/G"	"58,2/41,8"	"78/56"	134	stress_12bis	"POPTR_0001s37480.1"	175	"	"A/G"	"63,2/36,8"	"12/7"	19
controllo_3	"POPTR_0001s37480.1"	175	"	"A/G"	"58,2/41,8"	"78/56"	134	stress_42	"POPTR_0001s37480.1"	175	"	"A/G"	"55,6/44,4"	"15/12"	27
controllo_3	"POPTR_0001s37480.1"	175	"	"A/G"	"58,2/41,8"	"78/56"	134	stress_45	"POPTR_0001s37480.1"	175	"	"A/G"	"66,2/33,8"	"43/22"	65
controllo_3	"POPTR_0001s10880.1"	350	"	"A/G"	"58,2/41,8"	"64/46"	110	stress_12bis	"POPTR_0001s10880.1"	350	"	"A/G"	"54,5/45,5"	"36/30"	66
controllo_3	"POPTR_0001s10880.1"	350	"	"A/G"	"58,2/41,8"	"64/46"	110	stress_42	"POPTR_0001s10880.1"	350	"	"A/G"	"73,9/26,1"	"17/6"	23
controllo_3	"POPTR_0001s10880.1"	350	"	"A/G"	"58,2/41,8"	"64/46"	110	stress_45	"POPTR_0001s10880.1"	350	"	"A/G"	"65,4/34,6"	"17/9"	26
controllo_3	"POPTR_0001s42970.1"	346	"	"G/A"	"58,2/41,8"	"1147/824"	1971	stress_12bis	"POPTR_0001s42970.1"	346	"	"G/A"	"64,6/35,4"	"455/249"	704
controllo_3	"POPTR_0001s42970.1"	346	"	"G/A"	"58,2/41,8"	"1147/824"	1971	stress_42	"POPTR_0001s42970.1"	346	"	"G/A"	"60,5/39,5"	"95/62"	157
controllo_3	"POPTR_0001s42970.1"	346	"	"G/A"	"58,2/41,8"	"1147/824"	1971	stress_45	"POPTR_0001s42970.1"	346	"	"G/A"	"57,0/43,0"	"45/34"	79
controllo_3	"POPTR_0001s25520.1"	615	"	"A/C"	"58,2/41,8"	"78/56"	134	stress_12bis	"POPTR_0001s25520.1"	615	"	"A/C"	"61,8/38,2"	"21/13"	34
controllo_3	"POPTR_0001s25520.1"	615	"	"A/C"	"58,2/41,8"	"78/56"	134	stress_42	"POPTR_0001s25520.1"	615	"	"A/C"	"52,2/47,8"	"24/22"	46
controllo_3	"POPTR_0001s25520.1"	615	"	"A/C"	"58,2/41,8"	"78/56"	134	stress_45	"POPTR_0001s25520.1"	615	"	"A/C"	"50,0/50,0"	"19/19"	38
controllo_3	"POPTR_0010s17860.1"	248	"	"G/C"	"58,2/41,8"	"164/118"	282	stress_12bis	"POPTR_0010s17860.1"	248	"	"C/G"	"53,6/46,4"	"30/26"	56
controllo_3	"POPTR_0010s17860.1"	248	"	"G/C"	"58,2/41,8"	"164/118"	282	stress_42	"POPTR_0010s17860.1"	248	"	"G/C"	"70,0/30,0"	"7/3"	10
controllo_3	"POPTR_0010s17860.1"	248	"	"G/C"	"58,2/41,8"	"164/118"	282	stress_45	"POPTR_0010s17860.1"	248	"	"C/G"	"65,2/34,8"	"15/8"	23
controllo_3	"POPTR_0010s01700.1"	135	"	"T/C"	"58,2/41,8"	"405/291"	696	stress_12bis	"POPTR_0010s01700.1"	135	"	"T/C"	"58,3/41,5"	"550/392"	944
controllo_3	"POPTR_0010s01700.1"	135	"	"T/C"	"58,2/41,8"	"405/291"	696	stress_42	"POPTR_0010s01700.1"	135	"	"T/C"	"58,7/41,2"	"559/393"	953
controllo_3	"POPTR_0010s01700.1"	135	"	"T/C"	"58,2/41,8"	"405/291"	696	stress_45	"POPTR_0010s01700.1"	135	"	"T/C"	"58,6/41,4"	"587/414"	1001
controllo_3	"POPTR_0002s22560.1"	465	"	"T/C"	"58,2/41,8"	"537/385"	922	stress_12bis	"POPTR_0002s22560.1"	465	"	"T/C"	"55,7/44,3"	"182/145"	327
controllo_3	"POPTR_0002s22560.1"	465	"	"T/C"	"58,2/41,8"	"537/385"	922	stress_42	"POPTR_0002s22560.1"	465	"	"T/C"	"60,9/39,1"	"42/27"	69
controllo_3	"POPTR_0002s22560.1"	465	"	"T/C"	"58,2/41,8"	"537/385"	922	stress_45	"POPTR_0002s22560.1"	465	"	"T/C"	"54,7/45,3"	"76/63"	139
controllo_3	"POPTR_0008s19960.1"	1239	"	"A/G"	"58,2/41,8"	"85/61"	146	stress_12bis	"POPTR_0008s19960.1"	1239	"	"G/A"	"67,6/32,4"	"23/11"	34
controllo_3	"POPTR_0008s19960.1"	1353	"	"G/C"	"58,2/41,8"	"89/64"	153	stress_12bis	"POPTR_0008s19960.1"	1353	"	"G/C"	"57,9/42,1"	"11/8"	19
controllo_3	"POPTR_0016s05530.1"	681	"	"C/G"	"58,2/41,8"	"78/56"	134	stress_12bis	"POPTR_0016s05530.1"	681	"	"C/G"	"51,1/48,9"	"23/22"	45
controllo_3	"POPTR_0016s05530.1"	681	"	"C/G"	"58,2/41,8"	"78/56"	134	stress_42	"POPTR_0016s05530.1"	681	"	"G/C"	"51,4/48,6"	"57/54"	111
controllo_3	"POPTR_0016s05530.1"	681	"	"C/G"	"58,2/41,8"	"78/56"	134	stress_45	"POPTR_0016s05530.1"	681	"	"C/G"	"50,6/49,4"	"85/83"	168
controllo_3	"POPTR_0001s02570.1"	1112	"	"T/A"	"58,3/39,7"	"88/60"	151	stress_12bis	"POPTR_0001s02570.1"	1112	"	"T/A"	"61,1/38,9"	"11/7"	18
controllo_3	"POPTR_0001s02570.1"	1112	"	"T/A"	"58,3/39,7"	"88/60"	151	stress_45	"POPTR_0001s02570.1"	1112	"	"A/T"	"57,1/42,9"	"12/9"	21
controllo_3	"POPTR_0013s07150.1"	885	"	"T/A"	"58,3/41,1"	"95/67"	163	stress_12bis	"POPTR_0013s07150.1"	885	"	"T/A"	"54,5/45,5"	"18/15"	33
controllo_3	"POPTR_0013s07150.1"	885	"	"T/A"	"58,3/41,1"	"95/67"	163	stress_42	"POPTR_0013s07150.1"	885	"	"A/T"	"50,0/50,0"	"7/7"	14
controllo_3	"POPTR_0013s07150.1"	885	"	"T/A"	"58,3/41,1"	"95/67"	163	stress_45	"POPTR_0013s07150.1"	885	"	"T/A"	"66,7/33,3"	"14/7"	21
controllo_3	"POPTR_0005s22780.1"	240	"	"G/A"	"58,3/41,2"	"119/84"	204	stress_12bis	"POPTR_0005s22780.1"	240	"	"A/G"	"50,0/50,0"	"59/59"	118
controllo_3	"POPTR_0005s22780.1"	240	"	"G/A"	"58,3/41,2"	"119/84"	204	stress_42	"POPTR_0005s22780.1"	240	"	"A/G"	"55,8/44,2"	"24/19"	43
controllo_3	"POPTR_0005s22780.1"	240	"	"G/A"	"58,3/41,2"	"119/84"	204	stress_45	"POPTR_0005s22780.1"	240	"	"A/G"	"63,4/36,6"	"26/15"	41
controllo_3	"POPTR_0006s10130.1"	555	"	"G/T"	"58,3/41,5"	"634/452"	1088	stress_12bis	"POPTR_0006s10130.1"	555	"	"G/T"	"65,3/34,7"	"96/51"	147
controllo_3	"POPTR_0006s10130.1"	555	"	"G/T"	"58,3/41,5"	"634/452"	1088	stress_42	"POPTR_0006s10130.1"	555	"	"G/T"	"53,9/44,7"	"41/34"	76
controllo_3	"POPTR_0006s10130.1"	555	"	"G/T"	"58,3/41,5"	"634/452"	1088	stress_45	"POPTR_0006s10130.1"	555	"	"G/T"	"58,0/42,0"	"98/71"	169
controllo_3	"POPTR_0005s11710.1"	228	"	"G/T"	"58,3/41,7"	"70/50"	120	stress_12bis	"POPTR_0005s11710.1"	228	"	"G/T"	"66,7/33,3"	"28/14"	42
controllo_3	"POPTR_0005s11710.1"	228	"	"G/T"	"58,3/41,7"	"70/50"	120	stress_42	"POPTR_0005s11710.1"	228	"	"G/T"	"79,2/20,8"	"19/5"	24
controllo_3	"POPTR_0005s11710.1"	228	"	"G/T"	"58,3/41,7"	"70/50"	120	stress_45	"POPTR_0005s11710.1"	228	"	"G/T"	"60,0/40,0"	"21/14"	35
controllo_3	"POPTR_0005s08610.1"	54	"	"G/A"	"58,3/41,7"	"102/73"	175	stress_12bis	"POPTR_0005s08610.1"	54	"	"G/A"	"57,1/42,9"	"44/33"	77
controllo_3	"POPTR_0005s08610.1"	54	"	"G/A"	"58,3/41,7"	"102/73"	175	stress_42	"POPTR_0005s08610.1"	54	"	"G/A"	"54,8/45,2"	"23/19"	42
controllo_3	"POPTR_0005s08610.1"	54	"	"G/A"	"58,3/41,7"	"102/73"	175	stress_45	"POPTR_0005s08610.1"	54	"	"G/A"	"69,4/30,6"	"25/11"	36
controllo_3	"POPTR_0006s04230.1"	282	"	"G/A"	"58,3/41,7"	"67/48"	115	stress_12bis	"POPTR_0006s04230.1"	282	"	"A/G"	"59,7/40,3"	"40/27"	67
controllo_3	"POPTR_0006s04230.1"	282	"	"G/A"	"58,3/41,7"	"67/48"	115	stress_42	"POPTR_0006s04230.1"	282	"	"A/G"	"59,1/40,9"	"13/9"	22
controllo_3	"POPTR_0006s04230.1"	282	"	"G/A"	"58,3/41,7"	"67/48"	115	stress_45	"POPTR_0006s04230.1"	282	"	"A/G"	"54,1/45,9"	"20/17"	37
controllo_3	"POPTR_0006s00620.1"	1681	"	"A/G"	"58,3/41,7"	"77/55"	132	stress_12bis	"POPTR_0006s00620.1"	1681	"	"G/A"	"82,6/17,4"	"19/4"	23
controllo_3	"POPTR_0003s09830.1"	15	"	"G/A"	"58,3/41,7"	"112/80"	192	stress_12bis	"POPTR_0003s09830.1"	15	"	"G/A"	"51,4/48,6"	"19/18"	37
controllo_3	"POPTR_0003s09830.1"	15	"	"G/A"	"58,3/41,7"	"112/80"	192	stress_42	"POPTR_0003s09830.1"	15	"	"A/G"	"60,0/40,0"	"6/4"	10
controllo_3	"POPTR_0013s12130.1"	550	"	"T/C"	"58,3/41,7"	"81/58"	139	stress_12bis	"POPTR_0013s12130.1"	550	"	"T/C"	"53,5/46,5"	"23/20"	43
controllo_3	"POPTR_0013s12130.1"	550	"	"T/C"	"58,3/41,7"	"81/58"	139	stress_42	"POPTR_0013s12130.1"	550	"	"C/T"	"56,2/43,8"	"9/7"	16
controllo_3	"POPTR_0013s12130.1"	550	"	"T/C"	"58,3/41,7"	"81/58"	139	stress_45	"POPTR_0013s12130.1"	550	"	"T/C"	"75,0/25,0"	"9/3"	12
controllo_3	"POPTR_0013s07150.1"	2490	"	"A/G"	"58,3/41,7"	"102/73"	175	stress_12bis	"POPTR_0013s07150.1"	2490	"	"A/G"	"51,2/48,8"	"22/21"	43
controllo_3	"POPTR_0013s07150.1"	2490	"	"A/G"	"58,3/41,7"	"102/73"	175	stress_42	"POPTR_0013s07150.1"	2490	"	"A/G"	"51,5/48,5"	"17/16"	33
controllo_3	"POPTR_0013s07150.1"	2490	"	"A/G"	"58,3/41,7"	"102/73"	175	stress_45	"POPTR_0013s07150.1"	2490	"	"A/G"	"50,0/50,0"	"22/22"	44
controllo_3	"POPTR_0013s15560.1"	207	"	"T/A"	"58,3/41,7"	"70/50"	120	stress_12bis	"POPTR_0013s15560.1"	207	"	"A/T"	"60,8/39,2"	"31/20"	51
controllo_3	"POPTR_0013s15560.1"	207	"	"T/A"	"58,3/41,7"	"70/50"	120	stress_42	"POPTR_0013s15560.1"	207	"	"A/T"	"51,7/48,3"	"78/73"	151
controllo_3	"POPTR_0013s15560.1"	207	"	"T/A"	"58,3/41,7"	"70/50"	120	stress_45	"POPTR_0013s15560.1"	207	"	"T/A"	"54,7/45,3"	"98/81"	179
controllo_3	"POPTR_0014s00250.1"	625	"	"A/G"	"58,3/41,7"	"77/55"	132	stress_12bis	"POPTR_0014s00250.1"	625	"	"G/A"	"51,5/48,5"	"17/16"	33
controllo_3	"POPTR_0014s00250.1"	625	"	"A/G"	"58,3/41,7"	"77/55"	132	stress_42	"POPTR_0014s00250.1"	625	"	"A/G"	"63,6/36,4"	"7/4"	11
controllo_3	"POPTR_0014s00250.1"	625	"	"A/G"	"58,3/41,7"	"77/55"	132	stress_45	"POPTR_0014s00250.1"	625	"	"G/A"	"53,3/46,7"	"8/7"	15
controllo_3	"POPTR_0014s02410.1"	55	"	"G/A"	"58,3/41,7"	"388/278"	666	stress_12bis	"POPTR_0014s02410.1"	55	"	"G/A"	"66,7/33,3"	"62/31"	93
controllo_3	"POPTR_0014s02410.1"	55	"	"G/A"	"58,3/41,7"	"388/278"	666	stress_42	"POPTR_0014s02410.1"	55	"	"G/A"	"58,6/41,4"	"51/36"	87
controllo_3	"POPTR_0014s02410.1"	55	"	"G/A"	"58,3/41,7"	"388/278"	666	stress_45	"POPTR_0014s02410.1"	55	"	"G/A"	"53,8/46,2"	"107/92"	199
controllo_3	"POPTR_0014s17130.1"	316	"	"C/G"	"58,3/41,7"	"77/55"	132	stress_12bis	"POPTR_0014s17130.1"	316	"	"C/G"	"56,2/43,8"	"18/14"	32
controllo_3	"POPTR_0014s17130.1"	316	"	"C/G"	"58,3/41,7"	"77/55"	132	stress_42	"POPTR_0014s17130.1"	316	"	"C/G"	"68,2/31,8"	"15/7"	22
controllo_3	"POPTR_0014s17130.1"	316	"	"C/G"	"58,3/41,7"	"77/55"	132	stress_45	"POPTR_0014s17130.1"	316	"	"C/G"	"55,2/44,8"	"16/13"	29
controllo_3	"POPTR_0009s05240.1"	803	"	"A/C"	"58,3/41,7"	"438/313"	751	stress_12bis	"POPTR_0009s05240.1"	803	"	"C/A"	"51,3/48,7"	"120/114"	234
controllo_3	"POPTR_0009s05240.1"	803	"	"A/C"	"58,3/41,7"	"438/313"	751	stress_42	"POPTR_0009s05240.1"	803	"	"C/A"	"73,3/26,7"	"66/24"	90
controllo_3	"POPTR_0009s05240.1"	803	"	"A/C"	"58,3/41,7"	"438/313"	751	stress_45	"POPTR_0009s05240.1"	803	"	"C/A"	"74,3/24,8"	"75/25"	101
controllo_3	"POPTR_0009s06640.1"	594	"	"G/C"	"58,3/41,7"	"63/45"	108	stress_12bis	"POPTR_0009s06640.1"	594	"	"G/C"	"55,9/44,1"	"19/15"	34
controllo_3	"POPTR_0009s06640.1"	594	"	"G/C"	"58,3/41,7"	"63/45"	108	stress_42	"POPTR_0009s06640.1"	594	"	"G/C"	"58,0/42,0"	"29/21"	50
controllo_3	"POPTR_0009s06640.1"	594	"	"G/C"	"58,3/41,7"	"63/45"	108	stress_45	"POPTR_0009s06640.1"	594	"	"G/C"	"60,6/39,4"	"43/28"	71
controllo_3	"POPTR_0012s07270.1"	620	"	"T/C"	"58,3/41,7"	"126/90"	216	stress_12bis	"POPTR_0012s07270.1"	620	"	"C/T"	"67,6/32,4"	"48/23"	71
controllo_3	"POPTR_0012s07270.1"	620	"	"T/C"	"58,3/41,7"	"126/90"	216	stress_42	"POPTR_0012s07270.1"	620	"	"C/T"	"57,5/42,5"	"50/37"	87
controllo_3	"POPTR_0012s07270.1"	620	"	"T/C"	"58,3/41,7"	"126/90"	216	stress_45	"POPTR_0012s07270.1"	620	"	"T/C"	"52,4/47,6"	"44/40"	84
controllo_3	"POPTR_0011s05250.1"	837	"	"T/C"	"58,3/41,7"	"42/30"	72	stress_45	"POPTR_0011s05250.1"	837	"	"C/T"	"56,6/43,4"	"73/56"	129
controllo_3	"POPTR_0011s14350.1"	1079	"	"G/A"	"58,3/41,7"	"63/45"	108	stress_12bis	"POPTR_0011s14350.1"	1079	"	"G/A"	"56,2/43,8"	"18/14"	32
controllo_3	"POPTR_0011s14350.1"	1079	"	"G/A"	"58,3/41,7"	"63/45"	108	stress_45	"POPTR_0011s14350.1"	1079	"	"G/A"	"56,0/44,0"	"14/11"	25
controllo_3	"POPTR_0011s12400.1"	816	"	"A/G"	"58,3/41,7"	"7/5"	12	stress_42	"POPTR_0011s12400.1"	816	"	"A/G"	"61,7/38,3"	"113/70"	183
controllo_3	"POPTR_0011s12400.1"	816	"	"A/G"	"58,3/41,7"	"7/5"	12	stress_45	"POPTR_0011s12400.1"	816	"	"A/G"	"55,9/44,1"	"113/89"	202
controllo_3	"POPTR_0015s06060.1"	345	"	"C/T"	"58,3/41,7"	"162/116"	278	stress_12bis	"POPTR_0015s06060.1"	345	"	"C/T"	"61,2/38,8"	"52/33"	85
controllo_3	"POPTR_0015s06060.1"	345	"	"C/T"	"58,3/41,7"	"162/116"	278	stress_42	"POPTR_0015s06060.1"	345	"	"C/T"	"52,1/47,9"	"76/70"	146
controllo_3	"POPTR_0015s06060.1"	345	"	"C/T"	"58,3/41,7"	"162/116"	278	stress_45	"POPTR_0015s06060.1"	345	"	"C/T"	"61,3/38,7"	"68/43"	111
controllo_3	"POPTR_0001s26960.1"	31	"	"C/T"	"58,3/41,7"	"63/45"	108	stress_12bis	"POPTR_0001s26960.1"	31	"	"C/T"	"54,2/45,8"	"13/11"	24
controllo_3	"POPTR_0001s26960.1"	31	"	"C/T"	"58,3/41,7"	"63/45"	108	stress_45	"POPTR_0001s26960.1"	31	"	"C/T"	"61,5/38,5"	"8/5"	13
controllo_3	"POPTR_0010s22950.1"	69	"	"A/G"	"58,3/41,7"	"98/70"	168	stress_12bis	"POPTR_0010s22950.1"	69	"	"G/A"	"52,9/47,1"	"9/8"	17
controllo_3	"POPTR_0010s22950.1"	69	"	"A/G"	"58,3/41,7"	"98/70"	168	stress_42	"POPTR_0010s22950.1"	69	"	"A/G"	"56,5/43,5"	"152/117"	269
controllo_3	"POPTR_0010s22950.1"	69	"	"A/G"	"58,3/41,7"	"98/70"	168	stress_45	"POPTR_0010s22950.1"	69	"	"A/G"	"55,7/44,3"	"268/213"	481
controllo_3	"POPTR_0010s13990.1"	410	"	"A/G"	"58,3/41,7"	"67/48"	115	stress_12bis	"POPTR_0010s13990.1"	410	"	"A/G"	"75,0/25,0"	"15/5"	20
controllo_3	"POPTR_0010s03010.1"	1017	"	"T/A"	"58,3/41,7"	"67/48"	115	stress_12bis	"POPTR_0010s03010.1"	1017	"	"T/A"	"51,4/48,6"	"18/17"	35
controllo_3	"POPTR_0010s03010.1"	1017	"	"T/A"	"58,3/41,7"	"67/48"	115	stress_42	"POPTR_0010s03010.1"	1017	"	"A/T"	"53,3/46,7"	"8/7"	15
controllo_3	"POPTR_0010s03010.1"	1017	"	"T/A"	"58,3/41,7"	"67/48"	115	stress_45	"POPTR_0010s03010.1"	1017	"	"T/A"	"80,0/20,0"	"8/2"	10
controllo_3	"POPTR_0010s26200.1"	159	"	"T/C"	"58,3/41,7"	"247/177"	424	stress_12bis	"POPTR_0010s26200.1"	159	"	"T/C"	"56,7/43,3"	"101/77"	178
controllo_3	"POPTR_0010s26200.1"	159	"	"T/C"	"58,3/41,7"	"247/177"	424	stress_42	"POPTR_0010s26200.1"	159	"	"T/C"	"64,5/35,5"	"40/22"	62
controllo_3	"POPTR_0010s26200.1"	159	"	"T/C"	"58,3/41,7"	"247/177"	424	stress_45	"POPTR_0010s26200.1"	159	"	"T/C"	"60,4/39,6"	"29/19"	48
controllo_3	"POPTR_0010s00900.1"	685	"	"C/T"	"58,3/41,7"	"7/5"	12	stress_42	"POPTR_0010s00900.1"	685	"	"C/T"	"51,3/48,2"	"101/95"	197
controllo_3	"POPTR_0010s00900.1"	685	"	"C/T"	"58,3/41,7"	"7/5"	12	stress_45	"POPTR_0010s00900.1"	685	"	"T/C"	"55,2/44,2"	"85/68"	154
controllo_3	"POPTR_0010s00900.1"	687	"	"C/T"	"58,3/41,7"	"7/5"	12	stress_42	"POPTR_0010s00900.1"	687	"	"C/T"	"52,2/47,8"	"107/98"	205
controllo_3	"POPTR_0010s00900.1"	687	"	"C/T"	"58,3/41,7"	"7/5"	12	stress_45	"POPTR_0010s00900.1"	687	"	"T/C"	"53,8/45,5"	"84/71"	156
controllo_3	"POPTR_0002s08010.1"	1801	"	"T/A"	"58,3/41,7"	"109/78"	187	stress_12bis	"POPTR_0002s08010.1"	1801	"	"T/A"	"52,2/45,7"	"24/21"	46
controllo_3	"POPTR_0002s08010.1"	1801	"	"T/A"	"58,3/41,7"	"109/78"	187	stress_42	"POPTR_0002s08010.1"	1801	"	"T/A"	"66,7/33,3"	"8/4"	12
controllo_3	"POPTR_0002s08010.1"	1801	"	"T/A"	"58,3/41,7"	"109/78"	187	stress_45	"POPTR_0002s08010.1"	1801	"	"T/A"	"62,5/37,5"	"10/6"	16
controllo_3	"POPTR_0002s22560.1"	1749	"	"A/G"	"58,3/41,7"	"536/384"	920	stress_12bis	"POPTR_0002s22560.1"	1749	"	"A/G"	"57,2/42,8"	"207/155"	362
controllo_3	"POPTR_0002s22560.1"	1749	"	"A/G"	"58,3/41,7"	"536/384"	920	stress_42	"POPTR_0002s22560.1"	1749	"	"G/A"	"55,8/44,2"	"87/69"	156
controllo_3	"POPTR_0002s22560.1"	1749	"	"A/G"	"58,3/41,7"	"536/384"	920	stress_45	"POPTR_0002s22560.1"	1749	"	"G/A"	"52,7/47,3"	"79/71"	150
controllo_3	"POPTR_0008s17190.1"	714	"	"T/C"	"58,3/41,7"	"120/86"	206	stress_12bis	"POPTR_0008s17190.1"	714	"	"T/C"	"55,8/44,2"	"29/23"	52
controllo_3	"POPTR_0008s17190.1"	714	"	"T/C"	"58,3/41,7"	"120/86"	206	stress_42	"POPTR_0008s17190.1"	714	"	"C/T"	"63,6/36,4"	"14/8"	22
controllo_3	"POPTR_0008s17190.1"	714	"	"T/C"	"58,3/41,7"	"120/86"	206	stress_45	"POPTR_0008s17190.1"	714	"	"T/C"	"66,7/33,3"	"18/9"	27
controllo_3	"POPTR_0008s17390.1"	1347	"	"G/T"	"58,3/41,7"	"67/48"	115	stress_12bis	"POPTR_0008s17390.1"	1347	"	"G/T"	"72,7/27,3"	"16/6"	22
controllo_3	"POPTR_0016s02570.1"	312	"	"C/G"	"58,3/41,7"	"88/63"	151	stress_12bis	"POPTR_0016s02570.1"	312	"	"G/C"	"76,2/23,8"	"16/5"	21
controllo_3	"POPTR_0016s02570.1"	312	"	"C/G"	"58,3/41,7"	"88/63"	151	stress_42	"POPTR_0016s02570.1"	312	"	"C/G"	"63,6/36,4"	"7/4"	11
controllo_3	"POPTR_0016s06620.1"	1917	"	"T/C"	"58,3/41,7"	"63/45"	108	stress_12bis	"POPTR_0016s06620.1"	1917	"	"T/C"	"61,5/38,5"	"8/5"	13
controllo_3	"POPTR_0016s06620.1"	1917	"	"T/C"	"58,3/41,7"	"63/45"	108	stress_42	"POPTR_0016s06620.1"	1917	"	"T/C"	"70,0/30,0"	"7/3"	10
controllo_3	"POPTR_0016s06620.1"	1917	"	"T/C"	"58,3/41,7"	"63/45"	108	stress_45	"POPTR_0016s06620.1"	1917	"	"T/C"	"65,2/26,1"	"15/6"	23
controllo_3	"POPTR_0025s00560.1"	1740	"	"T/A"	"58,3/41,7"	"70/50"	120	stress_12bis	"POPTR_0025s00560.1"	1740	"	"A/T"	"58,5/41,5"	"24/17"	41
controllo_3	"POPTR_0025s00560.1"	1740	"	"T/A"	"58,3/41,7"	"70/50"	120	stress_42	"POPTR_0025s00560.1"	1740	"	"A/T"	"56,2/43,8"	"27/21"	48
controllo_3	"POPTR_0025s00560.1"	1740	"	"T/A"	"58,3/41,7"	"70/50"	120	stress_45	"POPTR_0025s00560.1"	1740	"	"A/T"	"50,0/50,0"	"31/31"	62
controllo_3	"POPTR_0005s02580.1"	411	"	"C/T"	"58,4/41,6"	"66/47"	113	stress_12bis	"POPTR_0005s02580.1"	411	"	"C/T"	"62,0/38,0"	"31/19"	50
controllo_3	"POPTR_0005s02580.1"	411	"	"C/T"	"58,4/41,6"	"66/47"	113	stress_42	"POPTR_0005s02580.1"	411	"	"C/T"	"66,1/33,9"	"37/19"	56
controllo_3	"POPTR_0005s02580.1"	411	"	"C/T"	"58,4/41,6"	"66/47"	113	stress_45	"POPTR_0005s02580.1"	411	"	"C/T"	"67,2/32,8"	"43/21"	64
controllo_3	"POPTR_0006s11620.1"	1457	"	"T/A"	"58,4/41,6"	"59/42"	101	stress_12bis	"POPTR_0006s11620.1"	1457	"	"T/A"	"52,2/47,8"	"12/11"	23
controllo_3	"POPTR_0006s11620.1"	1457	"	"T/A"	"58,4/41,6"	"59/42"	101	stress_45	"POPTR_0006s11620.1"	1457	"	"A/T"	"52,6/47,4"	"10/9"	19
controllo_3	"POPTR_0006s04960.1"	2314	"	"C/A"	"58,4/41,6"	"129/92"	221	stress_12bis	"POPTR_0006s04960.1"	2314	"	"C/A"	"60,7/39,3"	"34/22"	56
controllo_3	"POPTR_0006s04960.1"	2314	"	"C/A"	"58,4/41,6"	"129/92"	221	stress_42	"POPTR_0006s04960.1"	2314	"	"C/A"	"57,1/42,9"	"8/6"	14
controllo_3	"POPTR_0006s04960.1"	2314	"	"C/A"	"58,4/41,6"	"129/92"	221	stress_45	"POPTR_0006s04960.1"	2314	"	"A/C"	"62,5/37,5"	"15/9"	24
controllo_3	"POPTR_0018s00850.1"	306	"	"A/C"	"58,4/41,6"	"265/189"	454	stress_12bis	"POPTR_0018s00850.1"	306	"	"C/A"	"63,8/36,2"	"67/38"	105
controllo_3	"POPTR_0018s00850.1"	306	"	"A/C"	"58,4/41,6"	"265/189"	454	stress_42	"POPTR_0018s00850.1"	306	"	"C/A"	"70,7/29,3"	"171/71"	242
controllo_3	"POPTR_0018s00850.1"	306	"	"A/C"	"58,4/41,6"	"265/189"	454	stress_45	"POPTR_0018s00850.1"	306	"	"C/A"	"67,2/32,8"	"240/117"	357
controllo_3	"POPTR_0013s12130.1"	212	"	"A/G"	"58,4/41,6"	"66/47"	113	stress_12bis	"POPTR_0013s12130.1"	212	"	"A/G"	"65,0/35,0"	"13/7"	20
controllo_3	"POPTR_0013s12130.1"	212	"	"A/G"	"58,4/41,6"	"66/47"	113	stress_45	"POPTR_0013s12130.1"	212	"	"A/G"	"76,9/23,1"	"10/3"	13
controllo_3	"POPTR_0004s19380.1"	955	"	"G/T"	"58,4/41,6"	"66/47"	113	stress_12bis	"POPTR_0004s19380.1"	955	"	"G/T"	"58,6/41,4"	"41/29"	70
controllo_3	"POPTR_0004s19380.1"	955	"	"G/T"	"58,4/41,6"	"66/47"	113	stress_42	"POPTR_0004s19380.1"	955	"	"G/T"	"50,0/50,0"	"9/9"	18
controllo_3	"POPTR_0004s19380.1"	955	"	"G/T"	"58,4/41,6"	"66/47"	113	stress_45	"POPTR_0004s19380.1"	955	"	"G/T"	"81,8/18,2"	"9/2"	11
controllo_3	"POPTR_0009s05850.1"	403	"	"T/C"	"58,4/41,6"	"73/52"	125	stress_12bis	"POPTR_0009s05850.1"	403	"	"C/T"	"56,5/43,5"	"13/10"	23
controllo_3	"POPTR_0009s05850.1"	403	"	"T/C"	"58,4/41,6"	"73/52"	125	stress_42	"POPTR_0009s05850.1"	403	"	"C/T"	"57,1/42,9"	"16/12"	28
controllo_3	"POPTR_0009s05850.1"	403	"	"T/C"	"58,4/41,6"	"73/52"	125	stress_45	"POPTR_0009s05850.1"	403	"	"C/T"	"54,8/45,2"	"46/38"	84
controllo_3	"POPTR_0012s11630.1"	219	"	"G/A"	"58,4/41,6"	"202/144"	346	stress_12bis	"POPTR_0012s11630.1"	219	"	"G/A"	"66,9/33,1"	"119/59"	178
controllo_3	"POPTR_0012s11630.1"	219	"	"G/A"	"58,4/41,6"	"202/144"	346	stress_42	"POPTR_0012s11630.1"	219	"	"G/A"	"55,1/44,9"	"76/62"	138
controllo_3	"POPTR_0012s11630.1"	219	"	"G/A"	"58,4/41,6"	"202/144"	346	stress_45	"POPTR_0012s11630.1"	219	"	"G/A"	"61,3/38,7"	"92/58"	150
controllo_3	"POPTR_0011s12440.1"	230	"	"C/T"	"58,4/41,6"	"170/121"	291	stress_12bis	"POPTR_0011s12440.1"	230	"	"C/T"	"61,3/38,7"	"92/58"	150
controllo_3	"POPTR_0011s12440.1"	230	"	"C/T"	"58,4/41,6"	"170/121"	291	stress_42	"POPTR_0011s12440.1"	230	"	"C/T"	"68,8/31,2"	"22/10"	32
controllo_3	"POPTR_0011s12440.1"	230	"	"C/T"	"58,4/41,6"	"170/121"	291	stress_45	"POPTR_0011s12440.1"	230	"	"C/T"	"72,7/27,3"	"32/12"	44
controllo_3	"POPTR_0001s47020.1"	1086	"	"G/A"	"58,4/41,6"	"111/79"	190	stress_12bis	"POPTR_0001s47020.1"	1086	"	"A/G"	"51,1/48,9"	"23/22"	45
controllo_3	"POPTR_0001s47020.1"	1086	"	"G/A"	"58,4/41,6"	"111/79"	190	stress_42	"POPTR_0001s47020.1"	1086	"	"A/G"	"51,1/48,9"	"23/22"	45
controllo_3	"POPTR_0001s47020.1"	1086	"	"G/A"	"58,4/41,6"	"111/79"	190	stress_45	"POPTR_0001s47020.1"	1086	"	"G/A"	"59,1/40,9"	"39/27"	66
controllo_3	"POPTR_0001s42970.1"	48	"	"G/C"	"58,4/41,6"	"785/559"	1344	stress_12bis	"POPTR_0001s42970.1"	48	"	"G/C"	"64,0/36,0"	"300/169"	469
controllo_3	"POPTR_0001s42970.1"	48	"	"G/C"	"58,4/41,6"	"785/559"	1344	stress_42	"POPTR_0001s42970.1"	48	"	"G/C"	"63,1/36,9"	"53/31"	84
controllo_3	"POPTR_0001s42970.1"	48	"	"G/C"	"58,4/41,6"	"785/559"	1344	stress_45	"POPTR_0001s42970.1"	48	"	"G/C"	"52,2/47,8"	"36/33"	69
controllo_3	"POPTR_0010s19720.1"	339	"	"A/G"	"58,4/41,6"	"59/42"	101	stress_12bis	"POPTR_0010s19720.1"	339	"	"A/G"	"56,2/43,8"	"18/14"	32
controllo_3	"POPTR_0010s16880.1"	106	"	"T/C"	"58,4/41,6"	"90/64"	154	stress_12bis	"POPTR_0010s16880.1"	106	"	"T/C"	"59,0/41,0"	"23/16"	39
controllo_3	"POPTR_0010s16880.1"	106	"	"T/C"	"58,4/41,6"	"90/64"	154	stress_45	"POPTR_0010s16880.1"	106	"	"T/C"	"60,0/40,0"	"9/6"	15
controllo_3	"POPTR_0007s06620.1"	1611	"	"G/C"	"58,4/41,6"	"80/57"	137	stress_12bis	"POPTR_0007s06620.1"	1611	"	"C/G"	"57,9/42,1"	"11/8"	19
controllo_3	"POPTR_0007s06620.1"	1611	"	"G/C"	"58,4/41,6"	"80/57"	137	stress_45	"POPTR_0007s06620.1"	1611	"	"C/G"	"54,5/45,5"	"6/5"	11
controllo_3	"POPTR_0002s01570.1"	348	"	"G/T"	"58,4/41,6"	"59/42"	101	stress_12bis	"POPTR_0002s01570.1"	348	"	"G/T"	"68,2/31,8"	"15/7"	22
controllo_3	"POPTR_0002s01570.1"	348	"	"G/T"	"58,4/41,6"	"59/42"	101	stress_42	"POPTR_0002s01570.1"	348	"	"G/T"	"52,9/47,1"	"18/16"	34
controllo_3	"POPTR_0002s01570.1"	348	"	"G/T"	"58,4/41,6"	"59/42"	101	stress_45	"POPTR_0002s01570.1"	348	"	"G/T"	"68,0/32,0"	"17/8"	25
controllo_3	"POPTR_0002s03470.1"	84	"	"G/A"	"58,4/41,6"	"184/131"	315	stress_12bis	"POPTR_0002s03470.1"	84	"	"G/A"	"59,2/40,8"	"61/42"	103
controllo_3	"POPTR_0002s03470.1"	84	"	"G/A"	"58,4/41,6"	"184/131"	315	stress_42	"POPTR_0002s03470.1"	84	"	"G/A"	"59,6/40,4"	"34/23"	57
controllo_3	"POPTR_0002s03470.1"	84	"	"G/A"	"58,4/41,6"	"184/131"	315	stress_45	"POPTR_0002s03470.1"	84	"	"G/A"	"65,9/34,1"	"27/14"	41
controllo_3	"POPTR_0002s03990.1"	36	"	"G/A"	"58,4/41,6"	"59/42"	101	stress_12bis	"POPTR_0002s03990.1"	36	"	"A/G"	"52,6/47,4"	"10/9"	19
controllo_3	"POPTR_0002s03990.1"	36	"	"G/A"	"58,4/41,6"	"59/42"	101	stress_42	"POPTR_0002s03990.1"	36	"	"G/A"	"64,2/35,8"	"34/19"	53
controllo_3	"POPTR_0002s03990.1"	36	"	"G/A"	"58,4/41,6"	"59/42"	101	stress_45	"POPTR_0002s03990.1"	36	"	"A/G"	"53,8/46,2"	"21/18"	39
controllo_3	"POPTR_0008s18230.1"	165	"	"C/T"	"58,4/41,6"	"336/239"	575	stress_12bis	"POPTR_0008s18230.1"	165	"	"C/T"	"62,0/38,0"	"111/68"	179
controllo_3	"POPTR_0008s18230.1"	165	"	"C/T"	"58,4/41,6"	"336/239"	575	stress_42	"POPTR_0008s18230.1"	165	"	"C/T"	"64,3/35,7"	"45/25"	70
controllo_3	"POPTR_0008s18230.1"	165	"	"C/T"	"58,4/41,6"	"336/239"	575	stress_45	"POPTR_0008s18230.1"	165	"	"C/T"	"65,9/34,1"	"29/15"	44
controllo_3	"POPTR_0008s03280.1"	936	"	"C/T"	"58,4/41,6"	"66/47"	113	stress_12bis	"POPTR_0008s03280.1"	936	"	"T/C"	"60,0/40,0"	"18/12"	30
controllo_3	"POPTR_0008s03280.1"	936	"	"C/T"	"58,4/41,6"	"66/47"	113	stress_42	"POPTR_0008s03280.1"	936	"	"C/T"	"61,5/38,5"	"8/5"	13
controllo_3	"POPTR_0008s03280.1"	936	"	"C/T"	"58,4/41,6"	"66/47"	113	stress_45	"POPTR_0008s03280.1"	936	"	"T/C"	"61,5/38,5"	"8/5"	13
controllo_3	"POPTR_0008s14480.1"	273	"	"C/T"	"58,4/41,6"	"139/99"	238	stress_12bis	"POPTR_0008s14480.1"	273	"	"C/T"	"55,7/44,3"	"39/31"	70
controllo_3	"POPTR_0008s14480.1"	273	"	"C/T"	"58,4/41,6"	"139/99"	238	stress_42	"POPTR_0008s14480.1"	273	"	"C/T"	"64,3/35,7"	"9/5"	14
controllo_3	"POPTR_0008s14480.1"	273	"	"C/T"	"58,4/41,6"	"139/99"	238	stress_45	"POPTR_0008s14480.1"	273	"	"C/T"	"69,7/30,3"	"23/10"	33
controllo_3	"POPTR_0008s20590.1"	293	"	"G/A"	"58,4/41,6"	"218/155"	373	stress_12bis	"POPTR_0008s20590.1"	293	"	"G/A"	"62,1/37,9"	"87/53"	140
controllo_3	"POPTR_0008s20590.1"	293	"	"G/A"	"58,4/41,6"	"218/155"	373	stress_42	"POPTR_0008s20590.1"	293	"	"G/A"	"65,5/33,6"	"72/37"	110
controllo_3	"POPTR_0008s20590.1"	293	"	"G/A"	"58,4/41,6"	"218/155"	373	stress_45	"POPTR_0008s20590.1"	293	"	"G/A"	"61,1/38,9"	"99/63"	162
controllo_3	"POPTR_0001s01630.1"	483	"	"G/T"	"58,5/40,7"	"158/110"	270	stress_12bis	"POPTR_0001s01630.1"	483	"	"G/T"	"54,1/45,9"	"33/28"	61
controllo_3	"POPTR_0018s11820.1"	918	"	"A/G"	"58,5/41,2"	"182/128"	311	stress_12bis	"POPTR_0018s11820.1"	918	"	"G/A"	"53,3/46,7"	"49/43"	92
controllo_3	"POPTR_0018s11820.1"	918	"	"A/G"	"58,5/41,2"	"182/128"	311	stress_42	"POPTR_0018s11820.1"	918	"	"G/A"	"55,6/44,4"	"10/8"	18
controllo_3	"POPTR_0018s11820.1"	918	"	"A/G"	"58,5/41,2"	"182/128"	311	stress_45	"POPTR_0018s11820.1"	918	"	"A/G"	"70,8/29,2"	"17/7"	24
controllo_3	"POPTR_0010s26200.1"	180	"	"G/T"	"58,5/41,3"	"238/168"	407	stress_12bis	"POPTR_0010s26200.1"	180	"	"G/T"	"57,4/42,1"	"105/77"	183
controllo_3	"POPTR_0010s26200.1"	180	"	"G/T"	"58,5/41,3"	"238/168"	407	stress_42	"POPTR_0010s26200.1"	180	"	"G/T"	"71,4/28,6"	"40/16"	56
controllo_3	"POPTR_0010s26200.1"	180	"	"G/T"	"58,5/41,3"	"238/168"	407	stress_45	"POPTR_0010s26200.1"	180	"	"G/T"	"63,6/36,4"	"35/20"	55
controllo_3	"POPTR_0006s21650.1"	112	"	"T/C"	"58,5/41,5"	"62/44"	106	stress_12bis	"POPTR_0006s21650.1"	112	"	"T/C"	"70,0/30,0"	"35/15"	50
controllo_3	"POPTR_0006s21650.1"	112	"	"T/C"	"58,5/41,5"	"62/44"	106	stress_45	"POPTR_0006s21650.1"	112	"	"T/C"	"61,1/38,9"	"11/7"	18
controllo_3	"POPTR_0018s02890.1"	1560	"	"C/A"	"58,5/41,5"	"72/51"	123	stress_12bis	"POPTR_0018s02890.1"	1560	"	"C/A"	"69,2/30,8"	"18/8"	26
controllo_3	"POPTR_0018s02890.1"	1560	"	"C/A"	"58,5/41,5"	"72/51"	123	stress_42	"POPTR_0018s02890.1"	1560	"	"A/C"	"75,0/25,0"	"9/3"	12
controllo_3	"POPTR_0018s02890.1"	1560	"	"C/A"	"58,5/41,5"	"72/51"	123	stress_45	"POPTR_0018s02890.1"	1560	"	"A/C"	"52,9/47,1"	"9/8"	17
controllo_3	"POPTR_0019s08090.1"	201	"	"A/G"	"58,5/41,5"	"69/49"	118	stress_12bis	"POPTR_0019s08090.1"	201	"	"A/G"	"56,2/43,8"	"27/21"	48
controllo_3	"POPTR_0019s08090.1"	201	"	"A/G"	"58,5/41,5"	"69/49"	118	stress_42	"POPTR_0019s08090.1"	201	"	"G/A"	"67,7/32,3"	"21/10"	31
controllo_3	"POPTR_0019s08090.1"	201	"	"A/G"	"58,5/41,5"	"69/49"	118	stress_45	"POPTR_0019s08090.1"	201	"	"G/A"	"62,0/38,0"	"31/19"	50
controllo_3	"POPTR_0014s00250.1"	615	"	"A/T"	"58,5/41,5"	"79/56"	135	stress_12bis	"POPTR_0014s00250.1"	615	"	"A/T"	"51,5/48,5"	"17/16"	33
controllo_3	"POPTR_0014s00250.1"	615	"	"A/T"	"58,5/41,5"	"79/56"	135	stress_42	"POPTR_0014s00250.1"	615	"	"A/T"	"69,2/30,8"	"9/4"	13
controllo_3	"POPTR_0014s00250.1"	615	"	"A/T"	"58,5/41,5"	"79/56"	135	stress_45	"POPTR_0014s00250.1"	615	"	"T/A"	"53,3/46,7"	"8/7"	15
controllo_3	"POPTR_0014s06380.1"	286	"	"T/C"	"58,5/41,5"	"200/142"	342	stress_12bis	"POPTR_0014s06380.1"	286	"	"C/T"	"56,7/43,3"	"72/55"	127
controllo_3	"POPTR_0014s06380.1"	286	"	"T/C"	"58,5/41,5"	"200/142"	342	stress_42	"POPTR_0014s06380.1"	286	"	"T/C"	"64,4/35,6"	"58/32"	90
controllo_3	"POPTR_0014s06380.1"	286	"	"T/C"	"58,5/41,5"	"200/142"	342	stress_45	"POPTR_0014s06380.1"	286	"	"T/C"	"63,5/36,5"	"87/50"	137
controllo_3	"POPTR_0014s02410.1"	320	"	"T/A"	"58,5/41,5"	"491/349"	840	stress_12bis	"POPTR_0014s02410.1"	320	"	"T/A"	"66,2/33,8"	"88/45"	133
controllo_3	"POPTR_0014s02410.1"	320	"	"T/A"	"58,5/41,5"	"491/349"	840	stress_42	"POPTR_0014s02410.1"	320	"	"T/A"	"61,8/38,2"	"76/47"	123
controllo_3	"POPTR_0014s02410.1"	320	"	"T/A"	"58,5/41,5"	"491/349"	840	stress_45	"POPTR_0014s02410.1"	320	"	"T/A"	"55,2/44,5"	"176/142"	319
controllo_3	"POPTR_0014s11040.1"	205	"	"C/T"	"58,5/41,5"	"83/59"	142	stress_12bis	"POPTR_0014s11040.1"	205	"	"C/T"	"63,9/36,1"	"23/13"	36
controllo_3	"POPTR_0014s11040.1"	205	"	"C/T"	"58,5/41,5"	"83/59"	142	stress_42	"POPTR_0014s11040.1"	205	"	"C/T"	"66,7/33,3"	"38/19"	57
controllo_3	"POPTR_0014s11040.1"	205	"	"C/T"	"58,5/41,5"	"83/59"	142	stress_45	"POPTR_0014s11040.1"	205	"	"C/T"	"55,6/44,4"	"50/40"	90
controllo_3	"POPTR_0004s17610.1"	240	"	"C/T"	"58,5/41,5"	"93/66"	159	stress_12bis	"POPTR_0004s17610.1"	240	"	"C/T"	"61,0/39,0"	"50/32"	82
controllo_3	"POPTR_0004s17610.1"	240	"	"C/T"	"58,5/41,5"	"93/66"	159	stress_42	"POPTR_0004s17610.1"	240	"	"C/T"	"64,3/35,7"	"164/91"	255
controllo_3	"POPTR_0004s17610.1"	240	"	"C/T"	"58,5/41,5"	"93/66"	159	stress_45	"POPTR_0004s17610.1"	240	"	"C/T"	"66,9/33,1"	"251/124"	375
controllo_3	"POPTR_0012s00670.1"	942	"	"G/T"	"58,5/41,5"	"93/66"	159	stress_42	"POPTR_0012s00670.1"	942	"	"G/T"	"59,4/40,6"	"38/26"	64
controllo_3	"POPTR_0012s00670.1"	942	"	"G/T"	"58,5/41,5"	"93/66"	159	stress_45	"POPTR_0012s00670.1"	942	"	"T/G"	"56,2/43,8"	"45/35"	80
controllo_3	"POPTR_0015s10920.1"	71	"	"C/T"	"58,5/41,5"	"62/44"	106	stress_12bis	"POPTR_0015s10920.1"	71	"	"T/C"	"53,3/46,7"	"16/14"	30
controllo_3	"POPTR_0015s10920.1"	71	"	"C/T"	"58,5/41,5"	"62/44"	106	stress_45	"POPTR_0015s10920.1"	71	"	"C/T"	"52,2/47,8"	"12/11"	23
controllo_3	"POPTR_0001s32780.1"	528	"	"T/C"	"58,5/41,5"	"69/49"	118	stress_12bis	"POPTR_0001s32780.1"	528	"	"T/C"	"61,1/38,9"	"11/7"	18
controllo_3	"POPTR_0001s32780.1"	528	"	"T/C"	"58,5/41,5"	"69/49"	118	stress_42	"POPTR_0001s32780.1"	528	"	"T/C"	"59,3/40,7"	"16/11"	27
controllo_3	"POPTR_0001s32780.1"	528	"	"T/C"	"58,5/41,5"	"69/49"	118	stress_45	"POPTR_0001s32780.1"	528	"	"T/C"	"64,8/35,2"	"46/25"	71
controllo_3	"POPTR_0001s32780.1"	1143	"	"T/C"	"58,5/41,5"	"96/68"	164	stress_12bis	"POPTR_0001s32780.1"	1143	"	"T/C"	"70,4/29,6"	"19/8"	27
controllo_3	"POPTR_0001s32780.1"	1143	"	"T/C"	"58,5/41,5"	"96/68"	164	stress_42	"POPTR_0001s32780.1"	1143	"	"T/C"	"63,4/36,6"	"52/30"	82
controllo_3	"POPTR_0001s32780.1"	1143	"	"T/C"	"58,5/41,5"	"96/68"	164	stress_45	"POPTR_0001s32780.1"	1143	"	"T/C"	"60,9/38,4"	"84/53"	138
controllo_3	"POPTR_0001s35230.1"	305	"	"G/C"	"58,5/41,5"	"487/345"	832	stress_12bis	"POPTR_0001s35230.1"	305	"	"G/C"	"60,6/39,4"	"146/95"	241
controllo_3	"POPTR_0001s35230.1"	305	"	"G/C"	"58,5/41,5"	"487/345"	832	stress_42	"POPTR_0001s35230.1"	305	"	"G/C"	"55,2/44,8"	"48/39"	87
controllo_3	"POPTR_0001s35230.1"	305	"	"G/C"	"58,5/41,5"	"487/345"	832	stress_45	"POPTR_0001s35230.1"	305	"	"G/C"	"56,6/43,4"	"82/63"	145
controllo_3	"POPTR_0010s09960.1"	588	"	"G/A"	"58,5/41,5"	"356/253"	609	stress_12bis	"POPTR_0010s09960.1"	588	"	"G/A"	"52,4/47,2"	"111/100"	212
controllo_3	"POPTR_0010s09960.1"	588	"	"G/A"	"58,5/41,5"	"356/253"	609	stress_42	"POPTR_0010s09960.1"	588	"	"G/A"	"51,5/47,5"	"52/48"	101
controllo_3	"POPTR_0010s09960.1"	588	"	"G/A"	"58,5/41,5"	"356/253"	609	stress_45	"POPTR_0010s09960.1"	588	"	"G/A"	"53,0/47,0"	"53/47"	100
controllo_3	"POPTR_0010s07340.1"	160	"	"A/G"	"58,5/41,5"	"62/44"	106	stress_12bis	"POPTR_0010s07340.1"	160	"	"G/A"	"66,7/33,3"	"28/14"	42
controllo_3	"POPTR_0010s07340.1"	160	"	"A/G"	"58,5/41,5"	"62/44"	106	stress_42	"POPTR_0010s07340.1"	160	"	"A/G"	"54,9/45,1"	"28/23"	51
controllo_3	"POPTR_0010s07340.1"	160	"	"A/G"	"58,5/41,5"	"62/44"	106	stress_45	"POPTR_0010s07340.1"	160	"	"G/A"	"57,6/42,4"	"38/28"	66
controllo_3	"POPTR_0007s14390.1"	996	"	"A/T"	"58,5/41,5"	"141/100"	241	stress_12bis	"POPTR_0007s14390.1"	996	"	"A/T"	"58,9/41,1"	"33/23"	56
controllo_3	"POPTR_0007s14390.1"	996	"	"A/T"	"58,5/41,5"	"141/100"	241	stress_42	"POPTR_0007s14390.1"	996	"	"A/T"	"50,0/50,0"	"15/15"	30
controllo_3	"POPTR_0007s14390.1"	996	"	"A/T"	"58,5/41,5"	"141/100"	241	stress_45	"POPTR_0007s14390.1"	996	"	"T/A"	"58,2/41,8"	"32/23"	55
controllo_3	"POPTR_0002s14730.1"	943	"	"T/G"	"58,5/41,5"	"313/222"	535	stress_12bis	"POPTR_0002s14730.1"	943	"	"T/G"	"55,3/44,7"	"94/76"	170
controllo_3	"POPTR_0002s14730.1"	943	"	"T/G"	"58,5/41,5"	"313/222"	535	stress_42	"POPTR_0002s14730.1"	943	"	"G/T"	"60,0/40,0"	"15/10"	25
controllo_3	"POPTR_0002s14730.1"	943	"	"T/G"	"58,5/41,5"	"313/222"	535	stress_45	"POPTR_0002s14730.1"	943	"	"G/T"	"56,4/43,6"	"22/17"	39
controllo_3	"POPTR_0002s03020.1"	246	"	"G/C"	"58,5/41,5"	"265/188"	453	stress_12bis	"POPTR_0002s03020.1"	246	"	"C/G"	"50,0/50,0"	"61/61"	122
controllo_3	"POPTR_0002s03020.1"	246	"	"G/C"	"58,5/41,5"	"265/188"	453	stress_42	"POPTR_0002s03020.1"	246	"	"G/C"	"77,5/22,5"	"158/46"	204
controllo_3	"POPTR_0002s03020.1"	246	"	"G/C"	"58,5/41,5"	"265/188"	453	stress_45	"POPTR_0002s03020.1"	246	"	"G/C"	"75,1/24,9"	"335/111"	446
controllo_3	"POPTR_0002s24310.1"	685	"	"G/A"	"58,5/41,5"	"100/71"	171	stress_12bis	"POPTR_0002s24310.1"	685	"	"G/A"	"53,5/46,5"	"23/20"	43
controllo_3	"POPTR_0002s24310.1"	685	"	"G/A"	"58,5/41,5"	"100/71"	171	stress_42	"POPTR_0002s24310.1"	685	"	"G/A"	"65,8/34,2"	"25/13"	38
controllo_3	"POPTR_0008s03160.1"	34	"	"A/G"	"58,5/41,5"	"103/73"	176	stress_12bis	"POPTR_0008s03160.1"	34	"	"A/G"	"50,9/49,1"	"27/26"	53
controllo_3	"POPTR_0008s03160.1"	34	"	"A/G"	"58,5/41,5"	"103/73"	176	stress_42	"POPTR_0008s03160.1"	34	"	"A/G"	"61,1/38,9"	"11/7"	18
controllo_3	"POPTR_0008s03160.1"	34	"	"A/G"	"58,5/41,5"	"103/73"	176	stress_45	"POPTR_0008s03160.1"	34	"	"A/G"	"61,5/38,5"	"24/15"	39
controllo_3	"POPTR_0008s22310.1"	168	"	"C/G"	"58,5/41,5"	"113/80"	193	stress_12bis	"POPTR_0008s22310.1"	168	"	"C/G"	"66,7/32,8"	"128/63"	192
controllo_3	"POPTR_0008s22310.1"	168	"	"C/G"	"58,5/41,5"	"113/80"	193	stress_42	"POPTR_0008s22310.1"	168	"	"C/G"	"62,8/37,2"	"54/32"	86
controllo_3	"POPTR_0008s22310.1"	168	"	"C/G"	"58,5/41,5"	"113/80"	193	stress_45	"POPTR_0008s22310.1"	168	"	"C/G"	"51,3/48,7"	"58/55"	113
controllo_3	"POPTR_0008s03900.1"	30	"	"G/A"	"58,5/41,5"	"79/56"	135	stress_12bis	"POPTR_0008s03900.1"	30	"	"G/A"	"59,5/40,5"	"22/15"	37
controllo_3	"POPTR_0008s03900.1"	30	"	"G/A"	"58,5/41,5"	"79/56"	135	stress_42	"POPTR_0008s03900.1"	30	"	"G/A"	"54,8/45,2"	"40/33"	73
controllo_3	"POPTR_0008s03900.1"	30	"	"G/A"	"58,5/41,5"	"79/56"	135	stress_45	"POPTR_0008s03900.1"	30	"	"G/A"	"68,9/31,1"	"31/14"	45
controllo_3	"POPTR_0008s15290.1"	1470	"	"T/A"	"58,5/41,5"	"79/56"	135	stress_12bis	"POPTR_0008s15290.1"	1470	"	"A/T"	"51,4/48,6"	"38/36"	74
controllo_3	"POPTR_0008s15290.1"	1470	"	"T/A"	"58,5/41,5"	"79/56"	135	stress_42	"POPTR_0008s15290.1"	1470	"	"A/T"	"51,3/48,7"	"40/38"	78
controllo_3	"POPTR_0008s15290.1"	1470	"	"T/A"	"58,5/41,5"	"79/56"	135	stress_45	"POPTR_0008s15290.1"	1470	"	"T/A"	"57,0/43,0"	"57/43"	100
controllo_3	"POPTR_0016s08650.1"	149	"	"G/A"	"58,5/41,5"	"62/44"	106	stress_12bis	"POPTR_0016s08650.1"	149	"	"G/A"	"53,3/46,7"	"32/28"	60
controllo_3	"POPTR_0016s08650.1"	149	"	"G/A"	"58,5/41,5"	"62/44"	106	stress_45	"POPTR_0016s08650.1"	149	"	"A/G"	"63,2/36,8"	"12/7"	19
controllo_3	"POPTR_0016s14310.1"	188	"	"C/T"	"58,5/41,5"	"226/160"	386	stress_12bis	"POPTR_0016s14310.1"	188	"	"T/C"	"50,8/49,2"	"91/88"	179
controllo_3	"POPTR_0016s14310.1"	188	"	"C/T"	"58,5/41,5"	"226/160"	386	stress_42	"POPTR_0016s14310.1"	188	"	"C/T"	"54,5/45,5"	"12/10"	22
controllo_3	"POPTR_0016s14310.1"	188	"	"C/T"	"58,5/41,5"	"226/160"	386	stress_45	"POPTR_0016s14310.1"	188	"	"C/T"	"51,9/48,1"	"14/13"	27
controllo_3	"POPTR_0016s14310.1"	277	"	"A/G"	"58,5/41,5"	"209/148"	357	stress_12bis	"POPTR_0016s14310.1"	277	"	"G/A"	"57,3/42,7"	"67/50"	117
controllo_3	"POPTR_0016s14310.1"	277	"	"A/G"	"58,5/41,5"	"209/148"	357	stress_42	"POPTR_0016s14310.1"	277	"	"A/G"	"54,5/45,5"	"6/5"	11
controllo_3	"POPTR_0016s14310.1"	277	"	"A/G"	"58,5/41,5"	"209/148"	357	stress_45	"POPTR_0016s14310.1"	277	"	"A/G"	"59,1/40,9"	"13/9"	22
controllo_3	"POPTR_0006s23580.1"	315	"	"T/G"	"58,6/40,5"	"126/87"	215	stress_12bis	"POPTR_0006s23580.1"	315	"	"T/G"	"58,5/41,5"	"38/27"	65
controllo_3	"POPTR_0006s23580.1"	315	"	"T/G"	"58,6/40,5"	"126/87"	215	stress_42	"POPTR_0006s23580.1"	315	"	"T/G"	"51,9/46,3"	"56/50"	108
controllo_3	"POPTR_0006s23580.1"	315	"	"T/G"	"58,6/40,5"	"126/87"	215	stress_45	"POPTR_0006s23580.1"	315	"	"T/G"	"51,9/48,1"	"69/64"	133
controllo_3	"POPTR_0005s22830.1"	270	"	"G/A"	"58,6/41,4"	"236/167"	403	stress_12bis	"POPTR_0005s22830.1"	270	"	"G/A"	"59,9/40,1"	"103/69"	172
controllo_3	"POPTR_0005s22830.1"	270	"	"G/A"	"58,6/41,4"	"236/167"	403	stress_42	"POPTR_0005s22830.1"	270	"	"G/A"	"58,6/41,4"	"65/46"	111
controllo_3	"POPTR_0005s22830.1"	270	"	"G/A"	"58,6/41,4"	"236/167"	403	stress_45	"POPTR_0005s22830.1"	270	"	"G/A"	"56,4/43,6"	"53/41"	94
controllo_3	"POPTR_0005s15660.1"	344	"	"A/G"	"58,6/41,4"	"11112/7847"	18962	stress_12bis	"POPTR_0005s15660.1"	344	"	"A/G"	"58,1/41,9"	"2700/1947"	4649
controllo_3	"POPTR_0005s15660.1"	344	"	"A/G"	"58,6/41,4"	"11112/7847"	18962	stress_42	"POPTR_0005s15660.1"	344	"	"A/G"	"56,5/43,5"	"790/608"	1398
controllo_3	"POPTR_0005s15660.1"	344	"	"A/G"	"58,6/41,4"	"11112/7847"	18962	stress_45	"POPTR_0005s15660.1"	344	"	"A/G"	"50,5/49,5"	"579/568"	1147
controllo_3	"POPTR_0017s07800.1"	207	"	"G/C"	"58,6/41,4"	"85/60"	145	stress_12bis	"POPTR_0017s07800.1"	207	"	"C/G"	"71,9/28,1"	"41/16"	57
controllo_3	"POPTR_0006s24770.1"	615	"	"T/C"	"58,6/41,4"	"147/104"	251	stress_12bis	"POPTR_0006s24770.1"	615	"	"T/C"	"63,3/36,7"	"93/54"	147
controllo_3	"POPTR_0006s24770.1"	615	"	"T/C"	"58,6/41,4"	"147/104"	251	stress_42	"POPTR_0006s24770.1"	615	"	"T/C"	"56,3/43,7"	"67/52"	119
controllo_3	"POPTR_0006s24770.1"	615	"	"T/C"	"58,6/41,4"	"147/104"	251	stress_45	"POPTR_0006s24770.1"	615	"	"T/C"	"57,3/42,7"	"82/61"	143
controllo_3	"POPTR_0003s21070.1"	366	"	"T/C"	"58,6/41,4"	"65/46"	111	stress_12bis	"POPTR_0003s21070.1"	366	"	"C/T"	"57,7/38,5"	"15/10"	26
controllo_3	"POPTR_0003s21070.1"	366	"	"T/C"	"58,6/41,4"	"65/46"	111	stress_45	"POPTR_0003s21070.1"	366	"	"T/C"	"54,5/45,5"	"12/10"	22
controllo_3	"POPTR_0019s11720.1"	349	"	"T/A"	"58,6/41,4"	"180/127"	307	stress_12bis	"POPTR_0019s11720.1"	349	"	"A/T"	"53,4/46,6"	"39/34"	73
controllo_3	"POPTR_0019s11720.1"	349	"	"T/A"	"58,6/41,4"	"180/127"	307	stress_42	"POPTR_0019s11720.1"	349	"	"T/A"	"55,6/44,4"	"15/12"	27
controllo_3	"POPTR_0019s11720.1"	349	"	"T/A"	"58,6/41,4"	"180/127"	307	stress_45	"POPTR_0019s11720.1"	349	"	"A/T"	"55,2/44,8"	"16/13"	29
controllo_3	"POPTR_0013s08320.1"	145	"	"C/A"	"58,6/41,4"	"65/46"	111	stress_12bis	"POPTR_0013s08320.1"	145	"	"C/A"	"76,2/23,8"	"48/15"	63
controllo_3	"POPTR_0013s08320.1"	145	"	"C/A"	"58,6/41,4"	"65/46"	111	stress_45	"POPTR_0013s08320.1"	145	"	"A/C"	"50,0/50,0"	"13/13"	26
controllo_3	"POPTR_0013s01080.1"	916	"	"T/A"	"58,6/41,4"	"68/48"	116	stress_12bis	"POPTR_0013s01080.1"	916	"	"T/A"	"58,9/41,1"	"33/23"	56
controllo_3	"POPTR_0013s01080.1"	916	"	"T/A"	"58,6/41,4"	"68/48"	116	stress_42	"POPTR_0013s01080.1"	916	"	"A/T"	"50,0/50,0"	"7/7"	14
controllo_3	"POPTR_0013s01080.1"	916	"	"T/A"	"58,6/41,4"	"68/48"	116	stress_45	"POPTR_0013s01080.1"	916	"	"T/A"	"54,5/45,5"	"12/10"	22
controllo_3	"POPTR_0014s09180.1"	42	"	"C/T"	"58,6/41,4"	"75/53"	128	stress_12bis	"POPTR_0014s09180.1"	42	"	"C/T"	"59,5/40,5"	"25/17"	42
controllo_3	"POPTR_0014s06370.1"	261	"	"G/A"	"58,6/41,4"	"150/106"	256	stress_12bis	"POPTR_0014s06370.1"	261	"	"G/A"	"53,5/46,5"	"38/33"	71
controllo_3	"POPTR_0014s06370.1"	261	"	"G/A"	"58,6/41,4"	"150/106"	256	stress_42	"POPTR_0014s06370.1"	261	"	"G/A"	"55,8/44,2"	"24/19"	43
controllo_3	"POPTR_0014s06370.1"	261	"	"G/A"	"58,6/41,4"	"150/106"	256	stress_45	"POPTR_0014s06370.1"	261	"	"G/A"	"53,2/46,8"	"41/36"	77
controllo_3	"POPTR_0009s12790.1"	189	"	"T/C"	"58,6/41,4"	"82/58"	140	stress_12bis	"POPTR_0009s12790.1"	189	"	"T/C"	"52,2/47,8"	"12/11"	23
controllo_3	"POPTR_0009s12790.1"	189	"	"T/C"	"58,6/41,4"	"82/58"	140	stress_42	"POPTR_0009s12790.1"	189	"	"C/T"	"51,3/48,7"	"20/19"	39
controllo_3	"POPTR_0009s12790.1"	189	"	"T/C"	"58,6/41,4"	"82/58"	140	stress_45	"POPTR_0009s12790.1"	189	"	"T/C"	"73,3/26,7"	"22/8"	30
controllo_3	"POPTR_0012s07270.1"	254	"	"A/G"	"58,6/41,4"	"126/89"	215	stress_12bis	"POPTR_0012s07270.1"	254	"	"G/A"	"58,9/41,1"	"43/30"	73
controllo_3	"POPTR_0012s07270.1"	254	"	"A/G"	"58,6/41,4"	"126/89"	215	stress_42	"POPTR_0012s07270.1"	254	"	"G/A"	"64,7/35,3"	"44/24"	68
controllo_3	"POPTR_0012s07270.1"	254	"	"A/G"	"58,6/41,4"	"126/89"	215	stress_45	"POPTR_0012s07270.1"	254	"	"G/A"	"53,9/46,1"	"48/41"	89
controllo_3	"POPTR_0001s32770.1"	360	"	"T/C"	"58,6/41,4"	"68/48"	116	stress_12bis	"POPTR_0001s32770.1"	360	"	"T/C"	"64,5/35,5"	"20/11"	31
controllo_3	"POPTR_0001s32770.1"	360	"	"T/C"	"58,6/41,4"	"68/48"	116	stress_42	"POPTR_0001s32770.1"	360	"	"T/C"	"56,7/43,3"	"17/13"	30
controllo_3	"POPTR_0001s32770.1"	360	"	"T/C"	"58,6/41,4"	"68/48"	116	stress_45	"POPTR_0001s32770.1"	360	"	"C/T"	"56,9/43,1"	"29/22"	51
controllo_3	"POPTR_0001s32770.1"	1011	"	"A/T"	"58,6/41,4"	"106/75"	181	stress_12bis	"POPTR_0001s32770.1"	1011	"	"T/A"	"54,5/45,5"	"24/20"	44
controllo_3	"POPTR_0001s32770.1"	1011	"	"A/T"	"58,6/41,4"	"106/75"	181	stress_42	"POPTR_0001s32770.1"	1011	"	"T/A"	"57,6/42,4"	"38/28"	66
controllo_3	"POPTR_0001s32770.1"	1011	"	"A/T"	"58,6/41,4"	"106/75"	181	stress_45	"POPTR_0001s32770.1"	1011	"	"A/T"	"53,6/45,5"	"59/50"	110
controllo_3	"POPTR_0001s10040.1"	124	"	"A/C"	"58,6/41,4"	"78/55"	133	stress_12bis	"POPTR_0001s10040.1"	124	"	"C/A"	"54,5/45,5"	"36/30"	66
controllo_3	"POPTR_0001s10040.1"	124	"	"A/C"	"58,6/41,4"	"78/55"	133	stress_42	"POPTR_0001s10040.1"	124	"	"A/C"	"57,8/42,2"	"26/19"	45
controllo_3	"POPTR_0001s10040.1"	124	"	"A/C"	"58,6/41,4"	"78/55"	133	stress_45	"POPTR_0001s10040.1"	124	"	"A/C"	"55,3/44,7"	"42/34"	76
controllo_3	"POPTR_0010s17860.1"	258	"	"A/G"	"58,6/41,4"	"160/113"	273	stress_12bis	"POPTR_0010s17860.1"	258	"	"G/A"	"50,9/45,3"	"27/24"	53
controllo_3	"POPTR_0010s17860.1"	258	"	"A/G"	"58,6/41,4"	"160/113"	273	stress_45	"POPTR_0010s17860.1"	258	"	"G/A"	"63,6/36,4"	"14/8"	22
controllo_3	"POPTR_0002s08010.1"	867	"	"G/T"	"58,6/41,4"	"68/48"	116	stress_12bis	"POPTR_0002s08010.1"	867	"	"G/T"	"52,4/47,6"	"11/10"	21
controllo_3	"POPTR_0002s08010.1"	867	"	"G/T"	"58,6/41,4"	"68/48"	116	stress_45	"POPTR_0002s08010.1"	867	"	"G/T"	"53,8/46,2"	"7/6"	13
controllo_3	"POPTR_0002s08010.1"	1786	"	"A/C"	"58,6/41,4"	"102/72"	174	stress_12bis	"POPTR_0002s08010.1"	1786	"	"A/C"	"52,1/45,8"	"25/22"	48
controllo_3	"POPTR_0002s08010.1"	1786	"	"A/C"	"58,6/41,4"	"102/72"	174	stress_45	"POPTR_0002s08010.1"	1786	"	"A/C"	"66,7/33,3"	"12/6"	18
controllo_3	"POPTR_0008s01960.1"	1158	"	"C/A"	"58,6/41,4"	"89/63"	152	stress_12bis	"POPTR_0008s01960.1"	1158	"	"A/C"	"61,2/38,8"	"30/19"	49
controllo_3	"POPTR_0008s01960.1"	1158	"	"C/A"	"58,6/41,4"	"89/63"	152	stress_42	"POPTR_0008s01960.1"	1158	"	"C/A"	"60,5/39,5"	"23/15"	38
controllo_3	"POPTR_0008s01960.1"	1158	"	"C/A"	"58,6/41,4"	"89/63"	152	stress_45	"POPTR_0008s01960.1"	1158	"	"C/A"	"61,1/38,9"	"33/21"	54
controllo_3	"POPTR_0008s12550.1"	439	"	"A/G"	"58,6/41,4"	"75/53"	128	stress_12bis	"POPTR_0008s12550.1"	439	"	"A/G"	"50,0/50,0"	"15/15"	30
controllo_3	"POPTR_0008s12550.1"	439	"	"A/G"	"58,6/41,4"	"75/53"	128	stress_42	"POPTR_0008s12550.1"	439	"	"A/G"	"63,9/36,1"	"23/13"	36
controllo_3	"POPTR_0008s12550.1"	439	"	"A/G"	"58,6/41,4"	"75/53"	128	stress_45	"POPTR_0008s12550.1"	439	"	"A/G"	"56,4/43,6"	"53/41"	94
controllo_3	"POPTR_0008s16670.1"	531	"	"C/T"	"58,6/41,4"	"92/65"	157	stress_12bis	"POPTR_0008s16670.1"	531	"	"C/T"	"65,4/34,6"	"34/18"	52
controllo_3	"POPTR_0008s16670.1"	531	"	"C/T"	"58,6/41,4"	"92/65"	157	stress_42	"POPTR_0008s16670.1"	531	"	"T/C"	"57,9/42,1"	"44/32"	76
controllo_3	"POPTR_0008s16670.1"	531	"	"C/T"	"58,6/41,4"	"92/65"	157	stress_45	"POPTR_0008s16670.1"	531	"	"C/T"	"62,5/37,5"	"85/51"	136
controllo_3	"POPTR_0016s09280.1"	2004	"	"G/A"	"58,6/41,4"	"92/65"	157	stress_12bis	"POPTR_0016s09280.1"	2004	"	"A/G"	"53,7/46,3"	"22/19"	41
controllo_3	"POPTR_0016s09280.1"	2004	"	"G/A"	"58,6/41,4"	"92/65"	157	stress_42	"POPTR_0016s09280.1"	2004	"	"G/A"	"58,5/41,5"	"24/17"	41
controllo_3	"POPTR_0016s09280.1"	2004	"	"G/A"	"58,6/41,4"	"92/65"	157	stress_45	"POPTR_0016s09280.1"	2004	"	"G/A"	"55,2/44,8"	"32/26"	58
controllo_3	"POPTR_0018s09730.1"	387	"	"T/C"	"58,7/40,4"	"61/42"	104	stress_12bis	"POPTR_0018s09730.1"	387	"	"T/C"	"54,5/45,5"	"12/10"	22
controllo_3	"POPTR_0018s09730.1"	387	"	"T/C"	"58,7/40,4"	"61/42"	104	stress_42	"POPTR_0018s09730.1"	387	"	"T/C"	"61,2/38,8"	"101/64"	165
controllo_3	"POPTR_0018s09730.1"	387	"	"T/C"	"58,7/40,4"	"61/42"	104	stress_45	"POPTR_0018s09730.1"	387	"	"T/C"	"60,8/39,2"	"155/100"	255
controllo_3	"POPTR_0010s26000.1"	237	"	"T/C"	"58,7/40,4"	"61/42"	104	stress_12bis	"POPTR_0010s26000.1"	237	"	"C/T"	"56,5/43,5"	"13/10"	23
controllo_3	"POPTR_0010s26000.1"	237	"	"T/C"	"58,7/40,4"	"61/42"	104	stress_42	"POPTR_0010s26000.1"	237	"	"T/C"	"57,1/42,9"	"8/6"	14
controllo_3	"POPTR_0010s26000.1"	237	"	"T/C"	"58,7/40,4"	"61/42"	104	stress_45	"POPTR_0010s26000.1"	237	"	"T/C"	"60,0/40,0"	"27/18"	45
controllo_3	"POPTR_0010s12050.1"	181	"	"C/T"	"58,7/40,9"	"175/122"	298	stress_12bis	"POPTR_0010s12050.1"	181	"	"C/T"	"50,5/49,5"	"53/52"	105
controllo_3	"POPTR_0010s12050.1"	181	"	"C/T"	"58,7/40,9"	"175/122"	298	stress_42	"POPTR_0010s12050.1"	181	"	"C/T"	"73,9/26,1"	"17/6"	23
controllo_3	"POPTR_0010s12050.1"	181	"	"C/T"	"58,7/40,9"	"175/122"	298	stress_45	"POPTR_0010s12050.1"	181	"	"C/T"	"64,3/28,6"	"9/4"	14
controllo_3	"POPTR_0005s26070.1"	39	"	"A/T"	"58,7/41,3"	"2365/1663"	4031	stress_12bis	"POPTR_0005s26070.1"	39	"	"A/T"	"58,6/41,4"	"834/590"	1424
controllo_3	"POPTR_0005s26070.1"	39	"	"A/T"	"58,7/41,3"	"2365/1663"	4031	stress_42	"POPTR_0005s26070.1"	39	"	"A/T"	"57,8/42,2"	"237/173"	410
controllo_3	"POPTR_0005s26070.1"	39	"	"A/T"	"58,7/41,3"	"2365/1663"	4031	stress_45	"POPTR_0005s26070.1"	39	"	"A/T"	"57,5/42,5"	"345/255"	600
controllo_3	"POPTR_0005s08610.1"	33	"	"T/C"	"58,7/41,3"	"64/45"	109	stress_12bis	"POPTR_0005s08610.1"	33	"	"T/C"	"54,5/45,5"	"24/20"	44
controllo_3	"POPTR_0005s08610.1"	33	"	"T/C"	"58,7/41,3"	"64/45"	109	stress_42	"POPTR_0005s08610.1"	33	"	"T/C"	"63,6/36,4"	"14/8"	22
controllo_3	"POPTR_0005s08610.1"	33	"	"T/C"	"58,7/41,3"	"64/45"	109	stress_45	"POPTR_0005s08610.1"	33	"	"T/C"	"73,9/26,1"	"17/6"	23
controllo_3	"POPTR_0006s08850.1"	102	"	"T/G"	"58,7/41,3"	"267/188"	455	stress_12bis	"POPTR_0006s08850.1"	102	"	"T/G"	"64,9/35,1"	"72/39"	111
controllo_3	"POPTR_0006s08850.1"	102	"	"T/G"	"58,7/41,3"	"267/188"	455	stress_42	"POPTR_0006s08850.1"	102	"	"T/G"	"70,1/29,9"	"47/20"	67
controllo_3	"POPTR_0006s08850.1"	102	"	"T/G"	"58,7/41,3"	"267/188"	455	stress_45	"POPTR_0006s08850.1"	102	"	"T/G"	"61,4/38,6"	"35/22"	57
controllo_3	"POPTR_0006s13240.1"	107	"	"C/T"	"58,7/41,3"	"111/78"	189	stress_12bis	"POPTR_0006s13240.1"	107	"	"C/T"	"58,2/41,8"	"53/38"	91
controllo_3	"POPTR_0006s13240.1"	107	"	"C/T"	"58,7/41,3"	"111/78"	189	stress_42	"POPTR_0006s13240.1"	107	"	"C/T"	"52,9/47,1"	"9/8"	17
controllo_3	"POPTR_0006s13240.1"	107	"	"C/T"	"58,7/41,3"	"111/78"	189	stress_45	"POPTR_0006s13240.1"	107	"	"C/T"	"69,6/30,4"	"32/14"	46
controllo_3	"POPTR_0006s27170.1"	333	"	"C/T"	"58,7/41,3"	"602/423"	1025	stress_12bis	"POPTR_0006s27170.1"	333	"	"C/T"	"59,6/40,4"	"202/137"	339
controllo_3	"POPTR_0006s27170.1"	333	"	"C/T"	"58,7/41,3"	"602/423"	1025	stress_42	"POPTR_0006s27170.1"	333	"	"T/C"	"61,0/39,0"	"25/16"	41
controllo_3	"POPTR_0006s27170.1"	333	"	"C/T"	"58,7/41,3"	"602/423"	1025	stress_45	"POPTR_0006s27170.1"	333	"	"T/C"	"61,7/38,3"	"37/23"	60
controllo_3	"POPTR_0018s09730.1"	390	"	"C/T"	"58,7/41,3"	"61/43"	104	stress_12bis	"POPTR_0018s09730.1"	390	"	"C/T"	"54,5/45,5"	"12/10"	22
controllo_3	"POPTR_0018s09730.1"	390	"	"C/T"	"58,7/41,3"	"61/43"	104	stress_42	"POPTR_0018s09730.1"	390	"	"C/T"	"61,1/38,9"	"102/65"	167
controllo_3	"POPTR_0018s09730.1"	390	"	"C/T"	"58,7/41,3"	"61/43"	104	stress_45	"POPTR_0018s09730.1"	390	"	"C/T"	"61,1/38,1"	"154/96"	252
controllo_3	"POPTR_0003s06370.1"	472	"	"G/T"	"58,7/41,3"	"351/247"	598	stress_12bis	"POPTR_0003s06370.1"	472	"	"G/T"	"81,0/19,0"	"34/8"	42
controllo_3	"POPTR_0003s12870.1"	414	"	"T/C"	"58,7/41,3"	"135/95"	230	stress_12bis	"POPTR_0003s12870.1"	414	"	"T/C"	"64,6/35,4"	"42/23"	65
controllo_3	"POPTR_0003s12870.1"	414	"	"T/C"	"58,7/41,3"	"135/95"	230	stress_42	"POPTR_0003s12870.1"	414	"	"C/T"	"64,7/35,3"	"33/18"	51
controllo_3	"POPTR_0003s12870.1"	414	"	"T/C"	"58,7/41,3"	"135/95"	230	stress_45	"POPTR_0003s12870.1"	414	"	"C/T"	"61,8/38,2"	"42/26"	68
controllo_3	"POPTR_0014s13430.1"	322	"	"A/T"	"58,7/41,3"	"81/57"	138	stress_12bis	"POPTR_0014s13430.1"	322	"	"A/T"	"64,5/35,5"	"20/11"	31
controllo_3	"POPTR_0014s13430.1"	322	"	"A/T"	"58,7/41,3"	"81/57"	138	stress_42	"POPTR_0014s13430.1"	322	"	"T/A"	"61,5/38,5"	"8/5"	13
controllo_3	"POPTR_0009s11650.1"	1425	"	"T/G"	"58,7/41,3"	"91/64"	155	stress_12bis	"POPTR_0009s11650.1"	1425	"	"T/G"	"66,7/33,3"	"10/5"	15
controllo_3	"POPTR_0009s01470.1"	576	"	"A/G"	"58,7/41,3"	"74/52"	126	stress_12bis	"POPTR_0009s01470.1"	576	"	"A/G"	"55,8/44,2"	"24/19"	43
controllo_3	"POPTR_0009s01470.1"	576	"	"A/G"	"58,7/41,3"	"74/52"	126	stress_42	"POPTR_0009s01470.1"	576	"	"G/A"	"53,8/46,2"	"7/6"	13
controllo_3	"POPTR_0009s01470.1"	576	"	"A/G"	"58,7/41,3"	"74/52"	126	stress_45	"POPTR_0009s01470.1"	576	"	"A/G"	"60,0/40,0"	"18/12"	30
controllo_3	"POPTR_0012s08330.1"	207	"	"A/G"	"58,7/41,3"	"230/162"	392	stress_12bis	"POPTR_0012s08330.1"	207	"	"A/G"	"52,7/47,3"	"69/62"	131
controllo_3	"POPTR_0012s08330.1"	207	"	"A/G"	"58,7/41,3"	"230/162"	392	stress_42	"POPTR_0012s08330.1"	207	"	"A/G"	"66,4/33,6"	"83/42"	125
controllo_3	"POPTR_0012s08330.1"	207	"	"A/G"	"58,7/41,3"	"230/162"	392	stress_45	"POPTR_0012s08330.1"	207	"	"A/G"	"59,5/40,5"	"69/47"	116
controllo_3	"POPTR_0015s04140.1"	1541	"	"A/C"	"58,7/41,3"	"81/57"	138	stress_12bis	"POPTR_0015s04140.1"	1541	"	"A/C"	"50,0/50,0"	"18/18"	36
controllo_3	"POPTR_0015s04140.1"	1541	"	"A/C"	"58,7/41,3"	"81/57"	138	stress_42	"POPTR_0015s04140.1"	1541	"	"A/C"	"50,0/50,0"	"28/28"	56
controllo_3	"POPTR_0015s04140.1"	1541	"	"A/C"	"58,7/41,3"	"81/57"	138	stress_45	"POPTR_0015s04140.1"	1541	"	"A/C"	"50,0/50,0"	"56/56"	112
controllo_3	"POPTR_0001s31700.1"	564	"	"C/T"	"58,7/41,3"	"232/163"	395	stress_12bis	"POPTR_0001s31700.1"	564	"	"C/T"	"56,2/43,8"	"73/57"	130
controllo_3	"POPTR_0001s31700.1"	564	"	"C/T"	"58,7/41,3"	"232/163"	395	stress_42	"POPTR_0001s31700.1"	564	"	"C/T"	"50,3/49,7"	"73/72"	145
controllo_3	"POPTR_0001s31700.1"	564	"	"C/T"	"58,7/41,3"	"232/163"	395	stress_45	"POPTR_0001s31700.1"	564	"	"C/T"	"61,2/38,8"	"145/92"	237
controllo_3	"POPTR_0010s05530.1"	987	"	"C/T"	"58,7/41,3"	"178/125"	303	stress_12bis	"POPTR_0010s05530.1"	987	"	"T/C"	"51,5/48,5"	"67/63"	130
controllo_3	"POPTR_0010s05530.1"	987	"	"C/T"	"58,7/41,3"	"178/125"	303	stress_42	"POPTR_0010s05530.1"	987	"	"C/T"	"50,0/50,0"	"13/13"	26
controllo_3	"POPTR_0010s05530.1"	987	"	"C/T"	"58,7/41,3"	"178/125"	303	stress_45	"POPTR_0010s05530.1"	987	"	"T/C"	"66,7/33,3"	"18/9"	27
controllo_3	"POPTR_0010s21100.1"	84	"	"T/C"	"58,7/41,3"	"74/52"	126	stress_12bis	"POPTR_0010s21100.1"	84	"	"C/T"	"64,2/35,8"	"34/19"	53
controllo_3	"POPTR_0010s21100.1"	84	"	"T/C"	"58,7/41,3"	"74/52"	126	stress_42	"POPTR_0010s21100.1"	84	"	"T/C"	"50,9/49,1"	"28/27"	55
controllo_3	"POPTR_0010s21100.1"	84	"	"T/C"	"58,7/41,3"	"74/52"	126	stress_45	"POPTR_0010s21100.1"	84	"	"T/C"	"50,8/49,2"	"33/32"	65
controllo_3	"POPTR_0010s05170.1"	564	"	"T/C"	"58,7/41,3"	"205/144"	349	stress_12bis	"POPTR_0010s05170.1"	564	"	"C/T"	"50,0/50,0"	"9/9"	18
controllo_3	"POPTR_0010s13740.1"	225	"	"C/G"	"58,7/41,3"	"84/59"	143	stress_12bis	"POPTR_0010s13740.1"	225	"	"C/G"	"63,6/36,4"	"21/12"	33
controllo_3	"POPTR_0002s08150.1"	369	"	"C/G"	"58,7/41,3"	"54/38"	92	stress_45	"POPTR_0002s08150.1"	369	"	"G/C"	"57,3/42,7"	"82/61"	143
controllo_3	"POPTR_0002s22560.1"	169	"	"T/A"	"58,7/41,3"	"545/383"	928	stress_12bis	"POPTR_0002s22560.1"	169	"	"T/A"	"56,9/42,9"	"195/147"	343
controllo_3	"POPTR_0002s22560.1"	169	"	"T/A"	"58,7/41,3"	"545/383"	928	stress_42	"POPTR_0002s22560.1"	169	"	"A/T"	"50,9/49,1"	"27/26"	53
controllo_3	"POPTR_0002s22560.1"	169	"	"T/A"	"58,7/41,3"	"545/383"	928	stress_45	"POPTR_0002s22560.1"	169	"	"A/T"	"55,6/44,4"	"79/63"	142
controllo_3	"POPTR_0008s17090.1"	119	"	"A/C"	"58,7/41,3"	"138/97"	235	stress_12bis	"POPTR_0008s17090.1"	119	"	"A/C"	"53,2/46,8"	"41/36"	77
controllo_3	"POPTR_0008s17090.1"	119	"	"A/C"	"58,7/41,3"	"138/97"	235	stress_42	"POPTR_0008s17090.1"	119	"	"A/C"	"66,7/33,3"	"14/7"	21
controllo_3	"POPTR_0008s17090.1"	119	"	"A/C"	"58,7/41,3"	"138/97"	235	stress_45	"POPTR_0008s17090.1"	119	"	"A/C"	"71,1/28,9"	"27/11"	38
controllo_3	"POPTR_0016s02570.1"	30	"	"T/C"	"58,7/41,3"	"88/62"	150	stress_12bis	"POPTR_0016s02570.1"	30	"	"C/T"	"55,6/44,4"	"10/8"	18
controllo_3	"POPTR_0016s02570.1"	30	"	"T/C"	"58,7/41,3"	"88/62"	150	stress_45	"POPTR_0016s02570.1"	30	"	"C/T"	"50,0/50,0"	"5/5"	10
controllo_3	"POPTR_0016s00410.1"	2244	"	"G/A"	"58,7/41,3"	"71/50"	121	stress_12bis	"POPTR_0016s00410.1"	2244	"	"G/A"	"60,0/40,0"	"15/10"	25
controllo_3	"POPTR_0014s00240.1"	65	"	"A/T"	"58,8/40,2"	"60/41"	102	stress_12bis	"POPTR_0014s00240.1"	65	"	"T/A"	"60,0/40,0"	"15/10"	25
controllo_3	"POPTR_0014s00240.1"	65	"	"A/T"	"58,8/40,2"	"60/41"	102	stress_42	"POPTR_0014s00240.1"	65	"	"T/A"	"63,6/36,4"	"7/4"	11
controllo_3	"POPTR_0014s00240.1"	65	"	"A/T"	"58,8/40,2"	"60/41"	102	stress_45	"POPTR_0014s00240.1"	65	"	"A/T"	"54,5/45,5"	"6/5"	11
controllo_3	"POPTR_0014s10260.1"	726	"	"G/A"	"58,8/40,7"	"107/74"	182	stress_12bis	"POPTR_0014s10260.1"	726	"	"A/G"	"52,6/47,4"	"20/18"	38
controllo_3	"POPTR_0014s10260.1"	726	"	"G/A"	"58,8/40,7"	"107/74"	182	stress_42	"POPTR_0014s10260.1"	726	"	"A/G"	"54,5/45,5"	"18/15"	33
controllo_3	"POPTR_0014s10260.1"	726	"	"G/A"	"58,8/40,7"	"107/74"	182	stress_45	"POPTR_0014s10260.1"	726	"	"A/G"	"58,5/41,5"	"24/17"	41
controllo_3	"POPTR_0005s15660.1"	343	"	"C/A"	"58,8/41,1"	"11221/7844"	19073	stress_12bis	"POPTR_0005s15660.1"	343	"	"C/A"	"58,4/41,6"	"2733/1945"	4679
controllo_3	"POPTR_0005s15660.1"	343	"	"C/A"	"58,8/41,1"	"11221/7844"	19073	stress_42	"POPTR_0005s15660.1"	343	"	"C/A"	"56,5/43,4"	"790/607"	1398
controllo_3	"POPTR_0005s15660.1"	343	"	"C/A"	"58,8/41,1"	"11221/7844"	19073	stress_45	"POPTR_0005s15660.1"	343	"	"C/A"	"50,2/49,8"	"574/569"	1143
controllo_3	"POPTR_0005s22660.1"	299	"	"T/C"	"58,8/41,2"	"10/7"	17	stress_42	"POPTR_0005s22660.1"	299	"	"C/T"	"66,4/33,6"	"79/40"	119
controllo_3	"POPTR_0005s06460.1"	182	"	"C/T"	"58,8/41,2"	"87/61"	148	stress_12bis	"POPTR_0005s06460.1"	182	"	"C/T"	"51,7/48,3"	"15/14"	29
controllo_3	"POPTR_0005s06460.1"	182	"	"C/T"	"58,8/41,2"	"87/61"	148	stress_42	"POPTR_0005s06460.1"	182	"	"C/T"	"71,0/29,0"	"22/9"	31
controllo_3	"POPTR_0005s06460.1"	182	"	"C/T"	"58,8/41,2"	"87/61"	148	stress_45	"POPTR_0005s06460.1"	182	"	"C/T"	"71,9/28,1"	"23/9"	32
controllo_3	"POPTR_0005s11710.1"	227	"	"C/G"	"58,8/41,2"	"70/49"	119	stress_12bis	"POPTR_0005s11710.1"	227	"	"C/G"	"65,9/34,1"	"27/14"	41
controllo_3	"POPTR_0005s11710.1"	227	"	"C/G"	"58,8/41,2"	"70/49"	119	stress_42	"POPTR_0005s11710.1"	227	"	"C/G"	"79,2/20,8"	"19/5"	24
controllo_3	"POPTR_0005s11710.1"	227	"	"C/G"	"58,8/41,2"	"70/49"	119	stress_45	"POPTR_0005s11710.1"	227	"	"C/G"	"57,1/42,9"	"20/15"	35
controllo_3	"POPTR_0006s06740.1"	825	"	"G/T"	"58,8/41,2"	"164/115"	279	stress_12bis	"POPTR_0006s06740.1"	825	"	"G/T"	"52,9/47,1"	"9/8"	17
controllo_3	"POPTR_0006s14180.1"	342	"	"C/T"	"58,8/41,2"	"77/54"	131	stress_12bis	"POPTR_0006s14180.1"	342	"	"C/T"	"61,3/38,7"	"19/12"	31
controllo_3	"POPTR_0006s14180.1"	342	"	"C/T"	"58,8/41,2"	"77/54"	131	stress_42	"POPTR_0006s14180.1"	342	"	"T/C"	"61,5/38,5"	"8/5"	13
controllo_3	"POPTR_0006s00470.1"	732	"	"C/A"	"58,8/41,2"	"67/47"	114	stress_12bis	"POPTR_0006s00470.1"	732	"	"C/A"	"63,0/37,0"	"17/10"	27
controllo_3	"POPTR_0006s00470.1"	732	"	"C/A"	"58,8/41,2"	"67/47"	114	stress_42	"POPTR_0006s00470.1"	732	"	"C/A"	"75,0/25,0"	"9/3"	12
controllo_3	"POPTR_0006s00470.1"	732	"	"C/A"	"58,8/41,2"	"67/47"	114	stress_45	"POPTR_0006s00470.1"	732	"	"C/A"	"59,1/40,9"	"13/9"	22
controllo_3	"POPTR_0006s00620.1"	2047	"	"T/C"	"58,8/41,2"	"67/47"	114	stress_12bis	"POPTR_0006s00620.1"	2047	"	"T/C"	"70,0/30,0"	"7/3"	10
controllo_3	"POPTR_0018s09030.1"	430	"	"G/A"	"58,8/41,2"	"60/42"	102	stress_12bis	"POPTR_0018s09030.1"	430	"	"G/A"	"80,0/20,0"	"36/9"	45
controllo_3	"POPTR_0018s09030.1"	430	"	"G/A"	"58,8/41,2"	"60/42"	102	stress_42	"POPTR_0018s09030.1"	430	"	"G/A"	"58,8/41,2"	"47/33"	80
controllo_3	"POPTR_0018s09030.1"	430	"	"G/A"	"58,8/41,2"	"60/42"	102	stress_45	"POPTR_0018s09030.1"	430	"	"A/G"	"53,2/46,8"	"33/29"	62
controllo_3	"POPTR_0014s14370.1"	593	"	"G/A"	"58,8/41,2"	"164/115"	279	stress_12bis	"POPTR_0014s14370.1"	593	"	"A/G"	"55,6/44,4"	"25/20"	45
controllo_3	"POPTR_0014s14370.1"	593	"	"G/A"	"58,8/41,2"	"164/115"	279	stress_42	"POPTR_0014s14370.1"	593	"	"A/G"	"56,5/43,5"	"13/10"	23
controllo_3	"POPTR_0014s14370.1"	593	"	"G/A"	"58,8/41,2"	"164/115"	279	stress_45	"POPTR_0014s14370.1"	593	"	"A/G"	"57,1/42,9"	"16/12"	28
controllo_3	"POPTR_0004s23490.1"	129	"	"C/T"	"58,8/41,2"	"87/61"	148	stress_12bis	"POPTR_0004s23490.1"	129	"	"C/T"	"55,1/44,9"	"27/22"	49
controllo_3	"POPTR_0004s23490.1"	129	"	"C/T"	"58,8/41,2"	"87/61"	148	stress_42	"POPTR_0004s23490.1"	129	"	"C/T"	"60,0/40,0"	"21/14"	35
controllo_3	"POPTR_0004s23490.1"	129	"	"C/T"	"58,8/41,2"	"87/61"	148	stress_45	"POPTR_0004s23490.1"	129	"	"C/T"	"54,4/45,6"	"43/36"	79
controllo_3	"POPTR_0004s09910.1"	348	"	"G/C"	"58,8/41,2"	"11195/7837"	19036	stress_12bis	"POPTR_0004s09910.1"	348	"	"G/C"	"62,4/37,6"	"2250/1355"	3606
controllo_3	"POPTR_0004s09910.1"	348	"	"G/C"	"58,8/41,2"	"11195/7837"	19036	stress_42	"POPTR_0004s09910.1"	348	"	"G/C"	"69,8/30,0"	"432/186"	619
controllo_3	"POPTR_0004s09910.1"	348	"	"G/C"	"58,8/41,2"	"11195/7837"	19036	stress_45	"POPTR_0004s09910.1"	348	"	"G/C"	"65,9/34,1"	"414/214"	628
controllo_3	"POPTR_0012s07270.1"	683	"	"C/T"	"58,8/41,2"	"127/89"	216	stress_12bis	"POPTR_0012s07270.1"	683	"	"T/C"	"57,5/42,5"	"46/34"	80
controllo_3	"POPTR_0012s07270.1"	683	"	"C/T"	"58,8/41,2"	"127/89"	216	stress_42	"POPTR_0012s07270.1"	683	"	"T/C"	"52,3/47,7"	"45/41"	86
controllo_3	"POPTR_0012s07270.1"	683	"	"C/T"	"58,8/41,2"	"127/89"	216	stress_45	"POPTR_0012s07270.1"	683	"	"C/T"	"56,7/43,3"	"59/45"	104
controllo_3	"POPTR_0001s47590.1"	27	"	"G/T"	"58,8/41,2"	"303/212"	515	stress_12bis	"POPTR_0001s47590.1"	27	"	"G/T"	"61,7/36,7"	"74/44"	120
controllo_3	"POPTR_0001s47590.1"	27	"	"G/T"	"58,8/41,2"	"303/212"	515	stress_42	"POPTR_0001s47590.1"	27	"	"G/T"	"52,9/47,1"	"27/24"	51
controllo_3	"POPTR_0001s47590.1"	27	"	"G/T"	"58,8/41,2"	"303/212"	515	stress_45	"POPTR_0001s47590.1"	27	"	"G/T"	"60,0/40,0"	"21/14"	35
controllo_3	"POPTR_0001s47020.1"	568	"	"T/C"	"58,8/41,2"	"104/73"	177	stress_12bis	"POPTR_0001s47020.1"	568	"	"C/T"	"53,6/46,4"	"30/26"	56
controllo_3	"POPTR_0001s47020.1"	568	"	"T/C"	"58,8/41,2"	"104/73"	177	stress_42	"POPTR_0001s47020.1"	568	"	"T/C"	"60,7/39,3"	"17/11"	28
controllo_3	"POPTR_0001s47020.1"	568	"	"T/C"	"58,8/41,2"	"104/73"	177	stress_45	"POPTR_0001s47020.1"	568	"	"T/C"	"53,3/46,7"	"48/42"	90
controllo_3	"POPTR_0001s25630.1"	406	"	"A/G"	"58,8/41,2"	"94/66"	160	stress_12bis	"POPTR_0001s25630.1"	406	"	"A/G"	"57,1/42,9"	"28/21"	49
controllo_3	"POPTR_0001s25630.1"	406	"	"A/G"	"58,8/41,2"	"94/66"	160	stress_45	"POPTR_0001s25630.1"	406	"	"G/A"	"71,4/28,6"	"10/4"	14
controllo_3	"POPTR_0010s21840.1"	429	"	"A/C"	"58,8/41,2"	"94/66"	160	stress_12bis	"POPTR_0010s21840.1"	429	"	"A/C"	"53,0/45,5"	"35/30"	66
controllo_3	"POPTR_0010s21840.1"	429	"	"A/C"	"58,8/41,2"	"94/66"	160	stress_42	"POPTR_0010s21840.1"	429	"	"C/A"	"52,5/47,5"	"21/19"	40
controllo_3	"POPTR_0010s21840.1"	429	"	"A/C"	"58,8/41,2"	"94/66"	160	stress_45	"POPTR_0010s21840.1"	429	"	"C/A"	"68,4/31,6"	"13/6"	19
controllo_3	"POPTR_0010s21270.1"	1785	"	"C/A"	"58,8/41,2"	"230/161"	391	stress_12bis	"POPTR_0010s21270.1"	1785	"	"C/A"	"66,0/34,0"	"103/53"	156
controllo_3	"POPTR_0010s21270.1"	1785	"	"C/A"	"58,8/41,2"	"230/161"	391	stress_42	"POPTR_0010s21270.1"	1785	"	"C/A"	"62,8/37,2"	"54/32"	86
controllo_3	"POPTR_0010s21270.1"	1785	"	"C/A"	"58,8/41,2"	"230/161"	391	stress_45	"POPTR_0010s21270.1"	1785	"	"C/A"	"60,2/39,8"	"115/76"	191
controllo_3	"POPTR_0010s13740.1"	145	"	"G/T"	"58,8/41,2"	"67/47"	114	stress_12bis	"POPTR_0010s13740.1"	145	"	"T/G"	"55,8/44,2"	"24/19"	43
controllo_3	"POPTR_0010s13740.1"	149	"	"A/G"	"58,8/41,2"	"67/47"	114	stress_12bis	"POPTR_0010s13740.1"	149	"	"G/A"	"59,5/40,5"	"25/17"	42
controllo_3	"POPTR_0007s14390.1"	1072	"	"T/G"	"58,8/41,2"	"120/84"	204	stress_12bis	"POPTR_0007s14390.1"	1072	"	"T/G"	"63,4/36,6"	"26/15"	41
controllo_3	"POPTR_0007s14390.1"	1072	"	"T/G"	"58,8/41,2"	"120/84"	204	stress_42	"POPTR_0007s14390.1"	1072	"	"T/G"	"57,1/42,9"	"16/12"	28
controllo_3	"POPTR_0007s14390.1"	1072	"	"T/G"	"58,8/41,2"	"120/84"	204	stress_45	"POPTR_0007s14390.1"	1072	"	"T/G"	"61,7/38,3"	"29/18"	47
controllo_3	"POPTR_0002s03130.1"	415	"	"A/G"	"58,8/41,2"	"94/66"	160	stress_12bis	"POPTR_0002s03130.1"	415	"	"A/G"	"61,5/38,5"	"32/20"	52
controllo_3	"POPTR_0002s03130.1"	415	"	"A/G"	"58,8/41,2"	"94/66"	160	stress_42	"POPTR_0002s03130.1"	415	"	"A/G"	"73,9/26,1"	"17/6"	23
controllo_3	"POPTR_0002s03130.1"	415	"	"A/G"	"58,8/41,2"	"94/66"	160	stress_45	"POPTR_0002s03130.1"	415	"	"A/G"	"50,0/50,0"	"12/12"	24
controllo_3	"POPTR_0002s03130.1"	488	"	"G/A"	"58,8/41,2"	"90/63"	153	stress_12bis	"POPTR_0002s03130.1"	488	"	"G/A"	"64,1/35,9"	"41/23"	64
controllo_3	"POPTR_0002s03130.1"	488	"	"G/A"	"58,8/41,2"	"90/63"	153	stress_42	"POPTR_0002s03130.1"	488	"	"G/A"	"61,1/38,9"	"11/7"	18
controllo_3	"POPTR_0002s03130.1"	488	"	"G/A"	"58,8/41,2"	"90/63"	153	stress_45	"POPTR_0002s03130.1"	488	"	"G/A"	"61,5/38,5"	"16/10"	26
controllo_3	"POPTR_0002s02310.1"	480	"	"C/G"	"58,8/41,2"	"77/54"	131	stress_12bis	"POPTR_0002s02310.1"	480	"	"G/C"	"60,5/39,5"	"26/17"	43
controllo_3	"POPTR_0002s02310.1"	480	"	"C/G"	"58,8/41,2"	"77/54"	131	stress_42	"POPTR_0002s02310.1"	480	"	"C/G"	"58,8/41,2"	"30/21"	51
controllo_3	"POPTR_0002s02310.1"	480	"	"C/G"	"58,8/41,2"	"77/54"	131	stress_45	"POPTR_0002s02310.1"	480	"	"G/C"	"59,5/40,5"	"22/15"	37
controllo_3	"POPTR_0008s14480.1"	202	"	"A/G"	"58,8/41,2"	"170/119"	289	stress_12bis	"POPTR_0008s14480.1"	202	"	"A/G"	"62,8/37,2"	"49/29"	78
controllo_3	"POPTR_0008s14480.1"	202	"	"A/G"	"58,8/41,2"	"170/119"	289	stress_42	"POPTR_0008s14480.1"	202	"	"A/G"	"74,2/25,8"	"23/8"	31
controllo_3	"POPTR_0008s14480.1"	202	"	"A/G"	"58,8/41,2"	"170/119"	289	stress_45	"POPTR_0008s14480.1"	202	"	"A/G"	"61,8/38,2"	"21/13"	34
controllo_3	"POPTR_0008s15100.1"	117	"	"C/T"	"58,8/41,2"	"734/514"	1248	stress_12bis	"POPTR_0008s15100.1"	117	"	"C/T"	"60,2/39,8"	"268/177"	445
controllo_3	"POPTR_0008s15100.1"	117	"	"C/T"	"58,8/41,2"	"734/514"	1248	stress_42	"POPTR_0008s15100.1"	117	"	"C/T"	"56,5/43,5"	"95/73"	168
controllo_3	"POPTR_0008s15100.1"	117	"	"C/T"	"58,8/41,2"	"734/514"	1248	stress_45	"POPTR_0008s15100.1"	117	"	"T/C"	"52,8/47,2"	"86/77"	163
controllo_3	"POPTR_0008s06720.1"	41	"	"G/C"	"58,8/41,2"	"961/674"	1635	stress_12bis	"POPTR_0008s06720.1"	41	"	"G/C"	"63,0/37,0"	"302/177"	479
controllo_3	"POPTR_0008s06720.1"	41	"	"G/C"	"58,8/41,2"	"961/674"	1635	stress_42	"POPTR_0008s06720.1"	41	"	"C/G"	"54,7/45,3"	"52/43"	95
controllo_3	"POPTR_0008s06720.1"	41	"	"G/C"	"58,8/41,2"	"961/674"	1635	stress_45	"POPTR_0008s06720.1"	41	"	"C/G"	"64,4/35,6"	"76/42"	118
controllo_3	"POPTR_0008s03900.1"	28	"	"C/T"	"58,8/41,2"	"77/54"	131	stress_12bis	"POPTR_0008s03900.1"	28	"	"C/T"	"58,3/41,7"	"21/15"	36
controllo_3	"POPTR_0008s03900.1"	28	"	"C/T"	"58,8/41,2"	"77/54"	131	stress_42	"POPTR_0008s03900.1"	28	"	"C/T"	"54,2/45,8"	"39/33"	72
controllo_3	"POPTR_0008s03900.1"	28	"	"C/T"	"58,8/41,2"	"77/54"	131	stress_45	"POPTR_0008s03900.1"	28	"	"C/T"	"68,9/31,1"	"31/14"	45
controllo_3	"POPTR_0016s08520.1"	90	"	"C/A"	"58,8/41,2"	"60/42"	102	stress_12bis	"POPTR_0016s08520.1"	90	"	"C/A"	"52,2/47,8"	"12/11"	23
controllo_3	"POPTR_0016s08520.1"	90	"	"C/A"	"58,8/41,2"	"60/42"	102	stress_42	"POPTR_0016s08520.1"	90	"	"C/A"	"58,8/41,2"	"20/14"	34
controllo_3	"POPTR_0016s08520.1"	90	"	"C/A"	"58,8/41,2"	"60/42"	102	stress_45	"POPTR_0016s08520.1"	90	"	"C/A"	"54,8/45,2"	"63/52"	115
controllo_3	"POPTR_0008s14480.1"	201	"	"C/T"	"58,9/40,1"	"172/117"	292	stress_12bis	"POPTR_0008s14480.1"	201	"	"C/T"	"62,0/36,7"	"49/29"	79
controllo_3	"POPTR_0008s14480.1"	201	"	"C/T"	"58,9/40,1"	"172/117"	292	stress_42	"POPTR_0008s14480.1"	201	"	"C/T"	"74,2/25,8"	"23/8"	31
controllo_3	"POPTR_0008s14480.1"	201	"	"C/T"	"58,9/40,1"	"172/117"	292	stress_45	"POPTR_0008s14480.1"	201	"	"C/T"	"64,7/35,3"	"22/12"	34
controllo_3	"POPTR_0013s08320.1"	140	"	"G/A"	"58,9/40,2"	"66/45"	112	stress_12bis	"POPTR_0013s08320.1"	140	"	"G/A"	"75,0/25,0"	"48/16"	64
controllo_3	"POPTR_0013s08320.1"	140	"	"G/A"	"58,9/40,2"	"66/45"	112	stress_45	"POPTR_0013s08320.1"	140	"	"G/A"	"51,9/48,1"	"14/13"	27
controllo_3	"POPTR_0010s05530.1"	1350	"	"G/A"	"58,9/40,7"	"356/246"	604	stress_12bis	"POPTR_0010s05530.1"	1350	"	"G/A"	"52,5/47,5"	"117/106"	223
controllo_3	"POPTR_0010s05530.1"	1350	"	"G/A"	"58,9/40,7"	"356/246"	604	stress_42	"POPTR_0010s05530.1"	1350	"	"A/G"	"58,5/41,5"	"31/22"	53
controllo_3	"POPTR_0010s05530.1"	1350	"	"G/A"	"58,9/40,7"	"356/246"	604	stress_45	"POPTR_0010s05530.1"	1350	"	"A/G"	"50,0/50,0"	"24/24"	48
controllo_3	"POPTR_0005s00390.1"	71	"	"G/A"	"58,9/41,1"	"33/23"	56	stress_42	"POPTR_0005s00390.1"	71	"	"A/G"	"73,6/26,4"	"106/38"	144
controllo_3	"POPTR_0005s19400.1"	45	"	"T/C"	"58,9/41,1"	"89/62"	151	stress_12bis	"POPTR_0005s19400.1"	45	"	"C/T"	"50,0/50,0"	"26/26"	52
controllo_3	"POPTR_0005s19400.1"	45	"	"T/C"	"58,9/41,1"	"89/62"	151	stress_42	"POPTR_0005s19400.1"	45	"	"C/T"	"63,6/36,4"	"28/16"	44
controllo_3	"POPTR_0005s19400.1"	45	"	"T/C"	"58,9/41,1"	"89/62"	151	stress_45	"POPTR_0005s19400.1"	45	"	"C/T"	"54,5/45,5"	"18/15"	33
controllo_3	"POPTR_0018s03110.1"	159	"	"A/G"	"58,9/41,1"	"73/51"	124	stress_12bis	"POPTR_0018s03110.1"	159	"	"G/A"	"58,8/41,2"	"30/21"	51
controllo_3	"POPTR_0018s03110.1"	159	"	"A/G"	"58,9/41,1"	"73/51"	124	stress_45	"POPTR_0018s03110.1"	159	"	"A/G"	"55,6/44,4"	"15/12"	27
controllo_3	"POPTR_0018s08790.1"	312	"	"A/T"	"58,9/41,1"	"63/44"	107	stress_12bis	"POPTR_0018s08790.1"	312	"	"A/T"	"59,5/40,5"	"25/17"	42
controllo_3	"POPTR_0018s08790.1"	312	"	"A/T"	"58,9/41,1"	"63/44"	107	stress_42	"POPTR_0018s08790.1"	312	"	"A/T"	"51,6/48,4"	"16/15"	31
controllo_3	"POPTR_0018s08790.1"	312	"	"A/T"	"58,9/41,1"	"63/44"	107	stress_45	"POPTR_0018s08790.1"	312	"	"T/A"	"54,5/45,5"	"24/20"	44
controllo_3	"POPTR_0003s01090.1"	352	"	"G/A"	"58,9/41,1"	"235/164"	399	stress_12bis	"POPTR_0003s01090.1"	352	"	"G/A"	"54,9/45,1"	"89/73"	162
controllo_3	"POPTR_0003s01090.1"	352	"	"G/A"	"58,9/41,1"	"235/164"	399	stress_42	"POPTR_0003s01090.1"	352	"	"G/A"	"57,5/42,5"	"84/62"	146
controllo_3	"POPTR_0003s01090.1"	352	"	"G/A"	"58,9/41,1"	"235/164"	399	stress_45	"POPTR_0003s01090.1"	352	"	"G/A"	"54,5/45,5"	"73/61"	134
controllo_3	"POPTR_0013s13910.1"	498	"	"G/A"	"58,9/41,1"	"73/51"	124	stress_12bis	"POPTR_0013s13910.1"	498	"	"G/A"	"68,4/31,6"	"26/12"	38
controllo_3	"POPTR_0013s13910.1"	498	"	"G/A"	"58,9/41,1"	"73/51"	124	stress_42	"POPTR_0013s13910.1"	498	"	"G/A"	"64,3/35,7"	"9/5"	14
controllo_3	"POPTR_0013s13910.1"	498	"	"G/A"	"58,9/41,1"	"73/51"	124	stress_45	"POPTR_0013s13910.1"	498	"	"G/A"	"66,7/33,3"	"14/7"	21
controllo_3	"POPTR_0013s07440.1"	915	"	"T/G"	"58,9/41,1"	"66/46"	112	stress_12bis	"POPTR_0013s07440.1"	915	"	"T/G"	"62,2/37,8"	"28/17"	45
controllo_3	"POPTR_0013s07440.1"	915	"	"T/G"	"58,9/41,1"	"66/46"	112	stress_42	"POPTR_0013s07440.1"	915	"	"T/G"	"63,3/36,7"	"19/11"	30
controllo_3	"POPTR_0013s07440.1"	915	"	"T/G"	"58,9/41,1"	"66/46"	112	stress_45	"POPTR_0013s07440.1"	915	"	"T/G"	"51,3/48,7"	"20/19"	39
controllo_3	"POPTR_0014s02410.1"	53	"	"T/A"	"58,9/41,1"	"388/271"	659	stress_12bis	"POPTR_0014s02410.1"	53	"	"T/A"	"63,3/36,7"	"57/33"	90
controllo_3	"POPTR_0014s02410.1"	53	"	"T/A"	"58,9/41,1"	"388/271"	659	stress_42	"POPTR_0014s02410.1"	53	"	"T/A"	"57,1/42,9"	"48/36"	84
controllo_3	"POPTR_0014s02410.1"	53	"	"T/A"	"58,9/41,1"	"388/271"	659	stress_45	"POPTR_0014s02410.1"	53	"	"T/A"	"54,6/45,4"	"106/88"	194
controllo_3	"POPTR_0004s23490.1"	441	"	"A/G"	"58,9/41,1"	"109/76"	185	stress_12bis	"POPTR_0004s23490.1"	441	"	"A/G"	"59,6/40,4"	"28/19"	47
controllo_3	"POPTR_0004s23490.1"	441	"	"A/G"	"58,9/41,1"	"109/76"	185	stress_42	"POPTR_0004s23490.1"	441	"	"A/G"	"51,9/48,1"	"14/13"	27
controllo_3	"POPTR_0004s23490.1"	441	"	"A/G"	"58,9/41,1"	"109/76"	185	stress_45	"POPTR_0004s23490.1"	441	"	"A/G"	"58,3/41,7"	"42/30"	72
controllo_3	"POPTR_0009s06530.1"	1281	"	"T/C"	"58,9/41,1"	"83/58"	141	stress_12bis	"POPTR_0009s06530.1"	1281	"	"T/C"	"68,0/30,0"	"34/15"	50
controllo_3	"POPTR_0009s06530.1"	1281	"	"T/C"	"58,9/41,1"	"83/58"	141	stress_42	"POPTR_0009s06530.1"	1281	"	"C/T"	"61,5/38,5"	"8/5"	13
controllo_3	"POPTR_0009s06530.1"	1281	"	"T/C"	"58,9/41,1"	"83/58"	141	stress_45	"POPTR_0009s06530.1"	1281	"	"C/T"	"63,6/36,4"	"21/12"	33
controllo_3	"POPTR_0011s09370.1"	3715	"	"A/T"	"58,9/41,1"	"63/44"	107	stress_12bis	"POPTR_0011s09370.1"	3715	"	"A/T"	"81,5/18,5"	"22/5"	27
controllo_3	"POPTR_0011s09370.1"	3715	"	"A/T"	"58,9/41,1"	"63/44"	107	stress_42	"POPTR_0011s09370.1"	3715	"	"A/T"	"63,6/36,4"	"7/4"	11
controllo_3	"POPTR_0011s09370.1"	3715	"	"A/T"	"58,9/41,1"	"63/44"	107	stress_45	"POPTR_0011s09370.1"	3715	"	"A/T"	"80,0/20,0"	"24/6"	30
controllo_3	"POPTR_0011s02770.1"	510	"	"C/T"	"58,9/41,1"	"423/295"	718	stress_12bis	"POPTR_0011s02770.1"	510	"	"T/C"	"77,4/21,9"	"106/30"	137
controllo_3	"POPTR_0011s02770.1"	510	"	"C/T"	"58,9/41,1"	"423/295"	718	stress_42	"POPTR_0011s02770.1"	510	"	"T/C"	"66,7/33,3"	"36/18"	54
controllo_3	"POPTR_0011s02770.1"	510	"	"C/T"	"58,9/41,1"	"423/295"	718	stress_45	"POPTR_0011s02770.1"	510	"	"T/C"	"71,2/28,8"	"52/21"	73
controllo_3	"POPTR_0001s28970.1"	61	"	"T/C"	"58,9/41,1"	"226/158"	384	stress_12bis	"POPTR_0001s28970.1"	61	"	"T/C"	"56,3/42,5"	"49/37"	87
controllo_3	"POPTR_0001s28970.1"	61	"	"T/C"	"58,9/41,1"	"226/158"	384	stress_42	"POPTR_0001s28970.1"	61	"	"C/T"	"53,9/46,1"	"41/35"	76
controllo_3	"POPTR_0001s28970.1"	61	"	"T/C"	"58,9/41,1"	"226/158"	384	stress_45	"POPTR_0001s28970.1"	61	"	"T/C"	"52,7/47,3"	"78/70"	148
controllo_3	"POPTR_0010s14080.1"	831	"	"G/A"	"58,9/41,1"	"155/108"	263	stress_12bis	"POPTR_0010s14080.1"	831	"	"G/A"	"57,3/42,7"	"55/41"	96
controllo_3	"POPTR_0010s14080.1"	831	"	"G/A"	"58,9/41,1"	"155/108"	263	stress_42	"POPTR_0010s14080.1"	831	"	"G/A"	"81,2/18,8"	"13/3"	16
controllo_3	"POPTR_0010s14080.1"	831	"	"G/A"	"58,9/41,1"	"155/108"	263	stress_45	"POPTR_0010s14080.1"	831	"	"G/A"	"70,0/30,0"	"35/15"	50
controllo_3	"POPTR_0010s05170.1"	633	"	"C/G"	"58,9/41,1"	"228/159"	387	stress_12bis	"POPTR_0010s05170.1"	633	"	"C/G"	"71,4/28,6"	"20/8"	28
controllo_3	"POPTR_0002s05910.1"	141	"	"G/A"	"58,9/41,1"	"73/51"	124	stress_12bis	"POPTR_0002s05910.1"	141	"	"G/A"	"60,6/39,4"	"20/13"	33
controllo_3	"POPTR_0002s05910.1"	141	"	"G/A"	"58,9/41,1"	"73/51"	124	stress_42	"POPTR_0002s05910.1"	141	"	"A/G"	"69,2/30,8"	"9/4"	13
controllo_3	"POPTR_0002s05910.1"	141	"	"G/A"	"58,9/41,1"	"73/51"	124	stress_45	"POPTR_0002s05910.1"	141	"	"A/G"	"60,0/40,0"	"6/4"	10
controllo_3	"POPTR_0016s10710.1"	792	"	"T/A"	"58,9/41,1"	"73/51"	124	stress_12bis	"POPTR_0016s10710.1"	792	"	"T/A"	"73,1/26,9"	"19/7"	26
controllo_3	"POPTR_0016s10710.1"	792	"	"T/A"	"58,9/41,1"	"73/51"	124	stress_45	"POPTR_0016s10710.1"	792	"	"T/A"	"60,0/40,0"	"6/4"	10
controllo_3	"POPTR_0016s08580.1"	615	"	"T/G"	"58,9/41,1"	"258/180"	438	stress_12bis	"POPTR_0016s08580.1"	615	"	"T/G"	"57,7/42,3"	"60/44"	104
controllo_3	"POPTR_0016s08580.1"	615	"	"T/G"	"58,9/41,1"	"258/180"	438	stress_42	"POPTR_0016s08580.1"	615	"	"T/G"	"58,1/41,9"	"50/36"	86
controllo_3	"POPTR_0016s08580.1"	615	"	"T/G"	"58,9/41,1"	"258/180"	438	stress_45	"POPTR_0016s08580.1"	615	"	"T/G"	"59,2/40,8"	"74/51"	125
controllo_3	"POPTR_0016s02440.1"	393	"	"T/C"	"58,9/41,1"	"66/46"	112	stress_12bis	"POPTR_0016s02440.1"	393	"	"T/C"	"60,0/40,0"	"15/10"	25
controllo_3	"POPTR_0016s02440.1"	393	"	"T/C"	"58,9/41,1"	"66/46"	112	stress_42	"POPTR_0016s02440.1"	393	"	"T/C"	"53,3/46,7"	"8/7"	15
controllo_3	"POPTR_0016s02440.1"	393	"	"T/C"	"58,9/41,1"	"66/46"	112	stress_45	"POPTR_0016s02440.1"	393	"	"T/C"	"54,2/45,8"	"13/11"	24
controllo_3	"POPTR_0001s14280.1"	629	"	"T/A"	"59,0/39,7"	"46/31"	78	stress_42	"POPTR_0001s14280.1"	629	"	"T/A"	"50,4/48,0"	"64/61"	127
controllo_3	"POPTR_0001s14280.1"	629	"	"T/A"	"59,0/39,7"	"46/31"	78	stress_45	"POPTR_0001s14280.1"	629	"	"A/T"	"57,9/40,9"	"92/65"	159
controllo_3	"POPTR_0008s17390.1"	987	"	"T/A"	"59,0/40,0"	"62/42"	105	stress_12bis	"POPTR_0008s17390.1"	987	"	"T/A"	"68,8/31,2"	"11/5"	16
controllo_3	"POPTR_0002s08010.1"	480	"	"T/C"	"59,0/40,3"	"82/56"	139	stress_12bis	"POPTR_0002s08010.1"	480	"	"T/C"	"68,0/32,0"	"17/8"	25
controllo_3	"POPTR_0002s08010.1"	480	"	"T/C"	"59,0/40,3"	"82/56"	139	stress_45	"POPTR_0002s08010.1"	480	"	"C/T"	"55,6/44,4"	"10/8"	18
controllo_3	"POPTR_0005s26070.2"	140	"	"T/C"	"59,0/41,0"	"2160/1504"	3664	stress_12bis	"POPTR_0005s26070.2"	140	"	"T/C"	"60,8/39,2"	"741/477"	1218
controllo_3	"POPTR_0005s26070.2"	140	"	"T/C"	"59,0/41,0"	"2160/1504"	3664	stress_42	"POPTR_0005s26070.2"	140	"	"T/C"	"54,3/45,7"	"152/128"	280
controllo_3	"POPTR_0005s26070.2"	140	"	"T/C"	"59,0/41,0"	"2160/1504"	3664	stress_45	"POPTR_0005s26070.2"	140	"	"T/C"	"58,4/41,5"	"321/228"	550
controllo_3	"POPTR_0005s05450.1"	585	"	"T/A"	"59,0/41,0"	"69/48"	117	stress_12bis	"POPTR_0005s05450.1"	585	"	"T/A"	"78,6/21,4"	"22/6"	28
controllo_3	"POPTR_0005s05450.1"	585	"	"T/A"	"59,0/41,0"	"69/48"	117	stress_42	"POPTR_0005s05450.1"	585	"	"A/T"	"66,7/33,3"	"8/4"	12
controllo_3	"POPTR_0005s05450.1"	585	"	"T/A"	"59,0/41,0"	"69/48"	117	stress_45	"POPTR_0005s05450.1"	585	"	"T/A"	"60,0/40,0"	"9/6"	15
controllo_3	"POPTR_0006s18760.1"	171	"	"G/A"	"59,0/41,0"	"79/55"	134	stress_12bis	"POPTR_0006s18760.1"	171	"	"G/A"	"52,2/47,8"	"12/11"	23
controllo_3	"POPTR_0006s16370.1"	441	"	"T/C"	"59,0/41,0"	"62/43"	105	stress_12bis	"POPTR_0006s16370.1"	441	"	"T/C"	"73,2/26,8"	"30/11"	41
controllo_3	"POPTR_0006s16370.1"	441	"	"T/C"	"59,0/41,0"	"62/43"	105	stress_42	"POPTR_0006s16370.1"	441	"	"C/T"	"50,0/50,0"	"5/5"	10
controllo_3	"POPTR_0006s16370.1"	441	"	"T/C"	"59,0/41,0"	"62/43"	105	stress_45	"POPTR_0006s16370.1"	441	"	"T/C"	"61,5/38,5"	"8/5"	13
controllo_3	"POPTR_0006s23770.1"	205	"	"T/A"	"59,0/41,0"	"125/87"	212	stress_12bis	"POPTR_0006s23770.1"	205	"	"T/A"	"55,1/44,9"	"38/31"	69
controllo_3	"POPTR_0006s23770.1"	205	"	"T/A"	"59,0/41,0"	"125/87"	212	stress_42	"POPTR_0006s23770.1"	205	"	"A/T"	"62,5/37,5"	"10/6"	16
controllo_3	"POPTR_0006s23770.1"	205	"	"T/A"	"59,0/41,0"	"125/87"	212	stress_45	"POPTR_0006s23770.1"	205	"	"A/T"	"60,0/40,0"	"15/10"	25
controllo_3	"POPTR_0006s29130.1"	165	"	"C/T"	"59,0/41,0"	"62/43"	105	stress_12bis	"POPTR_0006s29130.1"	165	"	"C/T"	"62,1/37,9"	"18/11"	29
controllo_3	"POPTR_0006s29130.1"	165	"	"C/T"	"59,0/41,0"	"62/43"	105	stress_45	"POPTR_0006s29130.1"	165	"	"T/C"	"66,7/33,3"	"8/4"	12
controllo_3	"POPTR_0019s08090.1"	311	"	"T/G"	"59,0/41,0"	"62/43"	105	stress_12bis	"POPTR_0019s08090.1"	311	"	"T/G"	"61,7/38,3"	"29/18"	47
controllo_3	"POPTR_0019s08090.1"	311	"	"T/G"	"59,0/41,0"	"62/43"	105	stress_42	"POPTR_0019s08090.1"	311	"	"G/T"	"62,2/37,8"	"23/14"	37
controllo_3	"POPTR_0019s08090.1"	311	"	"T/G"	"59,0/41,0"	"62/43"	105	stress_45	"POPTR_0019s08090.1"	311	"	"G/T"	"63,4/36,6"	"26/15"	41
controllo_3	"POPTR_0013s12130.1"	430	"	"G/A"	"59,0/41,0"	"79/55"	134	stress_12bis	"POPTR_0013s12130.1"	430	"	"G/A"	"52,0/48,0"	"13/12"	25
controllo_3	"POPTR_0013s12130.1"	430	"	"G/A"	"59,0/41,0"	"79/55"	134	stress_45	"POPTR_0013s12130.1"	430	"	"A/G"	"70,0/30,0"	"7/3"	10
controllo_3	"POPTR_0013s07150.1"	2802	"	"T/G"	"59,0/41,0"	"128/89"	217	stress_12bis	"POPTR_0013s07150.1"	2802	"	"G/T"	"51,8/48,2"	"29/27"	56
controllo_3	"POPTR_0013s07150.1"	2802	"	"T/G"	"59,0/41,0"	"128/89"	217	stress_42	"POPTR_0013s07150.1"	2802	"	"T/G"	"53,8/46,2"	"21/18"	39
controllo_3	"POPTR_0013s07150.1"	2802	"	"T/G"	"59,0/41,0"	"128/89"	217	stress_45	"POPTR_0013s07150.1"	2802	"	"T/G"	"57,9/42,1"	"22/16"	38
controllo_3	"POPTR_0004s16920.1"	1017	"	"C/T"	"59,0/41,0"	"3842/2666"	6510	stress_12bis	"POPTR_0004s16920.1"	1017	"	"C/T"	"57,4/42,5"	"1061/786"	1849
controllo_3	"POPTR_0004s16920.1"	1017	"	"C/T"	"59,0/41,0"	"3842/2666"	6510	stress_42	"POPTR_0004s16920.1"	1017	"	"T/C"	"55,8/44,2"	"126/100"	226
controllo_3	"POPTR_0004s16920.1"	1017	"	"C/T"	"59,0/41,0"	"3842/2666"	6510	stress_45	"POPTR_0004s16920.1"	1017	"	"T/C"	"56,8/43,2"	"166/126"	292
controllo_3	"POPTR_0004s23490.1"	301	"	"G/T"	"59,0/41,0"	"92/64"	156	stress_12bis	"POPTR_0004s23490.1"	301	"	"G/T"	"64,0/36,0"	"32/18"	50
controllo_3	"POPTR_0004s23490.1"	301	"	"G/T"	"59,0/41,0"	"92/64"	156	stress_42	"POPTR_0004s23490.1"	301	"	"G/T"	"56,7/43,3"	"17/13"	30
controllo_3	"POPTR_0004s23490.1"	301	"	"G/T"	"59,0/41,0"	"92/64"	156	stress_45	"POPTR_0004s23490.1"	301	"	"T/G"	"57,1/42,9"	"36/27"	63
controllo_3	"POPTR_0012s07040.1"	161	"	"C/A"	"59,0/41,0"	"183/127"	310	stress_12bis	"POPTR_0012s07040.1"	161	"	"A/C"	"57,3/42,7"	"51/38"	89
controllo_3	"POPTR_0012s07040.1"	161	"	"C/A"	"59,0/41,0"	"183/127"	310	stress_42	"POPTR_0012s07040.1"	161	"	"A/C"	"66,7/33,3"	"14/7"	21
controllo_3	"POPTR_0012s07040.1"	161	"	"C/A"	"59,0/41,0"	"183/127"	310	stress_45	"POPTR_0012s07040.1"	161	"	"C/A"	"53,3/46,7"	"16/14"	30
controllo_3	"POPTR_0012s04220.1"	274	"	"G/T"	"59,0/41,0"	"82/57"	139	stress_12bis	"POPTR_0012s04220.1"	274	"	"G/T"	"61,1/33,3"	"11/6"	18
controllo_3	"POPTR_0012s04220.1"	274	"	"G/T"	"59,0/41,0"	"82/57"	139	stress_45	"POPTR_0012s04220.1"	274	"	"G/T"	"60,0/33,3"	"9/5"	15
controllo_3	"POPTR_0011s12680.1"	171	"	"G/A"	"59,0/41,0"	"220/153"	373	stress_12bis	"POPTR_0011s12680.1"	171	"	"G/A"	"66,3/33,7"	"57/29"	86
controllo_3	"POPTR_0011s12680.1"	171	"	"G/A"	"59,0/41,0"	"220/153"	373	stress_42	"POPTR_0011s12680.1"	171	"	"G/A"	"55,3/44,7"	"26/21"	47
controllo_3	"POPTR_0011s12680.1"	171	"	"G/A"	"59,0/41,0"	"220/153"	373	stress_45	"POPTR_0011s12680.1"	171	"	"G/A"	"73,8/26,2"	"48/17"	65
controllo_3	"POPTR_0015s14510.1"	87	"	"C/T"	"59,0/41,0"	"62/43"	105	stress_12bis	"POPTR_0015s14510.1"	87	"	"C/T"	"72,7/27,3"	"32/12"	44
controllo_3	"POPTR_0015s14510.1"	87	"	"C/T"	"59,0/41,0"	"62/43"	105	stress_42	"POPTR_0015s14510.1"	87	"	"T/C"	"58,6/41,4"	"34/24"	58
controllo_3	"POPTR_0015s14510.1"	87	"	"C/T"	"59,0/41,0"	"62/43"	105	stress_45	"POPTR_0015s14510.1"	87	"	"C/T"	"52,9/47,1"	"54/48"	102
controllo_3	"POPTR_0015s10920.1"	1185	"	"C/G"	"59,0/41,0"	"79/55"	134	stress_12bis	"POPTR_0015s10920.1"	1185	"	"C/G"	"60,0/40,0"	"36/24"	60
controllo_3	"POPTR_0015s10920.1"	1185	"	"C/G"	"59,0/41,0"	"79/55"	134	stress_42	"POPTR_0015s10920.1"	1185	"	"C/G"	"75,0/25,0"	"12/4"	16
controllo_3	"POPTR_0015s10920.1"	1185	"	"C/G"	"59,0/41,0"	"79/55"	134	stress_45	"POPTR_0015s10920.1"	1185	"	"C/G"	"69,8/30,2"	"30/13"	43
controllo_3	"POPTR_0001s02500.1"	360	"	"T/A"	"59,0/41,0"	"105/73"	178	stress_12bis	"POPTR_0001s02500.1"	360	"	"A/T"	"76,2/23,8"	"16/5"	21
controllo_3	"POPTR_0001s11600.1"	48	"	"T/C"	"59,0/41,0"	"388/270"	658	stress_12bis	"POPTR_0001s11600.1"	48	"	"C/T"	"51,0/49,0"	"104/100"	204
controllo_3	"POPTR_0001s11600.1"	48	"	"T/C"	"59,0/41,0"	"388/270"	658	stress_42	"POPTR_0001s11600.1"	48	"	"C/T"	"51,2/48,8"	"22/21"	43
controllo_3	"POPTR_0001s11600.1"	48	"	"T/C"	"59,0/41,0"	"388/270"	658	stress_45	"POPTR_0001s11600.1"	48	"	"C/T"	"62,5/37,5"	"30/18"	48
controllo_3	"POPTR_0001s47210.1"	564	"	"T/C"	"59,0/41,0"	"207/144"	351	stress_12bis	"POPTR_0001s47210.1"	564	"	"T/C"	"67,3/32,7"	"33/16"	49
controllo_3	"POPTR_0001s36560.1"	511	"	"G/A"	"59,0/41,0"	"349/243"	592	stress_12bis	"POPTR_0001s36560.1"	511	"	"G/A"	"59,9/40,1"	"103/69"	172
controllo_3	"POPTR_0001s36560.1"	511	"	"G/A"	"59,0/41,0"	"349/243"	592	stress_42	"POPTR_0001s36560.1"	511	"	"G/A"	"55,0/45,0"	"11/9"	20
controllo_3	"POPTR_0001s36560.1"	511	"	"G/A"	"59,0/41,0"	"349/243"	592	stress_45	"POPTR_0001s36560.1"	511	"	"G/A"	"56,9/43,1"	"33/25"	58
controllo_3	"POPTR_0001s44690.1"	273	"	"C/T"	"59,0/41,0"	"95/66"	161	stress_12bis	"POPTR_0001s44690.1"	273	"	"C/T"	"62,5/37,5"	"25/15"	40
controllo_3	"POPTR_0001s44690.1"	273	"	"C/T"	"59,0/41,0"	"95/66"	161	stress_42	"POPTR_0001s44690.1"	273	"	"C/T"	"66,7/33,3"	"22/11"	33
controllo_3	"POPTR_0001s44690.1"	273	"	"C/T"	"59,0/41,0"	"95/66"	161	stress_45	"POPTR_0001s44690.1"	273	"	"C/T"	"59,0/41,0"	"23/16"	39
controllo_3	"POPTR_0001s42970.1"	150	"	"T/C"	"59,0/41,0"	"896/622"	1518	stress_12bis	"POPTR_0001s42970.1"	150	"	"T/C"	"66,9/33,1"	"400/198"	598
controllo_3	"POPTR_0001s42970.1"	150	"	"T/C"	"59,0/41,0"	"896/622"	1518	stress_42	"POPTR_0001s42970.1"	150	"	"T/C"	"69,6/30,4"	"87/38"	125
controllo_3	"POPTR_0001s42970.1"	150	"	"T/C"	"59,0/41,0"	"896/622"	1518	stress_45	"POPTR_0001s42970.1"	150	"	"T/C"	"60,5/39,5"	"46/30"	76
controllo_3	"POPTR_0001s33910.1"	303	"	"A/G"	"59,0/41,0"	"148/103"	251	stress_12bis	"POPTR_0001s33910.1"	303	"	"A/G"	"61,2/38,8"	"41/26"	67
controllo_3	"POPTR_0001s33910.1"	303	"	"A/G"	"59,0/41,0"	"148/103"	251	stress_42	"POPTR_0001s33910.1"	303	"	"A/G"	"57,7/42,3"	"15/11"	26
controllo_3	"POPTR_0001s33910.1"	303	"	"A/G"	"59,0/41,0"	"148/103"	251	stress_45	"POPTR_0001s33910.1"	303	"	"A/G"	"59,3/40,7"	"16/11"	27
controllo_3	"POPTR_0010s08880.1"	729	"	"G/A"	"59,0/41,0"	"79/55"	134	stress_42	"POPTR_0010s08880.1"	729	"	"G/A"	"81,4/18,6"	"35/8"	43
controllo_3	"POPTR_0010s08880.1"	729	"	"G/A"	"59,0/41,0"	"79/55"	134	stress_45	"POPTR_0010s08880.1"	729	"	"G/A"	"78,6/21,4"	"33/9"	42
controllo_3	"POPTR_0010s22950.1"	189	"	"G/A"	"59,0/41,0"	"111/77"	188	stress_12bis	"POPTR_0010s22950.1"	189	"	"G/A"	"60,0/40,0"	"9/6"	15
controllo_3	"POPTR_0010s22950.1"	189	"	"G/A"	"59,0/41,0"	"111/77"	188	stress_42	"POPTR_0010s22950.1"	189	"	"G/A"	"60,7/39,3"	"182/118"	300
controllo_3	"POPTR_0010s22950.1"	189	"	"G/A"	"59,0/41,0"	"111/77"	188	stress_45	"POPTR_0010s22950.1"	189	"	"G/A"	"60,4/39,6"	"279/183"	462
controllo_3	"POPTR_0010s21700.1"	390	"	"T/A"	"59,0/41,0"	"144/100"	244	stress_42	"POPTR_0010s21700.1"	390	"	"T/A"	"57,5/42,5"	"23/17"	40
controllo_3	"POPTR_0010s21700.1"	390	"	"T/A"	"59,0/41,0"	"144/100"	244	stress_45	"POPTR_0010s21700.1"	390	"	"A/T"	"53,3/46,7"	"16/14"	30
controllo_3	"POPTR_0007s13110.1"	498	"	"C/T"	"59,0/41,0"	"268/186"	454	stress_12bis	"POPTR_0007s13110.1"	498	"	"T/C"	"56,2/43,8"	"41/32"	73
controllo_3	"POPTR_0007s13110.1"	498	"	"C/T"	"59,0/41,0"	"268/186"	454	stress_42	"POPTR_0007s13110.1"	498	"	"C/T"	"58,1/41,9"	"68/49"	117
controllo_3	"POPTR_0007s13110.1"	498	"	"C/T"	"59,0/41,0"	"268/186"	454	stress_45	"POPTR_0007s13110.1"	498	"	"C/T"	"61,0/39,0"	"83/53"	136
controllo_3	"POPTR_0008s14480.1"	40	"	"C/T"	"59,0/41,0"	"141/98"	239	stress_12bis	"POPTR_0008s14480.1"	40	"	"C/T"	"66,7/33,3"	"28/14"	42
controllo_3	"POPTR_0008s14480.1"	40	"	"C/T"	"59,0/41,0"	"141/98"	239	stress_42	"POPTR_0008s14480.1"	40	"	"C/T"	"65,0/35,0"	"13/7"	20
controllo_3	"POPTR_0008s14480.1"	40	"	"C/T"	"59,0/41,0"	"141/98"	239	stress_45	"POPTR_0008s14480.1"	40	"	"C/T"	"55,0/45,0"	"11/9"	20
controllo_3	"POPTR_0014s13430.1"	824	"	"T/A"	"59,1/39,6"	"97/65"	164	stress_12bis	"POPTR_0014s13430.1"	824	"	"T/A"	"71,1/28,9"	"27/11"	38
controllo_3	"POPTR_0014s13430.1"	824	"	"T/A"	"59,1/39,6"	"97/65"	164	stress_42	"POPTR_0014s13430.1"	824	"	"A/T"	"61,5/38,5"	"8/5"	13
controllo_3	"POPTR_0014s13430.1"	824	"	"T/A"	"59,1/39,6"	"97/65"	164	stress_45	"POPTR_0014s13430.1"	824	"	"T/A"	"58,3/41,7"	"7/5"	12
controllo_3	"POPTR_0009s12420.1"	411	"	"T/G"	"59,1/40,2"	"75/51"	127	stress_12bis	"POPTR_0009s12420.1"	411	"	"T/G"	"60,6/36,4"	"20/12"	33
controllo_3	"POPTR_0009s12420.1"	411	"	"T/G"	"59,1/40,2"	"75/51"	127	stress_42	"POPTR_0009s12420.1"	411	"	"T/G"	"68,6/31,4"	"116/53"	169
controllo_3	"POPTR_0009s12420.1"	411	"	"T/G"	"59,1/40,2"	"75/51"	127	stress_45	"POPTR_0009s12420.1"	411	"	"T/G"	"67,6/32,4"	"150/72"	222
controllo_3	"POPTR_0002s03990.1"	51	"	"C/T"	"59,1/40,2"	"78/53"	132	stress_12bis	"POPTR_0002s03990.1"	51	"	"C/T"	"56,0/44,0"	"14/11"	25
controllo_3	"POPTR_0002s03990.1"	51	"	"C/T"	"59,1/40,2"	"78/53"	132	stress_42	"POPTR_0002s03990.1"	51	"	"C/T"	"64,8/35,2"	"46/25"	71
controllo_3	"POPTR_0002s03990.1"	51	"	"C/T"	"59,1/40,2"	"78/53"	132	stress_45	"POPTR_0002s03990.1"	51	"	"T/C"	"52,0/48,0"	"26/24"	50
controllo_3	"POPTR_0004s01990.1"	757	"	"A/C"	"59,1/40,4"	"359/245"	607	stress_12bis	"POPTR_0004s01990.1"	757	"	"A/C"	"76,0/24,0"	"73/23"	96
controllo_3	"POPTR_0015s09990.1"	732	"	"C/T"	"59,1/40,5"	"127/87"	215	stress_12bis	"POPTR_0015s09990.1"	732	"	"T/C"	"59,7/40,3"	"46/31"	77
controllo_3	"POPTR_0015s09990.1"	732	"	"C/T"	"59,1/40,5"	"127/87"	215	stress_42	"POPTR_0015s09990.1"	732	"	"T/C"	"52,4/47,6"	"11/10"	21
controllo_3	"POPTR_0015s09990.1"	732	"	"C/T"	"59,1/40,5"	"127/87"	215	stress_45	"POPTR_0015s09990.1"	732	"	"C/T"	"58,8/41,2"	"10/7"	17
controllo_3	"POPTR_0010s03010.1"	1089	"	"A/C"	"59,1/40,5"	"140/96"	237	stress_12bis	"POPTR_0010s03010.1"	1089	"	"A/C"	"68,4/31,6"	"54/25"	79
controllo_3	"POPTR_0010s03010.1"	1089	"	"A/C"	"59,1/40,5"	"140/96"	237	stress_45	"POPTR_0010s03010.1"	1089	"	"A/C"	"59,3/40,7"	"16/11"	27
controllo_3	"POPTR_0002s19710.1"	117	"	"G/C"	"59,1/40,6"	"300/206"	508	stress_12bis	"POPTR_0002s19710.1"	117	"	"G/C"	"68,6/31,4"	"133/61"	194
controllo_3	"POPTR_0002s19710.1"	117	"	"G/C"	"59,1/40,6"	"300/206"	508	stress_42	"POPTR_0002s19710.1"	117	"	"G/C"	"50,7/49,3"	"36/35"	71
controllo_3	"POPTR_0002s19710.1"	117	"	"G/C"	"59,1/40,6"	"300/206"	508	stress_45	"POPTR_0002s19710.1"	117	"	"C/G"	"51,4/48,6"	"36/34"	70
controllo_3	"POPTR_0006s27170.1"	286	"	"T/C"	"59,1/40,8"	"929/641"	1571	stress_12bis	"POPTR_0006s27170.1"	286	"	"T/C"	"60,3/39,7"	"257/169"	426
controllo_3	"POPTR_0006s27170.1"	286	"	"T/C"	"59,1/40,8"	"929/641"	1571	stress_42	"POPTR_0006s27170.1"	286	"	"T/C"	"83,6/16,4"	"61/12"	73
controllo_3	"POPTR_0006s27170.1"	286	"	"T/C"	"59,1/40,8"	"929/641"	1571	stress_45	"POPTR_0006s27170.1"	286	"	"T/C"	"71,9/28,1"	"69/27"	96
controllo_3	"POPTR_0008s06720.1"	211	"	"T/A"	"59,1/40,8"	"1091/754"	1847	stress_12bis	"POPTR_0008s06720.1"	211	"	"T/A"	"60,1/39,9"	"303/201"	504
controllo_3	"POPTR_0008s06720.1"	211	"	"T/A"	"59,1/40,8"	"1091/754"	1847	stress_42	"POPTR_0008s06720.1"	211	"	"A/T"	"61,5/38,5"	"75/47"	122
controllo_3	"POPTR_0008s06720.1"	211	"	"T/A"	"59,1/40,8"	"1091/754"	1847	stress_45	"POPTR_0008s06720.1"	211	"	"A/T"	"66,9/33,1"	"89/44"	133
controllo_3	"POPTR_0006s03660.1"	4176	"	"G/A"	"59,1/40,9"	"101/70"	171	stress_12bis	"POPTR_0006s03660.1"	4176	"	"G/A"	"68,2/31,8"	"30/14"	44
controllo_3	"POPTR_0006s03660.1"	4176	"	"G/A"	"59,1/40,9"	"101/70"	171	stress_42	"POPTR_0006s03660.1"	4176	"	"G/A"	"58,3/41,7"	"7/5"	12
controllo_3	"POPTR_0006s03660.1"	4176	"	"G/A"	"59,1/40,9"	"101/70"	171	stress_45	"POPTR_0006s03660.1"	4176	"	"G/A"	"55,6/44,4"	"25/20"	45
controllo_3	"POPTR_0006s27170.1"	100	"	"C/T"	"59,1/40,9"	"956/661"	1617	stress_12bis	"POPTR_0006s27170.1"	100	"	"C/T"	"63,8/36,2"	"372/211"	583
controllo_3	"POPTR_0006s27170.1"	100	"	"C/T"	"59,1/40,9"	"956/661"	1617	stress_42	"POPTR_0006s27170.1"	100	"	"C/T"	"72,7/27,3"	"64/24"	88
controllo_3	"POPTR_0006s27170.1"	100	"	"C/T"	"59,1/40,9"	"956/661"	1617	stress_45	"POPTR_0006s27170.1"	100	"	"C/T"	"68,8/31,2"	"75/34"	109
controllo_3	"POPTR_0006s16030.1"	375	"	"A/T"	"59,1/40,9"	"91/63"	154	stress_45	"POPTR_0006s16030.1"	375	"	"T/A"	"54,5/45,5"	"6/5"	11
controllo_3	"POPTR_0003s01090.1"	39	"	"T/G"	"59,1/40,9"	"150/104"	254	stress_12bis	"POPTR_0003s01090.1"	39	"	"T/G"	"54,9/45,1"	"50/41"	91
controllo_3	"POPTR_0003s01090.1"	39	"	"T/G"	"59,1/40,9"	"150/104"	254	stress_42	"POPTR_0003s01090.1"	39	"	"T/G"	"63,3/36,7"	"38/22"	60
controllo_3	"POPTR_0003s01090.1"	39	"	"T/G"	"59,1/40,9"	"150/104"	254	stress_45	"POPTR_0003s01090.1"	39	"	"T/G"	"50,6/49,4"	"39/38"	77
controllo_3	"POPTR_0013s01790.1"	97	"	"C/A"	"59,1/40,9"	"65/45"	110	stress_12bis	"POPTR_0013s01790.1"	97	"	"C/A"	"51,4/48,6"	"19/18"	37
controllo_3	"POPTR_0013s01790.1"	97	"	"C/A"	"59,1/40,9"	"65/45"	110	stress_42	"POPTR_0013s01790.1"	97	"	"A/C"	"64,0/36,0"	"16/9"	25
controllo_3	"POPTR_0013s01790.1"	97	"	"C/A"	"59,1/40,9"	"65/45"	110	stress_45	"POPTR_0013s01790.1"	97	"	"C/A"	"53,3/46,7"	"8/7"	15
controllo_3	"POPTR_0013s13220.1"	378	"	"G/A"	"59,1/40,9"	"123/85"	208	stress_12bis	"POPTR_0013s13220.1"	378	"	"G/A"	"67,2/32,8"	"84/41"	125
controllo_3	"POPTR_0013s13220.1"	378	"	"G/A"	"59,1/40,9"	"123/85"	208	stress_42	"POPTR_0013s13220.1"	378	"	"G/A"	"59,4/40,6"	"60/41"	101
controllo_3	"POPTR_0013s13220.1"	378	"	"G/A"	"59,1/40,9"	"123/85"	208	stress_45	"POPTR_0013s13220.1"	378	"	"G/A"	"62,8/37,2"	"98/58"	156
controllo_3	"POPTR_0014s17400.1"	175	"	"G/A"	"59,1/40,9"	"1170/810"	1981	stress_12bis	"POPTR_0014s17400.1"	175	"	"G/A"	"61,8/38,2"	"389/240"	629
controllo_3	"POPTR_0014s17400.1"	175	"	"G/A"	"59,1/40,9"	"1170/810"	1981	stress_42	"POPTR_0014s17400.1"	175	"	"G/A"	"63,5/36,5"	"158/91"	249
controllo_3	"POPTR_0014s17400.1"	175	"	"G/A"	"59,1/40,9"	"1170/810"	1981	stress_45	"POPTR_0014s17400.1"	175	"	"G/A"	"60,3/39,7"	"196/129"	325
controllo_3	"POPTR_0004s23490.1"	1128	"	"T/C"	"59,1/40,9"	"133/92"	225	stress_12bis	"POPTR_0004s23490.1"	1128	"	"T/C"	"54,1/45,9"	"33/28"	61
controllo_3	"POPTR_0004s23490.1"	1128	"	"T/C"	"59,1/40,9"	"133/92"	225	stress_42	"POPTR_0004s23490.1"	1128	"	"C/T"	"54,4/45,6"	"31/26"	57
controllo_3	"POPTR_0004s23490.1"	1128	"	"T/C"	"59,1/40,9"	"133/92"	225	stress_45	"POPTR_0004s23490.1"	1128	"	"C/T"	"50,4/49,6"	"57/56"	113
controllo_3	"POPTR_0012s11570.1"	528	"	"C/T"	"59,1/40,9"	"68/47"	115	stress_12bis	"POPTR_0012s11570.1"	528	"	"C/T"	"55,2/44,8"	"32/26"	58
controllo_3	"POPTR_0012s11570.1"	528	"	"C/T"	"59,1/40,9"	"68/47"	115	stress_42	"POPTR_0012s11570.1"	528	"	"C/T"	"58,8/41,2"	"10/7"	17
controllo_3	"POPTR_0012s11570.1"	528	"	"C/T"	"59,1/40,9"	"68/47"	115	stress_45	"POPTR_0012s11570.1"	528	"	"T/C"	"70,0/30,0"	"21/9"	30
controllo_3	"POPTR_0012s00670.1"	571	"	"C/A"	"59,1/40,9"	"68/47"	115	stress_42	"POPTR_0012s00670.1"	571	"	"C/A"	"60,6/39,4"	"20/13"	33
controllo_3	"POPTR_0012s00670.1"	571	"	"C/A"	"59,1/40,9"	"68/47"	115	stress_45	"POPTR_0012s00670.1"	571	"	"A/C"	"55,0/45,0"	"33/27"	60
controllo_3	"POPTR_0011s12440.1"	676	"	"A/G"	"59,1/40,9"	"143/99"	242	stress_12bis	"POPTR_0011s12440.1"	676	"	"A/G"	"57,6/42,4"	"76/56"	132
controllo_3	"POPTR_0011s12440.1"	676	"	"A/G"	"59,1/40,9"	"143/99"	242	stress_42	"POPTR_0011s12440.1"	676	"	"A/G"	"60,7/39,3"	"17/11"	28
controllo_3	"POPTR_0011s12440.1"	676	"	"A/G"	"59,1/40,9"	"143/99"	242	stress_45	"POPTR_0011s12440.1"	676	"	"A/G"	"64,3/35,7"	"27/15"	42
controllo_3	"POPTR_0001s10650.1"	579	"	"A/G"	"59,1/40,9"	"65/45"	110	stress_12bis	"POPTR_0001s10650.1"	579	"	"A/G"	"68,2/31,8"	"30/14"	44
controllo_3	"POPTR_0001s10650.1"	579	"	"A/G"	"59,1/40,9"	"65/45"	110	stress_42	"POPTR_0001s10650.1"	579	"	"G/A"	"56,7/43,3"	"17/13"	30
controllo_3	"POPTR_0001s10650.1"	579	"	"A/G"	"59,1/40,9"	"65/45"	110	stress_45	"POPTR_0001s10650.1"	579	"	"G/A"	"62,5/37,5"	"15/9"	24
controllo_3	"POPTR_0001s06910.1"	1018	"	"A/C"	"59,1/40,9"	"75/52"	127	stress_12bis	"POPTR_0001s06910.1"	1018	"	"A/C"	"68,4/31,6"	"26/12"	38
controllo_3	"POPTR_0001s06910.1"	1018	"	"A/C"	"59,1/40,9"	"75/52"	127	stress_42	"POPTR_0001s06910.1"	1018	"	"A/C"	"59,1/40,9"	"26/18"	44
controllo_3	"POPTR_0001s06910.1"	1018	"	"A/C"	"59,1/40,9"	"75/52"	127	stress_45	"POPTR_0001s06910.1"	1018	"	"A/C"	"64,4/35,6"	"29/16"	45
controllo_3	"POPTR_0007s07660.1"	108	"	"A/G"	"59,1/40,9"	"78/54"	132	stress_12bis	"POPTR_0007s07660.1"	108	"	"A/G"	"65,5/34,5"	"19/10"	29
controllo_3	"POPTR_0007s07660.1"	108	"	"A/G"	"59,1/40,9"	"78/54"	132	stress_42	"POPTR_0007s07660.1"	108	"	"A/G"	"57,1/42,9"	"20/15"	35
controllo_3	"POPTR_0007s07660.1"	108	"	"A/G"	"59,1/40,9"	"78/54"	132	stress_45	"POPTR_0007s07660.1"	108	"	"A/G"	"53,8/46,2"	"14/12"	26
controllo_3	"POPTR_0002s25870.1"	343	"	"C/T"	"59,1/40,9"	"65/45"	110	stress_12bis	"POPTR_0002s25870.1"	343	"	"C/T"	"55,6/44,4"	"10/8"	18
controllo_3	"POPTR_0002s25870.1"	343	"	"C/T"	"59,1/40,9"	"65/45"	110	stress_42	"POPTR_0002s25870.1"	343	"	"T/C"	"76,5/23,5"	"13/4"	17
controllo_3	"POPTR_0002s25870.1"	343	"	"C/T"	"59,1/40,9"	"65/45"	110	stress_45	"POPTR_0002s25870.1"	343	"	"T/C"	"62,1/37,9"	"18/11"	29
controllo_3	"POPTR_0002s18500.1"	930	"	"T/C"	"59,1/40,9"	"143/99"	242	stress_12bis	"POPTR_0002s18500.1"	930	"	"T/C"	"71,7/28,3"	"43/17"	60
controllo_3	"POPTR_0002s18500.1"	930	"	"T/C"	"59,1/40,9"	"143/99"	242	stress_42	"POPTR_0002s18500.1"	930	"	"T/C"	"62,8/37,2"	"179/106"	285
controllo_3	"POPTR_0002s18500.1"	930	"	"T/C"	"59,1/40,9"	"143/99"	242	stress_45	"POPTR_0002s18500.1"	930	"	"T/C"	"61,8/38,2"	"175/108"	283
controllo_3	"POPTR_0002s25620.1"	291	"	"G/A"	"59,1/40,9"	"101/70"	171	stress_12bis	"POPTR_0002s25620.1"	291	"	"G/A"	"66,2/33,8"	"45/23"	68
controllo_3	"POPTR_0002s25620.1"	291	"	"G/A"	"59,1/40,9"	"101/70"	171	stress_42	"POPTR_0002s25620.1"	291	"	"G/A"	"56,0/44,0"	"14/11"	25
controllo_3	"POPTR_0002s25620.1"	291	"	"G/A"	"59,1/40,9"	"101/70"	171	stress_45	"POPTR_0002s25620.1"	291	"	"A/G"	"51,4/48,6"	"19/18"	37
controllo_3	"POPTR_0008s13780.1"	764	"	"T/C"	"59,1/40,9"	"133/92"	225	stress_12bis	"POPTR_0008s13780.1"	764	"	"T/C"	"75,0/25,0"	"24/8"	32
controllo_3	"POPTR_0008s13780.1"	764	"	"T/C"	"59,1/40,9"	"133/92"	225	stress_42	"POPTR_0008s13780.1"	764	"	"C/T"	"50,0/50,0"	"8/8"	16
controllo_3	"POPTR_0008s13780.1"	764	"	"T/C"	"59,1/40,9"	"133/92"	225	stress_45	"POPTR_0008s13780.1"	764	"	"T/C"	"70,6/29,4"	"12/5"	17
controllo_3	"POPTR_0019s10280.1"	103	"	"C/A"	"59,2/40,5"	"196/134"	331	stress_12bis	"POPTR_0019s10280.1"	103	"	"C/A"	"55,7/44,3"	"54/43"	97
controllo_3	"POPTR_0019s10280.1"	103	"	"C/A"	"59,2/40,5"	"196/134"	331	stress_42	"POPTR_0019s10280.1"	103	"	"C/A"	"57,1/42,9"	"24/18"	42
controllo_3	"POPTR_0019s10280.1"	103	"	"C/A"	"59,2/40,5"	"196/134"	331	stress_45	"POPTR_0019s10280.1"	103	"	"C/A"	"64,3/35,7"	"27/15"	42
controllo_3	"POPTR_0005s04090.1"	214	"	"C/T"	"59,2/40,8"	"109/75"	184	stress_12bis	"POPTR_0005s04090.1"	214	"	"C/T"	"67,3/32,7"	"35/17"	52
controllo_3	"POPTR_0005s04090.1"	214	"	"C/T"	"59,2/40,8"	"109/75"	184	stress_42	"POPTR_0005s04090.1"	214	"	"C/T"	"68,0/32,0"	"17/8"	25
controllo_3	"POPTR_0005s04090.1"	214	"	"C/T"	"59,2/40,8"	"109/75"	184	stress_45	"POPTR_0005s04090.1"	214	"	"C/T"	"71,9/28,1"	"23/9"	32
controllo_3	"POPTR_0005s20920.1"	79	"	"G/C"	"59,2/40,8"	"223/154"	377	stress_12bis	"POPTR_0005s20920.1"	79	"	"C/G"	"52,3/47,7"	"46/42"	88
controllo_3	"POPTR_0006s20440.1"	603	"	"C/T"	"59,2/40,8"	"71/49"	120	stress_12bis	"POPTR_0006s20440.1"	603	"	"T/C"	"56,4/43,6"	"22/17"	39
controllo_3	"POPTR_0006s20440.1"	603	"	"C/T"	"59,2/40,8"	"71/49"	120	stress_42	"POPTR_0006s20440.1"	603	"	"T/C"	"65,2/34,8"	"15/8"	23
controllo_3	"POPTR_0006s20440.1"	603	"	"C/T"	"59,2/40,8"	"71/49"	120	stress_45	"POPTR_0006s20440.1"	603	"	"T/C"	"54,1/45,9"	"20/17"	37
controllo_3	"POPTR_0006s16030.1"	315	"	"A/T"	"59,2/40,8"	"93/64"	157	stress_42	"POPTR_0006s16030.1"	315	"	"A/T"	"66,7/33,3"	"8/4"	12
controllo_3	"POPTR_0006s16030.1"	315	"	"A/T"	"59,2/40,8"	"93/64"	157	stress_45	"POPTR_0006s16030.1"	315	"	"A/T"	"53,8/46,2"	"7/6"	13
controllo_3	"POPTR_0003s20870.1"	37	"	"G/A"	"59,2/40,8"	"71/49"	120	stress_12bis	"POPTR_0003s20870.1"	37	"	"A/G"	"69,6/30,4"	"16/7"	23
controllo_3	"POPTR_0003s20870.1"	37	"	"G/A"	"59,2/40,8"	"71/49"	120	stress_45	"POPTR_0003s20870.1"	37	"	"G/A"	"73,3/26,7"	"11/4"	15
controllo_3	"POPTR_0013s00850.1"	354	"	"A/G"	"59,2/40,8"	"158/109"	267	stress_12bis	"POPTR_0013s00850.1"	354	"	"A/G"	"53,9/46,1"	"41/35"	76
controllo_3	"POPTR_0013s00850.1"	354	"	"A/G"	"59,2/40,8"	"158/109"	267	stress_42	"POPTR_0013s00850.1"	354	"	"A/G"	"60,2/39,8"	"198/131"	329
controllo_3	"POPTR_0013s00850.1"	354	"	"A/G"	"59,2/40,8"	"158/109"	267	stress_45	"POPTR_0013s00850.1"	354	"	"A/G"	"61,1/38,4"	"124/78"	203
controllo_3	"POPTR_0014s01240.1"	603	"	"T/C"	"59,2/40,8"	"90/62"	152	stress_12bis	"POPTR_0014s01240.1"	603	"	"T/C"	"84,1/15,9"	"58/11"	69
controllo_3	"POPTR_0014s01240.1"	603	"	"T/C"	"59,2/40,8"	"90/62"	152	stress_42	"POPTR_0014s01240.1"	603	"	"T/C"	"80,0/20,0"	"28/7"	35
controllo_3	"POPTR_0014s01240.1"	603	"	"T/C"	"59,2/40,8"	"90/62"	152	stress_45	"POPTR_0014s01240.1"	603	"	"T/C"	"70,6/29,4"	"24/10"	34
controllo_3	"POPTR_0004s03160.1"	40	"	"A/G"	"59,2/40,8"	"213/147"	360	stress_12bis	"POPTR_0004s03160.1"	40	"	"G/A"	"58,8/41,2"	"50/35"	85
controllo_3	"POPTR_0004s03160.1"	40	"	"A/G"	"59,2/40,8"	"213/147"	360	stress_42	"POPTR_0004s03160.1"	40	"	"G/A"	"72,7/27,3"	"8/3"	11
controllo_3	"POPTR_0009s11650.1"	1424	"	"G/C"	"59,2/40,8"	"93/64"	157	stress_12bis	"POPTR_0009s11650.1"	1424	"	"G/C"	"66,7/33,3"	"10/5"	15
controllo_3	"POPTR_0012s01430.1"	1083	"	"G/A"	"59,2/40,8"	"61/42"	103	stress_12bis	"POPTR_0012s01430.1"	1083	"	"G/A"	"59,5/40,5"	"22/15"	37
controllo_3	"POPTR_0012s01430.1"	1083	"	"G/A"	"59,2/40,8"	"61/42"	103	stress_42	"POPTR_0012s01430.1"	1083	"	"G/A"	"62,5/37,5"	"10/6"	16
controllo_3	"POPTR_0012s01430.1"	1083	"	"G/A"	"59,2/40,8"	"61/42"	103	stress_45	"POPTR_0012s01430.1"	1083	"	"A/G"	"51,7/48,3"	"15/14"	29
controllo_3	"POPTR_0012s11630.1"	684	"	"G/A"	"59,2/40,8"	"122/84"	206	stress_12bis	"POPTR_0012s11630.1"	684	"	"A/G"	"50,6/49,4"	"39/38"	77
controllo_3	"POPTR_0012s11630.1"	684	"	"G/A"	"59,2/40,8"	"122/84"	206	stress_42	"POPTR_0012s11630.1"	684	"	"G/A"	"63,5/36,5"	"61/35"	96
controllo_3	"POPTR_0012s11630.1"	684	"	"G/A"	"59,2/40,8"	"122/84"	206	stress_45	"POPTR_0012s11630.1"	684	"	"G/A"	"56,7/43,3"	"38/29"	67
controllo_3	"POPTR_0011s07530.1"	208	"	"C/T"	"59,2/40,8"	"84/58"	142	stress_12bis	"POPTR_0011s07530.1"	208	"	"C/T"	"60,0/40,0"	"12/8"	20
controllo_3	"POPTR_0011s07530.1"	208	"	"C/T"	"59,2/40,8"	"84/58"	142	stress_42	"POPTR_0011s07530.1"	208	"	"C/T"	"70,0/30,0"	"7/3"	10
controllo_3	"POPTR_0011s07530.1"	208	"	"C/T"	"59,2/40,8"	"84/58"	142	stress_45	"POPTR_0011s07530.1"	208	"	"T/C"	"53,8/46,2"	"7/6"	13
controllo_3	"POPTR_0001s14280.1"	891	"	"G/A"	"59,2/40,8"	"61/42"	103	stress_12bis	"POPTR_0001s14280.1"	891	"	"G/A"	"63,6/36,4"	"35/20"	55
controllo_3	"POPTR_0001s14280.1"	891	"	"G/A"	"59,2/40,8"	"61/42"	103	stress_42	"POPTR_0001s14280.1"	891	"	"G/A"	"51,3/48,7"	"101/96"	197
controllo_3	"POPTR_0001s14280.1"	891	"	"G/A"	"59,2/40,8"	"61/42"	103	stress_45	"POPTR_0001s14280.1"	891	"	"G/A"	"55,6/44,4"	"114/91"	205
controllo_3	"POPTR_0001s01630.1"	789	"	"T/C"	"59,2/40,8"	"282/194"	476	stress_12bis	"POPTR_0001s01630.1"	789	"	"T/C"	"65,6/34,4"	"61/32"	93
controllo_3	"POPTR_0001s01630.1"	789	"	"T/C"	"59,2/40,8"	"282/194"	476	stress_42	"POPTR_0001s01630.1"	789	"	"C/T"	"72,7/27,3"	"8/3"	11
controllo_3	"POPTR_0001s01630.1"	789	"	"T/C"	"59,2/40,8"	"282/194"	476	stress_45	"POPTR_0001s01630.1"	789	"	"T/C"	"61,5/38,5"	"8/5"	13
controllo_3	"POPTR_0001s18460.1"	305	"	"T/C"	"59,2/40,8"	"158/109"	267	stress_12bis	"POPTR_0001s18460.1"	305	"	"T/C"	"69,7/30,3"	"46/20"	66
controllo_3	"POPTR_0001s18460.1"	305	"	"T/C"	"59,2/40,8"	"158/109"	267	stress_42	"POPTR_0001s18460.1"	305	"	"T/C"	"57,1/42,9"	"20/15"	35
controllo_3	"POPTR_0001s18460.1"	305	"	"T/C"	"59,2/40,8"	"158/109"	267	stress_45	"POPTR_0001s18460.1"	305	"	"T/C"	"59,0/41,0"	"23/16"	39
controllo_3	"POPTR_0010s18010.1"	117	"	"A/C"	"59,2/40,8"	"61/42"	103	stress_12bis	"POPTR_0010s18010.1"	117	"	"C/A"	"53,8/46,2"	"21/18"	39
controllo_3	"POPTR_0010s18010.1"	117	"	"A/C"	"59,2/40,8"	"61/42"	103	stress_42	"POPTR_0010s18010.1"	117	"	"C/A"	"80,0/20,0"	"16/4"	20
controllo_3	"POPTR_0010s18010.1"	117	"	"A/C"	"59,2/40,8"	"61/42"	103	stress_45	"POPTR_0010s18010.1"	117	"	"C/A"	"65,2/34,8"	"15/8"	23
controllo_3	"POPTR_0010s26130.1"	770	"	"T/C"	"59,2/40,8"	"109/75"	184	stress_12bis	"POPTR_0010s26130.1"	770	"	"T/C"	"62,0/38,0"	"49/30"	79
controllo_3	"POPTR_0010s26130.1"	770	"	"T/C"	"59,2/40,8"	"109/75"	184	stress_42	"POPTR_0010s26130.1"	770	"	"T/C"	"69,2/30,8"	"9/4"	13
controllo_3	"POPTR_0010s26130.1"	770	"	"T/C"	"59,2/40,8"	"109/75"	184	stress_45	"POPTR_0010s26130.1"	770	"	"T/C"	"70,6/29,4"	"12/5"	17
controllo_3	"POPTR_0010s21270.1"	882	"	"C/T"	"59,2/40,8"	"87/60"	147	stress_12bis	"POPTR_0010s21270.1"	882	"	"C/T"	"54,0/46,0"	"27/23"	50
controllo_3	"POPTR_0010s21270.1"	882	"	"C/T"	"59,2/40,8"	"87/60"	147	stress_42	"POPTR_0010s21270.1"	882	"	"C/T"	"57,7/42,3"	"15/11"	26
controllo_3	"POPTR_0010s21270.1"	882	"	"C/T"	"59,2/40,8"	"87/60"	147	stress_45	"POPTR_0010s21270.1"	882	"	"C/T"	"63,1/36,9"	"41/24"	65
controllo_3	"POPTR_0010s20060.1"	981	"	"A/T"	"59,2/40,8"	"155/107"	262	stress_12bis	"POPTR_0010s20060.1"	981	"	"A/T"	"61,3/37,6"	"57/35"	93
controllo_3	"POPTR_0010s20060.1"	981	"	"A/T"	"59,2/40,8"	"155/107"	262	stress_42	"POPTR_0010s20060.1"	981	"	"A/T"	"58,6/41,4"	"17/12"	29
controllo_3	"POPTR_0010s20060.1"	981	"	"A/T"	"59,2/40,8"	"155/107"	262	stress_45	"POPTR_0010s20060.1"	981	"	"T/A"	"52,8/47,2"	"19/17"	36
controllo_3	"POPTR_0010s11780.1"	135	"	"T/C"	"59,2/40,8"	"61/42"	103	stress_12bis	"POPTR_0010s11780.1"	135	"	"T/C"	"73,9/26,1"	"17/6"	23
controllo_3	"POPTR_0010s11780.1"	135	"	"T/C"	"59,2/40,8"	"61/42"	103	stress_42	"POPTR_0010s11780.1"	135	"	"C/T"	"50,0/50,0"	"16/16"	32
controllo_3	"POPTR_0010s11780.1"	135	"	"T/C"	"59,2/40,8"	"61/42"	103	stress_45	"POPTR_0010s11780.1"	135	"	"T/C"	"74,2/25,8"	"46/16"	62
controllo_3	"POPTR_0008s05470.1"	57	"	"A/C"	"59,2/40,8"	"119/82"	201	stress_12bis	"POPTR_0008s05470.1"	57	"	"A/C"	"71,0/29,0"	"22/9"	31
controllo_3	"POPTR_0008s05470.1"	57	"	"A/C"	"59,2/40,8"	"119/82"	201	stress_42	"POPTR_0008s05470.1"	57	"	"A/C"	"56,2/43,8"	"9/7"	16
controllo_3	"POPTR_0008s05470.1"	57	"	"A/C"	"59,2/40,8"	"119/82"	201	stress_45	"POPTR_0008s05470.1"	57	"	"A/C"	"55,6/44,4"	"20/16"	36
controllo_3	"POPTR_0008s19960.1"	937	"	"G/A"	"59,2/40,8"	"90/62"	152	stress_12bis	"POPTR_0008s19960.1"	937	"	"G/A"	"65,4/34,6"	"17/9"	26
controllo_3	"POPTR_0008s09150.1"	291	"	"G/T"	"59,2/40,8"	"157/108"	265	stress_12bis	"POPTR_0008s09150.1"	291	"	"G/T"	"63,9/36,1"	"46/26"	72
controllo_3	"POPTR_0008s09150.1"	291	"	"G/T"	"59,2/40,8"	"157/108"	265	stress_42	"POPTR_0008s09150.1"	291	"	"G/T"	"52,1/47,9"	"110/101"	211
controllo_3	"POPTR_0008s09150.1"	291	"	"G/T"	"59,2/40,8"	"157/108"	265	stress_45	"POPTR_0008s09150.1"	291	"	"G/T"	"50,5/49,5"	"151/148"	299
controllo_3	"POPTR_0016s12100.1"	1017	"	"T/G"	"59,2/40,8"	"61/42"	103	stress_12bis	"POPTR_0016s12100.1"	1017	"	"T/G"	"53,3/46,7"	"8/7"	15
controllo_3	"POPTR_0013s05790.1"	442	"	"C/T"	"59,3/39,0"	"35/23"	59	stress_42	"POPTR_0013s05790.1"	442	"	"T/C"	"52,9/47,1"	"63/56"	119
controllo_3	"POPTR_0013s07150.1"	1969	"	"C/A"	"59,3/40,1"	"102/69"	172	stress_12bis	"POPTR_0013s07150.1"	1969	"	"C/A"	"55,6/44,4"	"15/12"	27
controllo_3	"POPTR_0013s07150.1"	1969	"	"C/A"	"59,3/40,1"	"102/69"	172	stress_42	"POPTR_0013s07150.1"	1969	"	"A/C"	"68,8/31,2"	"11/5"	16
controllo_3	"POPTR_0013s07150.1"	1969	"	"C/A"	"59,3/40,1"	"102/69"	172	stress_45	"POPTR_0013s07150.1"	1969	"	"A/C"	"51,5/48,5"	"17/16"	33
controllo_3	"POPTR_0011s12440.1"	675	"	"C/T"	"59,3/40,2"	"146/99"	246	stress_12bis	"POPTR_0011s12440.1"	675	"	"C/T"	"60,0/40,0"	"84/56"	140
controllo_3	"POPTR_0011s12440.1"	675	"	"C/T"	"59,3/40,2"	"146/99"	246	stress_42	"POPTR_0011s12440.1"	675	"	"C/T"	"64,5/35,5"	"20/11"	31
controllo_3	"POPTR_0011s12440.1"	675	"	"C/T"	"59,3/40,2"	"146/99"	246	stress_45	"POPTR_0011s12440.1"	675	"	"C/T"	"65,0/35,0"	"26/14"	40
controllo_3	"POPTR_0006s06740.1"	816	"	"A/G"	"59,3/40,7"	"179/123"	302	stress_12bis	"POPTR_0006s06740.1"	816	"	"A/G"	"52,9/47,1"	"9/8"	17
controllo_3	"POPTR_0006s18760.1"	557	"	"G/A"	"59,3/40,7"	"73/50"	123	stress_12bis	"POPTR_0006s18760.1"	557	"	"G/A"	"75,0/25,0"	"12/4"	16
controllo_3	"POPTR_0006s18760.1"	557	"	"G/A"	"59,3/40,7"	"73/50"	123	stress_45	"POPTR_0006s18760.1"	557	"	"A/G"	"60,0/40,0"	"6/4"	10
controllo_3	"POPTR_0006s27030.1"	20	"	"C/T"	"59,3/40,7"	"232/159"	391	stress_12bis	"POPTR_0006s27030.1"	20	"	"C/T"	"55,2/44,8"	"69/56"	125
controllo_3	"POPTR_0006s27030.1"	20	"	"C/T"	"59,3/40,7"	"232/159"	391	stress_42	"POPTR_0006s27030.1"	20	"	"C/T"	"50,0/50,0"	"26/26"	52
controllo_3	"POPTR_0006s27030.1"	20	"	"C/T"	"59,3/40,7"	"232/159"	391	stress_45	"POPTR_0006s27030.1"	20	"	"C/T"	"53,3/46,7"	"16/14"	30
controllo_3	"POPTR_0018s02890.1"	486	"	"C/T"	"59,3/40,7"	"67/46"	113	stress_12bis	"POPTR_0018s02890.1"	486	"	"C/T"	"52,9/47,1"	"9/8"	17
controllo_3	"POPTR_0018s02890.1"	486	"	"C/T"	"59,3/40,7"	"67/46"	113	stress_45	"POPTR_0018s02890.1"	486	"	"C/T"	"57,1/42,9"	"8/6"	14
controllo_3	"POPTR_0013s00610.1"	1014	"	"A/G"	"59,3/40,7"	"70/48"	118	stress_12bis	"POPTR_0013s00610.1"	1014	"	"G/A"	"52,0/48,0"	"13/12"	25
controllo_3	"POPTR_0013s00610.1"	1014	"	"A/G"	"59,3/40,7"	"70/48"	118	stress_42	"POPTR_0013s00610.1"	1014	"	"G/A"	"57,7/42,3"	"15/11"	26
controllo_3	"POPTR_0013s00610.1"	1014	"	"A/G"	"59,3/40,7"	"70/48"	118	stress_45	"POPTR_0013s00610.1"	1014	"	"A/G"	"56,8/43,2"	"21/16"	37
controllo_3	"POPTR_0013s04210.1"	400	"	"A/G"	"59,3/40,7"	"80/55"	135	stress_12bis	"POPTR_0013s04210.1"	400	"	"A/G"	"53,2/46,8"	"25/22"	47
controllo_3	"POPTR_0013s04210.1"	400	"	"A/G"	"59,3/40,7"	"80/55"	135	stress_42	"POPTR_0013s04210.1"	400	"	"A/G"	"54,5/45,5"	"6/5"	11
controllo_3	"POPTR_0013s04210.1"	400	"	"A/G"	"59,3/40,7"	"80/55"	135	stress_45	"POPTR_0013s04210.1"	400	"	"G/A"	"52,5/47,5"	"21/19"	40
controllo_3	"POPTR_0004s18200.1"	196	"	"G/T"	"59,3/40,7"	"102/70"	172	stress_12bis	"POPTR_0004s18200.1"	196	"	"G/T"	"66,1/33,9"	"37/19"	56
controllo_3	"POPTR_0004s18200.1"	196	"	"G/T"	"59,3/40,7"	"102/70"	172	stress_42	"POPTR_0004s18200.1"	196	"	"G/T"	"56,4/43,6"	"31/24"	55
controllo_3	"POPTR_0004s18200.1"	196	"	"G/T"	"59,3/40,7"	"102/70"	172	stress_45	"POPTR_0004s18200.1"	196	"	"G/T"	"68,5/31,5"	"50/23"	73
controllo_3	"POPTR_0009s06690.1"	418	"	"G/A"	"59,3/40,7"	"108/74"	182	stress_12bis	"POPTR_0009s06690.1"	418	"	"G/A"	"56,1/43,9"	"32/25"	57
controllo_3	"POPTR_0009s06690.1"	418	"	"G/A"	"59,3/40,7"	"108/74"	182	stress_42	"POPTR_0009s06690.1"	418	"	"G/A"	"55,8/44,2"	"48/38"	86
controllo_3	"POPTR_0009s06690.1"	418	"	"G/A"	"59,3/40,7"	"108/74"	182	stress_45	"POPTR_0009s06690.1"	418	"	"G/A"	"59,3/40,7"	"99/68"	167
controllo_3	"POPTR_0015s08340.1"	210	"	"C/T"	"59,3/40,7"	"70/48"	118	stress_12bis	"POPTR_0015s08340.1"	210	"	"C/T"	"57,9/42,1"	"22/16"	38
controllo_3	"POPTR_0015s08340.1"	210	"	"C/T"	"59,3/40,7"	"70/48"	118	stress_42	"POPTR_0015s08340.1"	210	"	"C/T"	"60,0/40,0"	"6/4"	10
controllo_3	"POPTR_0015s08340.1"	210	"	"C/T"	"59,3/40,7"	"70/48"	118	stress_45	"POPTR_0015s08340.1"	210	"	"C/T"	"58,1/38,7"	"18/12"	31
controllo_3	"POPTR_0007s15080.1"	1368	"	"G/A"	"59,3/40,7"	"89/61"	150	stress_12bis	"POPTR_0007s15080.1"	1368	"	"G/A"	"56,8/43,2"	"25/19"	44
controllo_3	"POPTR_0007s15080.1"	1368	"	"G/A"	"59,3/40,7"	"89/61"	150	stress_42	"POPTR_0007s15080.1"	1368	"	"G/A"	"83,3/16,7"	"10/2"	12
controllo_3	"POPTR_0007s15080.1"	1368	"	"G/A"	"59,3/40,7"	"89/61"	150	stress_45	"POPTR_0007s15080.1"	1368	"	"A/G"	"66,7/33,3"	"10/5"	15
controllo_3	"POPTR_0002s01320.1"	1116	"	"C/T"	"59,3/40,7"	"246/169"	415	stress_12bis	"POPTR_0002s01320.1"	1116	"	"T/C"	"50,3/49,0"	"72/70"	143
controllo_3	"POPTR_0002s01320.1"	1116	"	"C/T"	"59,3/40,7"	"246/169"	415	stress_42	"POPTR_0002s01320.1"	1116	"	"C/T"	"64,3/35,7"	"36/20"	56
controllo_3	"POPTR_0002s01320.1"	1116	"	"C/T"	"59,3/40,7"	"246/169"	415	stress_45	"POPTR_0002s01320.1"	1116	"	"C/T"	"54,3/45,7"	"38/32"	70
controllo_3	"POPTR_0008s20590.1"	271	"	"C/A"	"59,3/40,7"	"213/146"	359	stress_12bis	"POPTR_0008s20590.1"	271	"	"C/A"	"61,6/38,4"	"98/61"	159
controllo_3	"POPTR_0008s20590.1"	271	"	"C/A"	"59,3/40,7"	"213/146"	359	stress_42	"POPTR_0008s20590.1"	271	"	"C/A"	"68,0/32,0"	"66/31"	97
controllo_3	"POPTR_0008s20590.1"	271	"	"C/A"	"59,3/40,7"	"213/146"	359	stress_45	"POPTR_0008s20590.1"	271	"	"C/A"	"61,8/38,2"	"94/58"	152
controllo_3	"POPTR_0016s11670.1"	573	"	"G/T"	"59,3/40,7"	"64/44"	108	stress_12bis	"POPTR_0016s11670.1"	573	"	"G/T"	"65,1/34,9"	"28/15"	43
controllo_3	"POPTR_0016s11670.1"	573	"	"G/T"	"59,3/40,7"	"64/44"	108	stress_42	"POPTR_0016s11670.1"	573	"	"G/T"	"62,2/37,8"	"51/31"	82
controllo_3	"POPTR_0016s11670.1"	573	"	"G/T"	"59,3/40,7"	"64/44"	108	stress_45	"POPTR_0016s11670.1"	573	"	"G/T"	"53,8/46,2"	"35/30"	65
controllo_3	"POPTR_0008s03280.1"	1581	"	"G/T"	"59,4/39,6"	"60/40"	101	stress_12bis	"POPTR_0008s03280.1"	1581	"	"G/T"	"77,3/18,2"	"17/4"	22
controllo_3	"POPTR_0008s03280.1"	1581	"	"G/T"	"59,4/39,6"	"60/40"	101	stress_42	"POPTR_0008s03280.1"	1581	"	"T/G"	"60,0/40,0"	"6/4"	10
controllo_3	"POPTR_0008s03280.1"	1581	"	"G/T"	"59,4/39,6"	"60/40"	101	stress_45	"POPTR_0008s03280.1"	1581	"	"G/T"	"71,4/28,6"	"10/4"	14
controllo_3	"POPTR_0006s03660.1"	2274	"	"C/T"	"59,4/39,8"	"76/51"	128	stress_12bis	"POPTR_0006s03660.1"	2274	"	"C/T"	"72,7/27,3"	"24/9"	33
controllo_3	"POPTR_0006s03660.1"	2274	"	"C/T"	"59,4/39,8"	"76/51"	128	stress_42	"POPTR_0006s03660.1"	2274	"	"C/T"	"63,6/36,4"	"7/4"	11
controllo_3	"POPTR_0006s03660.1"	2274	"	"C/T"	"59,4/39,8"	"76/51"	128	stress_45	"POPTR_0006s03660.1"	2274	"	"C/T"	"73,9/26,1"	"17/6"	23
controllo_3	"POPTR_0002s25620.1"	597	"	"A/T"	"59,4/39,9"	"82/55"	138	stress_12bis	"POPTR_0002s25620.1"	597	"	"A/T"	"52,6/47,4"	"30/27"	57
controllo_3	"POPTR_0002s25620.1"	597	"	"A/T"	"59,4/39,9"	"82/55"	138	stress_42	"POPTR_0002s25620.1"	597	"	"A/T"	"51,6/48,4"	"16/15"	31
controllo_3	"POPTR_0002s25620.1"	597	"	"A/T"	"59,4/39,9"	"82/55"	138	stress_45	"POPTR_0002s25620.1"	597	"	"A/T"	"50,0/50,0"	"17/17"	34
controllo_3	"POPTR_0006s03660.1"	3315	"	"T/A"	"59,4/40,1"	"120/81"	202	stress_12bis	"POPTR_0006s03660.1"	3315	"	"T/A"	"68,0/32,0"	"34/16"	50
controllo_3	"POPTR_0006s03660.1"	3315	"	"T/A"	"59,4/40,1"	"120/81"	202	stress_42	"POPTR_0006s03660.1"	3315	"	"T/A"	"52,6/47,4"	"10/9"	19
controllo_3	"POPTR_0006s03660.1"	3315	"	"T/A"	"59,4/40,1"	"120/81"	202	stress_45	"POPTR_0006s03660.1"	3315	"	"T/A"	"60,8/39,2"	"45/29"	74
controllo_3	"POPTR_0005s25540.1"	210	"	"T/C"	"59,4/40,6"	"256/175"	431	stress_12bis	"POPTR_0005s25540.1"	210	"	"T/C"	"72,5/27,5"	"37/14"	51
controllo_3	"POPTR_0006s08850.1"	276	"	"C/T"	"59,4/40,6"	"257/176"	433	stress_12bis	"POPTR_0006s08850.1"	276	"	"C/T"	"62,4/37,6"	"68/41"	109
controllo_3	"POPTR_0006s08850.1"	276	"	"C/T"	"59,4/40,6"	"257/176"	433	stress_42	"POPTR_0006s08850.1"	276	"	"C/T"	"61,7/38,3"	"37/23"	60
controllo_3	"POPTR_0006s08850.1"	276	"	"C/T"	"59,4/40,6"	"257/176"	433	stress_45	"POPTR_0006s08850.1"	276	"	"C/T"	"51,9/48,1"	"27/25"	52
controllo_3	"POPTR_0019s11310.1"	215	"	"C/T"	"59,4/40,6"	"63/43"	106	stress_12bis	"POPTR_0019s11310.1"	215	"	"C/T"	"75,0/25,0"	"27/9"	36
controllo_3	"POPTR_0019s11310.1"	215	"	"C/T"	"59,4/40,6"	"63/43"	106	stress_45	"POPTR_0019s11310.1"	215	"	"C/T"	"72,7/27,3"	"16/6"	22
controllo_3	"POPTR_0014s11580.1"	100	"	"T/C"	"59,4/40,6"	"76/52"	128	stress_12bis	"POPTR_0014s11580.1"	100	"	"T/C"	"66,7/33,3"	"14/7"	21
controllo_3	"POPTR_0014s11580.1"	100	"	"T/C"	"59,4/40,6"	"76/52"	128	stress_42	"POPTR_0014s11580.1"	100	"	"C/T"	"68,8/31,2"	"11/5"	16
controllo_3	"POPTR_0014s11580.1"	100	"	"T/C"	"59,4/40,6"	"76/52"	128	stress_45	"POPTR_0014s11580.1"	100	"	"T/C"	"66,7/33,3"	"20/10"	30
controllo_3	"POPTR_0009s14850.1"	81	"	"C/T"	"59,4/40,6"	"79/54"	133	stress_12bis	"POPTR_0009s14850.1"	81	"	"C/T"	"57,9/42,1"	"11/8"	19
controllo_3	"POPTR_0009s14850.1"	81	"	"C/T"	"59,4/40,6"	"79/54"	133	stress_42	"POPTR_0009s14850.1"	81	"	"C/T"	"58,8/41,2"	"47/33"	80
controllo_3	"POPTR_0009s14850.1"	81	"	"C/T"	"59,4/40,6"	"79/54"	133	stress_45	"POPTR_0009s14850.1"	81	"	"C/T"	"55,8/44,2"	"58/46"	104
controllo_3	"POPTR_0009s12420.1"	780	"	"T/A"	"59,4/40,6"	"98/67"	165	stress_12bis	"POPTR_0009s12420.1"	780	"	"T/A"	"65,1/34,9"	"28/15"	43
controllo_3	"POPTR_0009s12420.1"	780	"	"T/A"	"59,4/40,6"	"98/67"	165	stress_42	"POPTR_0009s12420.1"	780	"	"T/A"	"62,8/37,2"	"137/81"	218
controllo_3	"POPTR_0009s12420.1"	780	"	"T/A"	"59,4/40,6"	"98/67"	165	stress_45	"POPTR_0009s12420.1"	780	"	"T/A"	"64,9/35,1"	"144/78"	222
controllo_3	"POPTR_0011s05250.1"	625	"	"C/T"	"59,4/40,6"	"41/28"	69	stress_45	"POPTR_0011s05250.1"	625	"	"T/C"	"65,3/34,7"	"79/42"	121
controllo_3	"POPTR_0001s44110.1"	524	"	"G/A"	"59,4/40,6"	"63/43"	106	stress_12bis	"POPTR_0001s44110.1"	524	"	"G/A"	"56,5/43,5"	"13/10"	23
controllo_3	"POPTR_0016s14310.1"	327	"	"T/A"	"59,4/40,6"	"199/136"	335	stress_12bis	"POPTR_0016s14310.1"	327	"	"T/A"	"56,8/43,2"	"67/51"	118
controllo_3	"POPTR_0016s14310.1"	327	"	"T/A"	"59,4/40,6"	"199/136"	335	stress_42	"POPTR_0016s14310.1"	327	"	"T/A"	"72,7/27,3"	"8/3"	11
controllo_3	"POPTR_0016s14310.1"	327	"	"T/A"	"59,4/40,6"	"199/136"	335	stress_45	"POPTR_0016s14310.1"	327	"	"T/A"	"55,9/44,1"	"19/15"	34
controllo_3	"POPTR_0016s09190.1"	57	"	"A/C"	"59,4/40,6"	"60/41"	101	stress_12bis	"POPTR_0016s09190.1"	57	"	"C/A"	"54,8/45,2"	"17/14"	31
controllo_3	"POPTR_0016s09190.1"	57	"	"A/C"	"59,4/40,6"	"60/41"	101	stress_42	"POPTR_0016s09190.1"	57	"	"A/C"	"61,5/38,5"	"8/5"	13
controllo_3	"POPTR_0016s09190.1"	57	"	"A/C"	"59,4/40,6"	"60/41"	101	stress_45	"POPTR_0016s09190.1"	57	"	"A/C"	"64,5/35,5"	"20/11"	31
controllo_3	"POPTR_0010s20810.1"	93	"	"A/T"	"59,5/40,3"	"2612/1769"	4389	stress_12bis	"POPTR_0010s20810.1"	93	"	"A/T"	"54,2/45,5"	"803/674"	1481
controllo_3	"POPTR_0010s20810.1"	93	"	"A/T"	"59,5/40,3"	"2612/1769"	4389	stress_42	"POPTR_0010s20810.1"	93	"	"T/A"	"64,2/35,8"	"43/24"	67
controllo_3	"POPTR_0010s20810.1"	93	"	"A/T"	"59,5/40,3"	"2612/1769"	4389	stress_45	"POPTR_0010s20810.1"	93	"	"T/A"	"62,3/37,7"	"76/46"	122
controllo_3	"POPTR_0009s12710.1"	754	"	"T/A"	"59,5/40,4"	"1549/1052"	2603	stress_12bis	"POPTR_0009s12710.1"	754	"	"T/A"	"64,6/35,3"	"616/337"	954
controllo_3	"POPTR_0009s12710.1"	754	"	"T/A"	"59,5/40,4"	"1549/1052"	2603	stress_42	"POPTR_0009s12710.1"	754	"	"T/A"	"63,5/36,5"	"94/54"	148
controllo_3	"POPTR_0009s12710.1"	754	"	"T/A"	"59,5/40,4"	"1549/1052"	2603	stress_45	"POPTR_0009s12710.1"	754	"	"T/A"	"61,3/38,7"	"111/70"	181
controllo_3	"POPTR_0006s00470.1"	1610	"	"C/T"	"59,5/40,5"	"78/53"	131	stress_12bis	"POPTR_0006s00470.1"	1610	"	"T/C"	"57,5/42,5"	"23/17"	40
controllo_3	"POPTR_0006s00470.1"	1610	"	"C/T"	"59,5/40,5"	"78/53"	131	stress_42	"POPTR_0006s00470.1"	1610	"	"C/T"	"72,7/27,3"	"16/6"	22
controllo_3	"POPTR_0006s00470.1"	1610	"	"C/T"	"59,5/40,5"	"78/53"	131	stress_45	"POPTR_0006s00470.1"	1610	"	"C/T"	"57,9/42,1"	"22/16"	38
controllo_3	"POPTR_0013s04210.1"	384	"	"C/T"	"59,5/40,5"	"78/53"	131	stress_12bis	"POPTR_0013s04210.1"	384	"	"C/T"	"60,0/40,0"	"27/18"	45
controllo_3	"POPTR_0013s04210.1"	384	"	"C/T"	"59,5/40,5"	"78/53"	131	stress_42	"POPTR_0013s04210.1"	384	"	"T/C"	"60,0/40,0"	"6/4"	10
controllo_3	"POPTR_0013s04210.1"	384	"	"C/T"	"59,5/40,5"	"78/53"	131	stress_45	"POPTR_0013s04210.1"	384	"	"T/C"	"51,4/48,6"	"18/17"	35
controllo_3	"POPTR_0013s01080.1"	1284	"	"G/A"	"59,5/40,5"	"100/68"	168	stress_12bis	"POPTR_0013s01080.1"	1284	"	"G/A"	"58,7/41,3"	"37/26"	63
controllo_3	"POPTR_0013s01080.1"	1284	"	"G/A"	"59,5/40,5"	"100/68"	168	stress_42	"POPTR_0013s01080.1"	1284	"	"G/A"	"58,3/41,7"	"14/10"	24
controllo_3	"POPTR_0013s01080.1"	1284	"	"G/A"	"59,5/40,5"	"100/68"	168	stress_45	"POPTR_0013s01080.1"	1284	"	"G/A"	"52,2/47,8"	"24/22"	46
controllo_3	"POPTR_0014s17940.1"	356	"	"A/G"	"59,5/40,5"	"69/47"	116	stress_12bis	"POPTR_0014s17940.1"	356	"	"A/G"	"71,0/29,0"	"22/9"	31
controllo_3	"POPTR_0014s17940.1"	356	"	"A/G"	"59,5/40,5"	"69/47"	116	stress_42	"POPTR_0014s17940.1"	356	"	"A/G"	"54,5/45,5"	"18/15"	33
controllo_3	"POPTR_0014s17940.1"	356	"	"A/G"	"59,5/40,5"	"69/47"	116	stress_45	"POPTR_0014s17940.1"	356	"	"A/G"	"66,7/33,3"	"22/11"	33
controllo_3	"POPTR_0014s01970.1"	922	"	"T/A"	"59,5/40,5"	"44/30"	74	stress_45	"POPTR_0014s01970.1"	922	"	"A/T"	"53,3/46,7"	"65/57"	122
controllo_3	"POPTR_0004s16920.1"	895	"	"T/G"	"59,5/40,5"	"3276/2231"	5509	stress_12bis	"POPTR_0004s16920.1"	895	"	"T/G"	"59,1/40,9"	"923/640"	1563
controllo_3	"POPTR_0004s16920.1"	895	"	"T/G"	"59,5/40,5"	"3276/2231"	5509	stress_42	"POPTR_0004s16920.1"	895	"	"G/T"	"53,3/46,1"	"96/83"	180
controllo_3	"POPTR_0004s16920.1"	895	"	"T/G"	"59,5/40,5"	"3276/2231"	5509	stress_45	"POPTR_0004s16920.1"	895	"	"G/T"	"50,4/49,6"	"116/114"	230
controllo_3	"POPTR_0007s00300.1"	159	"	"T/C"	"59,5/40,5"	"75/51"	126	stress_12bis	"POPTR_0007s00300.1"	159	"	"T/C"	"53,1/46,9"	"26/23"	49
controllo_3	"POPTR_0007s00300.1"	159	"	"T/C"	"59,5/40,5"	"75/51"	126	stress_42	"POPTR_0007s00300.1"	159	"	"T/C"	"73,3/26,7"	"22/8"	30
controllo_3	"POPTR_0007s00300.1"	159	"	"T/C"	"59,5/40,5"	"75/51"	126	stress_45	"POPTR_0007s00300.1"	159	"	"T/C"	"62,1/37,9"	"18/11"	29
controllo_3	"POPTR_0007s12070.1"	673	"	"G/A"	"59,5/40,5"	"658/448"	1106	stress_12bis	"POPTR_0007s12070.1"	673	"	"G/A"	"60,0/40,0"	"281/187"	468
controllo_3	"POPTR_0007s12070.1"	673	"	"G/A"	"59,5/40,5"	"658/448"	1106	stress_42	"POPTR_0007s12070.1"	673	"	"A/G"	"50,0/50,0"	"47/47"	94
controllo_3	"POPTR_0007s12070.1"	673	"	"G/A"	"59,5/40,5"	"658/448"	1106	stress_45	"POPTR_0007s12070.1"	673	"	"A/G"	"56,7/43,3"	"51/39"	90
controllo_3	"POPTR_0007s11960.1"	507	"	"T/A"	"59,5/40,5"	"69/47"	116	stress_12bis	"POPTR_0007s11960.1"	507	"	"T/A"	"55,9/44,1"	"19/15"	34
controllo_3	"POPTR_0007s11960.1"	507	"	"T/A"	"59,5/40,5"	"69/47"	116	stress_42	"POPTR_0007s11960.1"	507	"	"T/A"	"56,5/43,5"	"52/40"	92
controllo_3	"POPTR_0007s11960.1"	507	"	"T/A"	"59,5/40,5"	"69/47"	116	stress_45	"POPTR_0007s11960.1"	507	"	"T/A"	"59,4/40,6"	"63/43"	106
controllo_3	"POPTR_0008s19160.1"	696	"	"A/G"	"59,5/40,5"	"91/62"	153	stress_12bis	"POPTR_0008s19160.1"	696	"	"A/G"	"68,8/31,2"	"33/15"	48
controllo_3	"POPTR_0001s36560.1"	1225	"	"G/C"	"59,6/40,3"	"452/306"	759	stress_12bis	"POPTR_0001s36560.1"	1225	"	"G/C"	"57,8/42,2"	"130/95"	225
controllo_3	"POPTR_0001s36560.1"	1225	"	"G/C"	"59,6/40,3"	"452/306"	759	stress_42	"POPTR_0001s36560.1"	1225	"	"G/C"	"56,8/43,2"	"21/16"	37
controllo_3	"POPTR_0001s36560.1"	1225	"	"G/C"	"59,6/40,3"	"452/306"	759	stress_45	"POPTR_0001s36560.1"	1225	"	"G/C"	"53,4/46,6"	"39/34"	73
controllo_3	"POPTR_0005s22830.1"	541	"	"C/A"	"59,6/40,4"	"220/149"	369	stress_12bis	"POPTR_0005s22830.1"	541	"	"A/C"	"51,4/48,0"	"92/86"	179
controllo_3	"POPTR_0005s22830.1"	541	"	"C/A"	"59,6/40,4"	"220/149"	369	stress_42	"POPTR_0005s22830.1"	541	"	"A/C"	"51,6/48,4"	"66/62"	128
controllo_3	"POPTR_0005s22830.1"	541	"	"C/A"	"59,6/40,4"	"220/149"	369	stress_45	"POPTR_0005s22830.1"	541	"	"C/A"	"53,5/46,5"	"53/46"	99
controllo_3	"POPTR_0006s20440.1"	600	"	"C/T"	"59,6/40,4"	"68/46"	114	stress_12bis	"POPTR_0006s20440.1"	600	"	"T/C"	"53,8/46,2"	"21/18"	39
controllo_3	"POPTR_0006s20440.1"	600	"	"C/T"	"59,6/40,4"	"68/46"	114	stress_42	"POPTR_0006s20440.1"	600	"	"T/C"	"63,6/36,4"	"14/8"	22
controllo_3	"POPTR_0006s20440.1"	600	"	"C/T"	"59,6/40,4"	"68/46"	114	stress_45	"POPTR_0006s20440.1"	600	"	"T/C"	"55,6/44,4"	"20/16"	36
controllo_3	"POPTR_0006s04960.1"	2524	"	"G/A"	"59,6/40,4"	"102/69"	171	stress_12bis	"POPTR_0006s04960.1"	2524	"	"G/A"	"61,3/38,7"	"19/12"	31
controllo_3	"POPTR_0006s04960.1"	2524	"	"G/A"	"59,6/40,4"	"102/69"	171	stress_42	"POPTR_0006s04960.1"	2524	"	"G/A"	"54,5/45,5"	"6/5"	11
controllo_3	"POPTR_0006s04960.1"	2524	"	"G/A"	"59,6/40,4"	"102/69"	171	stress_45	"POPTR_0006s04960.1"	2524	"	"G/A"	"54,2/45,8"	"13/11"	24
controllo_3	"POPTR_0006s00780.1"	1950	"	"T/C"	"59,6/40,4"	"62/42"	104	stress_12bis	"POPTR_0006s00780.1"	1950	"	"C/T"	"58,8/41,2"	"10/7"	17
controllo_3	"POPTR_0006s00780.1"	1950	"	"T/C"	"59,6/40,4"	"62/42"	104	stress_45	"POPTR_0006s00780.1"	1950	"	"T/C"	"68,8/31,2"	"11/5"	16
controllo_3	"POPTR_0006s16030.1"	120	"	"G/C"	"59,6/40,4"	"109/74"	183	stress_45	"POPTR_0006s16030.1"	120	"	"C/G"	"84,6/15,4"	"11/2"	13
controllo_3	"POPTR_0018s02960.1"	86	"	"T/C"	"59,6/40,4"	"65/44"	109	stress_12bis	"POPTR_0018s02960.1"	86	"	"C/T"	"53,3/46,7"	"8/7"	15
controllo_3	"POPTR_0018s02960.1"	86	"	"T/C"	"59,6/40,4"	"65/44"	109	stress_42	"POPTR_0018s02960.1"	86	"	"C/T"	"50,0/50,0"	"6/6"	12
controllo_3	"POPTR_0018s02960.1"	86	"	"T/C"	"59,6/40,4"	"65/44"	109	stress_45	"POPTR_0018s02960.1"	86	"	"C/T"	"70,0/30,0"	"14/6"	20
controllo_3	"POPTR_0019s10280.1"	102	"	"G/C"	"59,6/40,4"	"195/132"	327	stress_12bis	"POPTR_0019s10280.1"	102	"	"G/C"	"55,3/44,7"	"52/42"	94
controllo_3	"POPTR_0019s10280.1"	102	"	"G/C"	"59,6/40,4"	"195/132"	327	stress_42	"POPTR_0019s10280.1"	102	"	"G/C"	"53,7/46,3"	"22/19"	41
controllo_3	"POPTR_0019s10280.1"	102	"	"G/C"	"59,6/40,4"	"195/132"	327	stress_45	"POPTR_0019s10280.1"	102	"	"G/C"	"65,0/35,0"	"26/14"	40
controllo_3	"POPTR_0013s07150.1"	1278	"	"T/C"	"59,6/40,4"	"93/63"	156	stress_12bis	"POPTR_0013s07150.1"	1278	"	"C/T"	"57,1/42,9"	"16/12"	28
controllo_3	"POPTR_0013s07150.1"	1278	"	"T/C"	"59,6/40,4"	"93/63"	156	stress_45	"POPTR_0013s07150.1"	1278	"	"C/T"	"50,0/50,0"	"10/10"	20
controllo_3	"POPTR_0014s13560.1"	1959	"	"C/G"	"59,6/40,4"	"285/193"	478	stress_12bis	"POPTR_0014s13560.1"	1959	"	"C/G"	"55,4/44,6"	"103/83"	186
controllo_3	"POPTR_0014s13560.1"	1959	"	"C/G"	"59,6/40,4"	"285/193"	478	stress_42	"POPTR_0014s13560.1"	1959	"	"C/G"	"65,9/34,1"	"81/42"	123
controllo_3	"POPTR_0014s13560.1"	1959	"	"C/G"	"59,6/40,4"	"285/193"	478	stress_45	"POPTR_0014s13560.1"	1959	"	"C/G"	"69,8/30,2"	"97/42"	139
controllo_3	"POPTR_0014s14200.1"	673	"	"G/A"	"59,6/40,4"	"146/99"	245	stress_12bis	"POPTR_0014s14200.1"	673	"	"A/G"	"75,0/25,0"	"9/3"	12
controllo_3	"POPTR_0014s14200.1"	673	"	"G/A"	"59,6/40,4"	"146/99"	245	stress_42	"POPTR_0014s14200.1"	673	"	"G/A"	"72,0/28,0"	"18/7"	25
controllo_3	"POPTR_0014s14200.1"	673	"	"G/A"	"59,6/40,4"	"146/99"	245	stress_45	"POPTR_0014s14200.1"	673	"	"G/A"	"79,8/20,2"	"75/19"	94
controllo_3	"POPTR_0014s14370.1"	181	"	"G/A"	"59,6/40,4"	"224/152"	376	stress_12bis	"POPTR_0014s14370.1"	181	"	"G/A"	"62,5/37,5"	"25/15"	40
controllo_3	"POPTR_0014s14370.1"	181	"	"G/A"	"59,6/40,4"	"224/152"	376	stress_42	"POPTR_0014s14370.1"	181	"	"G/A"	"52,9/47,1"	"18/16"	34
controllo_3	"POPTR_0014s14370.1"	181	"	"G/A"	"59,6/40,4"	"224/152"	376	stress_45	"POPTR_0014s14370.1"	181	"	"A/G"	"61,0/39,0"	"36/23"	59
controllo_3	"POPTR_0004s07280.1"	1022	"	"G/A"	"59,6/40,4"	"68/46"	114	stress_12bis	"POPTR_0004s07280.1"	1022	"	"G/A"	"63,9/36,1"	"23/13"	36
controllo_3	"POPTR_0004s07280.1"	1022	"	"G/A"	"59,6/40,4"	"68/46"	114	stress_42	"POPTR_0004s07280.1"	1022	"	"G/A"	"59,4/40,6"	"19/13"	32
controllo_3	"POPTR_0004s07280.1"	1022	"	"G/A"	"59,6/40,4"	"68/46"	114	stress_45	"POPTR_0004s07280.1"	1022	"	"A/G"	"54,3/45,7"	"19/16"	35
controllo_3	"POPTR_0004s24420.1"	114	"	"C/T"	"59,6/40,4"	"96/65"	161	stress_12bis	"POPTR_0004s24420.1"	114	"	"T/C"	"62,0/38,0"	"31/19"	50
controllo_3	"POPTR_0004s24420.1"	114	"	"C/T"	"59,6/40,4"	"96/65"	161	stress_42	"POPTR_0004s24420.1"	114	"	"T/C"	"54,3/45,7"	"51/43"	94
controllo_3	"POPTR_0004s24420.1"	114	"	"C/T"	"59,6/40,4"	"96/65"	161	stress_45	"POPTR_0004s24420.1"	114	"	"T/C"	"63,2/36,8"	"48/28"	76
controllo_3	"POPTR_0012s04560.1"	199	"	"G/C"	"59,6/40,4"	"84/57"	141	stress_12bis	"POPTR_0012s04560.1"	199	"	"G/C"	"56,5/43,5"	"26/20"	46
controllo_3	"POPTR_0012s04560.1"	199	"	"G/C"	"59,6/40,4"	"84/57"	141	stress_42	"POPTR_0012s04560.1"	199	"	"C/G"	"68,8/31,2"	"11/5"	16
controllo_3	"POPTR_0012s04560.1"	199	"	"G/C"	"59,6/40,4"	"84/57"	141	stress_45	"POPTR_0012s04560.1"	199	"	"C/G"	"56,5/43,5"	"13/10"	23
controllo_3	"POPTR_0012s06320.1"	2544	"	"G/A"	"59,6/40,4"	"62/42"	104	stress_12bis	"POPTR_0012s06320.1"	2544	"	"G/A"	"52,0/48,0"	"26/24"	50
controllo_3	"POPTR_0012s06320.1"	2544	"	"G/A"	"59,6/40,4"	"62/42"	104	stress_42	"POPTR_0012s06320.1"	2544	"	"G/A"	"60,8/39,2"	"31/20"	51
controllo_3	"POPTR_0012s06320.1"	2544	"	"G/A"	"59,6/40,4"	"62/42"	104	stress_45	"POPTR_0012s06320.1"	2544	"	"G/A"	"55,1/44,9"	"43/35"	78
controllo_3	"POPTR_0011s02770.1"	73	"	"G/C"	"59,6/40,4"	"334/226"	560	stress_12bis	"POPTR_0011s02770.1"	73	"	"C/G"	"69,2/30,8"	"81/36"	117
controllo_3	"POPTR_0011s02770.1"	73	"	"G/C"	"59,6/40,4"	"334/226"	560	stress_42	"POPTR_0011s02770.1"	73	"	"C/G"	"71,4/28,6"	"30/12"	42
controllo_3	"POPTR_0011s02770.1"	73	"	"G/C"	"59,6/40,4"	"334/226"	560	stress_45	"POPTR_0011s02770.1"	73	"	"C/G"	"75,0/25,0"	"39/13"	52
controllo_3	"POPTR_0015s06230.1"	753	"	"C/T"	"59,6/40,4"	"96/65"	161	stress_12bis	"POPTR_0015s06230.1"	753	"	"C/T"	"81,8/18,2"	"18/4"	22
controllo_3	"POPTR_0001s11600.1"	648	"	"T/C"	"59,6/40,4"	"269/182"	451	stress_12bis	"POPTR_0001s11600.1"	648	"	"T/C"	"61,2/38,1"	"82/51"	134
controllo_3	"POPTR_0001s11600.1"	648	"	"T/C"	"59,6/40,4"	"269/182"	451	stress_42	"POPTR_0001s11600.1"	648	"	"C/T"	"50,0/50,0"	"13/13"	26
controllo_3	"POPTR_0001s11600.1"	648	"	"T/C"	"59,6/40,4"	"269/182"	451	stress_45	"POPTR_0001s11600.1"	648	"	"C/T"	"60,6/39,4"	"20/13"	33
controllo_3	"POPTR_0001s41830.1"	1794	"	"C/T"	"59,6/40,4"	"62/42"	104	stress_12bis	"POPTR_0001s41830.1"	1794	"	"T/C"	"52,8/47,2"	"19/17"	36
controllo_3	"POPTR_0001s41830.1"	1794	"	"C/T"	"59,6/40,4"	"62/42"	104	stress_42	"POPTR_0001s41830.1"	1794	"	"C/T"	"78,0/18,6"	"46/11"	59
controllo_3	"POPTR_0001s41830.1"	1794	"	"C/T"	"59,6/40,4"	"62/42"	104	stress_45	"POPTR_0001s41830.1"	1794	"	"C/T"	"68,1/31,9"	"47/22"	69
controllo_3	"POPTR_0001s41780.1"	123	"	"C/T"	"59,6/40,4"	"195/132"	327	stress_12bis	"POPTR_0001s41780.1"	123	"	"T/C"	"53,6/44,6"	"30/25"	56
controllo_3	"POPTR_0001s41780.1"	123	"	"C/T"	"59,6/40,4"	"195/132"	327	stress_42	"POPTR_0001s41780.1"	123	"	"T/C"	"56,8/43,2"	"21/16"	37
controllo_3	"POPTR_0001s41780.1"	123	"	"C/T"	"59,6/40,4"	"195/132"	327	stress_45	"POPTR_0001s41780.1"	123	"	"C/T"	"56,4/43,6"	"31/24"	55
controllo_3	"POPTR_0001s10040.1"	503	"	"A/G"	"59,6/40,4"	"87/59"	146	stress_12bis	"POPTR_0001s10040.1"	503	"	"A/G"	"54,2/45,8"	"26/22"	48
controllo_3	"POPTR_0001s10040.1"	503	"	"A/G"	"59,6/40,4"	"87/59"	146	stress_42	"POPTR_0001s10040.1"	503	"	"G/A"	"50,8/49,2"	"31/30"	61
controllo_3	"POPTR_0001s10040.1"	503	"	"A/G"	"59,6/40,4"	"87/59"	146	stress_45	"POPTR_0001s10040.1"	503	"	"A/G"	"57,5/42,5"	"50/37"	87
controllo_3	"POPTR_0008s05480.1"	66	"	"T/A"	"59,6/40,4"	"121/82"	203	stress_12bis	"POPTR_0008s05480.1"	66	"	"T/A"	"59,7/40,3"	"37/25"	62
controllo_3	"POPTR_0008s05480.1"	66	"	"T/A"	"59,6/40,4"	"121/82"	203	stress_42	"POPTR_0008s05480.1"	66	"	"A/T"	"50,0/50,0"	"15/15"	30
controllo_3	"POPTR_0008s05480.1"	66	"	"T/A"	"59,6/40,4"	"121/82"	203	stress_45	"POPTR_0008s05480.1"	66	"	"A/T"	"62,0/38,0"	"49/30"	79
controllo_3	"POPTR_0008s20950.1"	106	"	"G/T"	"59,6/40,4"	"81/55"	136	stress_12bis	"POPTR_0008s20950.1"	106	"	"G/T"	"78,6/21,4"	"33/9"	42
controllo_3	"POPTR_0008s20950.1"	106	"	"G/T"	"59,6/40,4"	"81/55"	136	stress_45	"POPTR_0008s20950.1"	106	"	"G/T"	"75,0/25,0"	"12/4"	16
controllo_3	"POPTR_0008s06720.1"	26	"	"T/C"	"59,6/40,4"	"731/496"	1227	stress_12bis	"POPTR_0008s06720.1"	26	"	"T/C"	"63,6/36,4"	"241/138"	379
controllo_3	"POPTR_0008s06720.1"	26	"	"T/C"	"59,6/40,4"	"731/496"	1227	stress_42	"POPTR_0008s06720.1"	26	"	"C/T"	"52,6/47,4"	"40/36"	76
controllo_3	"POPTR_0008s06720.1"	26	"	"T/C"	"59,6/40,4"	"731/496"	1227	stress_45	"POPTR_0008s06720.1"	26	"	"C/T"	"63,7/36,3"	"65/37"	102
controllo_3	"POPTR_0005s26610.1"	924	"	"T/C"	"59,7/40,3"	"80/54"	134	stress_12bis	"POPTR_0005s26610.1"	924	"	"T/C"	"51,9/48,1"	"41/38"	79
controllo_3	"POPTR_0005s26610.1"	924	"	"T/C"	"59,7/40,3"	"80/54"	134	stress_42	"POPTR_0005s26610.1"	924	"	"T/C"	"55,8/44,2"	"82/65"	147
controllo_3	"POPTR_0005s26610.1"	924	"	"T/C"	"59,7/40,3"	"80/54"	134	stress_45	"POPTR_0005s26610.1"	924	"	"T/C"	"57,7/42,3"	"71/52"	123
controllo_3	"POPTR_0005s24490.1"	1489	"	"T/G"	"59,7/40,3"	"80/54"	134	stress_12bis	"POPTR_0005s24490.1"	1489	"	"T/G"	"71,7/28,3"	"71/28"	99
controllo_3	"POPTR_0005s24490.1"	1489	"	"T/G"	"59,7/40,3"	"80/54"	134	stress_42	"POPTR_0005s24490.1"	1489	"	"G/T"	"54,5/45,5"	"18/15"	33
controllo_3	"POPTR_0005s24490.1"	1489	"	"T/G"	"59,7/40,3"	"80/54"	134	stress_45	"POPTR_0005s24490.1"	1489	"	"T/G"	"51,6/48,4"	"33/31"	64
controllo_3	"POPTR_0017s00850.1"	330	"	"T/C"	"59,7/40,3"	"77/52"	129	stress_42	"POPTR_0017s00850.1"	330	"	"C/T"	"64,1/35,9"	"41/23"	64
controllo_3	"POPTR_0017s00850.1"	330	"	"T/C"	"59,7/40,3"	"77/52"	129	stress_45	"POPTR_0017s00850.1"	330	"	"C/T"	"51,1/48,9"	"46/44"	90
controllo_3	"POPTR_0017s00850.1"	366	"	"A/C"	"59,7/40,3"	"80/54"	134	stress_42	"POPTR_0017s00850.1"	366	"	"C/A"	"53,4/46,6"	"39/34"	73
controllo_3	"POPTR_0017s00850.1"	366	"	"A/C"	"59,7/40,3"	"80/54"	134	stress_45	"POPTR_0017s00850.1"	366	"	"A/C"	"50,0/50,0"	"37/37"	74
controllo_3	"POPTR_0017s06450.1"	162	"	"G/C"	"59,7/40,3"	"141/95"	236	stress_12bis	"POPTR_0017s06450.1"	162	"	"G/C"	"52,2/47,8"	"36/33"	69
controllo_3	"POPTR_0017s06450.1"	162	"	"G/C"	"59,7/40,3"	"141/95"	236	stress_42	"POPTR_0017s06450.1"	162	"	"C/G"	"56,0/44,0"	"14/11"	25
controllo_3	"POPTR_0017s06450.1"	162	"	"G/C"	"59,7/40,3"	"141/95"	236	stress_45	"POPTR_0017s06450.1"	162	"	"G/C"	"53,7/46,3"	"29/25"	54
controllo_3	"POPTR_0017s06920.1"	69	"	"G/A"	"59,7/40,3"	"641/432"	1073	stress_12bis	"POPTR_0017s06920.1"	69	"	"G/A"	"57,7/42,3"	"179/131"	310
controllo_3	"POPTR_0017s06920.1"	69	"	"G/A"	"59,7/40,3"	"641/432"	1073	stress_45	"POPTR_0017s06920.1"	69	"	"G/A"	"76,9/23,1"	"10/3"	13
controllo_3	"POPTR_0006s21650.1"	266	"	"A/G"	"59,7/40,3"	"71/48"	119	stress_12bis	"POPTR_0006s21650.1"	266	"	"A/G"	"63,6/36,4"	"35/20"	55
controllo_3	"POPTR_0006s21650.1"	266	"	"A/G"	"59,7/40,3"	"71/48"	119	stress_45	"POPTR_0006s21650.1"	266	"	"A/G"	"68,4/31,6"	"13/6"	19
controllo_3	"POPTR_0006s20440.1"	126	"	"C/A"	"59,7/40,3"	"92/62"	154	stress_12bis	"POPTR_0006s20440.1"	126	"	"C/A"	"56,7/43,3"	"34/26"	60
controllo_3	"POPTR_0006s20440.1"	126	"	"C/A"	"59,7/40,3"	"92/62"	154	stress_42	"POPTR_0006s20440.1"	126	"	"C/A"	"58,8/41,2"	"10/7"	17
controllo_3	"POPTR_0006s20440.1"	126	"	"C/A"	"59,7/40,3"	"92/62"	154	stress_45	"POPTR_0006s20440.1"	126	"	"C/A"	"60,8/39,2"	"31/20"	51
controllo_3	"POPTR_0019s04970.1"	690	"	"A/G"	"59,7/40,3"	"92/62"	154	stress_12bis	"POPTR_0019s04970.1"	690	"	"A/G"	"79,5/20,5"	"35/9"	44
controllo_3	"POPTR_0014s09180.1"	192	"	"T/C"	"59,7/40,3"	"135/91"	226	stress_12bis	"POPTR_0014s09180.1"	192	"	"T/C"	"59,6/40,4"	"34/23"	57
controllo_3	"POPTR_0014s09180.1"	192	"	"T/C"	"59,7/40,3"	"135/91"	226	stress_45	"POPTR_0014s09180.1"	192	"	"T/C"	"75,0/25,0"	"9/3"	12
controllo_3	"POPTR_0009s01470.1"	1551	"	"A/T"	"59,7/40,3"	"132/89"	221	stress_12bis	"POPTR_0009s01470.1"	1551	"	"A/T"	"56,3/43,7"	"40/31"	71
controllo_3	"POPTR_0009s01470.1"	1551	"	"A/T"	"59,7/40,3"	"132/89"	221	stress_42	"POPTR_0009s01470.1"	1551	"	"A/T"	"67,6/32,4"	"23/11"	34
controllo_3	"POPTR_0009s01470.1"	1551	"	"A/T"	"59,7/40,3"	"132/89"	221	stress_45	"POPTR_0009s01470.1"	1551	"	"A/T"	"65,0/35,0"	"39/21"	60
controllo_3	"POPTR_0011s02610.1"	585	"	"A/T"	"59,7/40,3"	"105/71"	176	stress_12bis	"POPTR_0011s02610.1"	585	"	"A/T"	"56,7/43,3"	"17/13"	30
controllo_3	"POPTR_0011s02610.1"	585	"	"A/T"	"59,7/40,3"	"105/71"	176	stress_45	"POPTR_0011s02610.1"	585	"	"A/T"	"69,2/30,8"	"9/4"	13
controllo_3	"POPTR_0001s14280.1"	1365	"	"G/C"	"59,7/40,3"	"40/27"	67	stress_42	"POPTR_0001s14280.1"	1365	"	"G/C"	"57,0/43,0"	"73/55"	128
controllo_3	"POPTR_0001s14280.1"	1365	"	"G/C"	"59,7/40,3"	"40/27"	67	stress_45	"POPTR_0001s14280.1"	1365	"	"G/C"	"58,6/41,4"	"65/46"	111
controllo_3	"POPTR_0001s41780.1"	633	"	"A/G"	"59,7/40,3"	"139/94"	233	stress_12bis	"POPTR_0001s41780.1"	633	"	"A/G"	"57,7/42,3"	"15/11"	26
controllo_3	"POPTR_0001s41780.1"	633	"	"A/G"	"59,7/40,3"	"139/94"	233	stress_42	"POPTR_0001s41780.1"	633	"	"A/G"	"73,7/26,3"	"14/5"	19
controllo_3	"POPTR_0001s41780.1"	633	"	"A/G"	"59,7/40,3"	"139/94"	233	stress_45	"POPTR_0001s41780.1"	633	"	"A/G"	"52,9/47,1"	"9/8"	17
controllo_3	"POPTR_0010s14080.1"	1538	"	"A/G"	"59,7/40,3"	"132/89"	221	stress_12bis	"POPTR_0010s14080.1"	1538	"	"A/G"	"72,3/27,7"	"60/23"	83
controllo_3	"POPTR_0010s14080.1"	1538	"	"A/G"	"59,7/40,3"	"132/89"	221	stress_42	"POPTR_0010s14080.1"	1538	"	"A/G"	"78,4/21,6"	"29/8"	37
controllo_3	"POPTR_0010s14080.1"	1538	"	"A/G"	"59,7/40,3"	"132/89"	221	stress_45	"POPTR_0010s14080.1"	1538	"	"A/G"	"68,2/31,8"	"30/14"	44
controllo_3	"POPTR_0007s14390.1"	1125	"	"T/C"	"59,7/40,3"	"139/94"	233	stress_12bis	"POPTR_0007s14390.1"	1125	"	"C/T"	"64,4/35,6"	"38/21"	59
controllo_3	"POPTR_0007s14390.1"	1125	"	"T/C"	"59,7/40,3"	"139/94"	233	stress_42	"POPTR_0007s14390.1"	1125	"	"T/C"	"55,1/44,9"	"27/22"	49
controllo_3	"POPTR_0007s14390.1"	1125	"	"T/C"	"59,7/40,3"	"139/94"	233	stress_45	"POPTR_0007s14390.1"	1125	"	"T/C"	"54,5/45,5"	"36/30"	66
controllo_3	"POPTR_0002s08150.1"	500	"	"C/A"	"59,7/40,3"	"46/31"	77	stress_45	"POPTR_0002s08150.1"	500	"	"A/C"	"51,5/48,5"	"85/80"	165
controllo_3	"POPTR_0002s22560.1"	678	"	"T/C"	"59,7/40,3"	"482/325"	807	stress_12bis	"POPTR_0002s22560.1"	678	"	"T/C"	"57,2/42,8"	"202/151"	353
controllo_3	"POPTR_0002s22560.1"	678	"	"T/C"	"59,7/40,3"	"482/325"	807	stress_42	"POPTR_0002s22560.1"	678	"	"C/T"	"50,7/49,3"	"37/36"	73
controllo_3	"POPTR_0002s22560.1"	678	"	"T/C"	"59,7/40,3"	"482/325"	807	stress_45	"POPTR_0002s22560.1"	678	"	"C/T"	"56,3/43,7"	"89/69"	158
controllo_3	"POPTR_0002s24310.1"	555	"	"T/G"	"59,7/40,3"	"71/48"	119	stress_12bis	"POPTR_0002s24310.1"	555	"	"G/T"	"51,7/48,3"	"15/14"	29
controllo_3	"POPTR_0002s24310.1"	555	"	"T/G"	"59,7/40,3"	"71/48"	119	stress_42	"POPTR_0002s24310.1"	555	"	"T/G"	"64,3/35,7"	"18/10"	28
controllo_3	"POPTR_0002s24310.1"	555	"	"T/G"	"59,7/40,3"	"71/48"	119	stress_45	"POPTR_0002s24310.1"	555	"	"T/G"	"69,6/30,4"	"16/7"	23
controllo_3	"POPTR_0008s03900.1"	108	"	"T/A"	"59,7/40,3"	"71/48"	119	stress_12bis	"POPTR_0008s03900.1"	108	"	"T/A"	"76,9/23,1"	"20/6"	26
controllo_3	"POPTR_0008s03900.1"	108	"	"T/A"	"59,7/40,3"	"71/48"	119	stress_42	"POPTR_0008s03900.1"	108	"	"T/A"	"60,6/39,4"	"20/13"	33
controllo_3	"POPTR_0008s03900.1"	108	"	"T/A"	"59,7/40,3"	"71/48"	119	stress_45	"POPTR_0008s03900.1"	108	"	"T/A"	"68,1/31,9"	"32/15"	47
controllo_3	"POPTR_0003s20870.1"	1248	"	"C/T"	"59,8/39,0"	"98/64"	164	stress_12bis	"POPTR_0003s20870.1"	1248	"	"C/T"	"65,5/34,5"	"19/10"	29
controllo_3	"POPTR_0003s20870.1"	1248	"	"C/T"	"59,8/39,0"	"98/64"	164	stress_42	"POPTR_0003s20870.1"	1248	"	"C/T"	"60,0/40,0"	"9/6"	15
controllo_3	"POPTR_0003s20870.1"	1248	"	"C/T"	"59,8/39,0"	"98/64"	164	stress_45	"POPTR_0003s20870.1"	1248	"	"C/T"	"62,5/37,5"	"15/9"	24
controllo_3	"POPTR_0001s01630.1"	527	"	"T/A"	"59,8/39,7"	"122/81"	204	stress_12bis	"POPTR_0001s01630.1"	527	"	"T/A"	"61,9/38,1"	"26/16"	42
controllo_3	"POPTR_0001s01630.1"	527	"	"T/A"	"59,8/39,7"	"122/81"	204	stress_45	"POPTR_0001s01630.1"	527	"	"T/A"	"70,0/30,0"	"7/3"	10
controllo_3	"POPTR_0008s05640.1"	465	"	"G/A"	"59,8/39,7"	"113/75"	189	stress_12bis	"POPTR_0008s05640.1"	465	"	"G/A"	"56,9/43,1"	"29/22"	51
controllo_3	"POPTR_0008s05640.1"	465	"	"G/A"	"59,8/39,7"	"113/75"	189	stress_42	"POPTR_0008s05640.1"	465	"	"G/A"	"55,9/44,1"	"19/15"	34
controllo_3	"POPTR_0008s05640.1"	465	"	"G/A"	"59,8/39,7"	"113/75"	189	stress_45	"POPTR_0008s05640.1"	465	"	"G/A"	"54,7/45,3"	"29/24"	53
controllo_3	"POPTR_0006s21650.1"	165	"	"T/C"	"59,8/40,2"	"70/47"	117	stress_12bis	"POPTR_0006s21650.1"	165	"	"T/C"	"72,9/27,1"	"35/13"	48
controllo_3	"POPTR_0006s10080.1"	542	"	"A/G"	"59,8/40,2"	"110/74"	184	stress_12bis	"POPTR_0006s10080.1"	542	"	"A/G"	"60,0/40,0"	"36/24"	60
controllo_3	"POPTR_0006s10080.1"	542	"	"A/G"	"59,8/40,2"	"110/74"	184	stress_42	"POPTR_0006s10080.1"	542	"	"G/A"	"55,6/44,4"	"25/20"	45
controllo_3	"POPTR_0006s10080.1"	542	"	"A/G"	"59,8/40,2"	"110/74"	184	stress_45	"POPTR_0006s10080.1"	542	"	"G/A"	"53,1/46,9"	"85/75"	160
controllo_3	"POPTR_0006s03660.1"	1215	"	"T/G"	"59,8/40,2"	"73/49"	122	stress_12bis	"POPTR_0006s03660.1"	1215	"	"T/G"	"57,1/42,9"	"12/9"	21
controllo_3	"POPTR_0006s03660.1"	1215	"	"T/G"	"59,8/40,2"	"73/49"	122	stress_45	"POPTR_0006s03660.1"	1215	"	"T/G"	"55,6/44,4"	"10/8"	18
controllo_3	"POPTR_0006s12910.1"	780	"	"G/A"	"59,8/40,2"	"257/173"	430	stress_12bis	"POPTR_0006s12910.1"	780	"	"G/A"	"50,7/49,3"	"69/67"	136
controllo_3	"POPTR_0006s12910.1"	780	"	"G/A"	"59,8/40,2"	"257/173"	430	stress_42	"POPTR_0006s12910.1"	780	"	"G/A"	"54,4/45,6"	"56/47"	103
controllo_3	"POPTR_0006s12910.1"	780	"	"G/A"	"59,8/40,2"	"257/173"	430	stress_45	"POPTR_0006s12910.1"	780	"	"G/A"	"58,5/41,5"	"72/51"	123
controllo_3	"POPTR_0018s02960.1"	828	"	"T/G"	"59,8/40,2"	"79/53"	132	stress_12bis	"POPTR_0018s02960.1"	828	"	"G/T"	"52,2/47,8"	"12/11"	23
controllo_3	"POPTR_0018s02960.1"	828	"	"T/G"	"59,8/40,2"	"79/53"	132	stress_42	"POPTR_0018s02960.1"	828	"	"G/T"	"55,0/45,0"	"11/9"	20
controllo_3	"POPTR_0018s02960.1"	828	"	"T/G"	"59,8/40,2"	"79/53"	132	stress_45	"POPTR_0018s02960.1"	828	"	"G/T"	"52,9/47,1"	"9/8"	17
controllo_3	"POPTR_0018s02960.1"	915	"	"G/A"	"59,8/40,2"	"107/72"	179	stress_12bis	"POPTR_0018s02960.1"	915	"	"G/A"	"58,3/41,7"	"7/5"	12
controllo_3	"POPTR_0018s02960.1"	915	"	"G/A"	"59,8/40,2"	"107/72"	179	stress_42	"POPTR_0018s02960.1"	915	"	"A/G"	"66,7/33,3"	"12/6"	18
controllo_3	"POPTR_0018s02960.1"	915	"	"G/A"	"59,8/40,2"	"107/72"	179	stress_45	"POPTR_0018s02960.1"	915	"	"A/G"	"59,3/40,7"	"16/11"	27
controllo_3	"POPTR_0003s08180.1"	363	"	"C/T"	"59,8/40,2"	"61/41"	102	stress_12bis	"POPTR_0003s08180.1"	363	"	"T/C"	"54,2/45,8"	"13/11"	24
controllo_3	"POPTR_0003s08180.1"	363	"	"C/T"	"59,8/40,2"	"61/41"	102	stress_42	"POPTR_0003s08180.1"	363	"	"C/T"	"81,8/18,2"	"9/2"	11
controllo_3	"POPTR_0003s08180.1"	363	"	"C/T"	"59,8/40,2"	"61/41"	102	stress_45	"POPTR_0003s08180.1"	363	"	"C/T"	"50,0/50,0"	"8/8"	16
controllo_3	"POPTR_0003s20840.1"	1626	"	"C/T"	"59,8/40,2"	"55/37"	92	stress_12bis	"POPTR_0003s20840.1"	1626	"	"C/T"	"58,9/41,1"	"73/51"	124
controllo_3	"POPTR_0013s15560.1"	141	"	"A/G"	"59,8/40,2"	"64/43"	107	stress_12bis	"POPTR_0013s15560.1"	141	"	"A/G"	"51,5/48,5"	"17/16"	33
controllo_3	"POPTR_0013s15560.1"	141	"	"A/G"	"59,8/40,2"	"64/43"	107	stress_42	"POPTR_0013s15560.1"	141	"	"G/A"	"51,7/48,3"	"74/69"	143
controllo_3	"POPTR_0013s15560.1"	141	"	"A/G"	"59,8/40,2"	"64/43"	107	stress_45	"POPTR_0013s15560.1"	141	"	"G/A"	"55,8/43,6"	"92/72"	165
controllo_3	"POPTR_0014s14200.1"	144	"	"G/A"	"59,8/40,2"	"150/101"	251	stress_12bis	"POPTR_0014s14200.1"	144	"	"A/G"	"83,3/16,7"	"10/2"	12
controllo_3	"POPTR_0014s14200.1"	144	"	"G/A"	"59,8/40,2"	"150/101"	251	stress_42	"POPTR_0014s14200.1"	144	"	"G/A"	"68,4/31,6"	"13/6"	19
controllo_3	"POPTR_0014s14200.1"	144	"	"G/A"	"59,8/40,2"	"150/101"	251	stress_45	"POPTR_0014s14200.1"	144	"	"G/A"	"63,7/36,3"	"58/33"	91
controllo_3	"POPTR_0014s10260.1"	1641	"	"C/T"	"59,8/40,2"	"119/80"	199	stress_12bis	"POPTR_0014s10260.1"	1641	"	"C/T"	"54,2/45,8"	"26/22"	48
controllo_3	"POPTR_0014s10260.1"	1641	"	"C/T"	"59,8/40,2"	"119/80"	199	stress_42	"POPTR_0014s10260.1"	1641	"	"C/T"	"62,8/37,2"	"27/16"	43
controllo_3	"POPTR_0014s10260.1"	1641	"	"C/T"	"59,8/40,2"	"119/80"	199	stress_45	"POPTR_0014s10260.1"	1641	"	"C/T"	"63,6/36,4"	"42/24"	66
controllo_3	"POPTR_0004s23490.1"	646	"	"A/G"	"59,8/40,2"	"70/47"	117	stress_12bis	"POPTR_0004s23490.1"	646	"	"G/A"	"53,6/42,9"	"15/12"	28
controllo_3	"POPTR_0004s23490.1"	646	"	"A/G"	"59,8/40,2"	"70/47"	117	stress_42	"POPTR_0004s23490.1"	646	"	"A/G"	"60,0/40,0"	"12/8"	20
controllo_3	"POPTR_0004s23490.1"	646	"	"A/G"	"59,8/40,2"	"70/47"	117	stress_45	"POPTR_0004s23490.1"	646	"	"A/G"	"58,8/41,2"	"40/28"	68
controllo_3	"POPTR_0004s01990.1"	837	"	"C/T"	"59,8/40,2"	"336/226"	562	stress_12bis	"POPTR_0004s01990.1"	837	"	"C/T"	"66,7/33,3"	"70/35"	105
controllo_3	"POPTR_0004s01030.1"	241	"	"C/A"	"59,8/40,2"	"61/41"	102	stress_12bis	"POPTR_0004s01030.1"	241	"	"A/C"	"50,0/50,0"	"13/13"	26
controllo_3	"POPTR_0004s01030.1"	241	"	"C/A"	"59,8/40,2"	"61/41"	102	stress_45	"POPTR_0004s01030.1"	241	"	"A/C"	"52,9/47,1"	"9/8"	17
controllo_3	"POPTR_0009s13650.1"	399	"	"A/G"	"59,8/40,2"	"73/49"	122	stress_12bis	"POPTR_0009s13650.1"	399	"	"A/G"	"53,8/46,2"	"42/36"	78
controllo_3	"POPTR_0009s13650.1"	399	"	"A/G"	"59,8/40,2"	"73/49"	122	stress_42	"POPTR_0009s13650.1"	399	"	"G/A"	"52,3/47,7"	"23/21"	44
controllo_3	"POPTR_0009s13650.1"	399	"	"A/G"	"59,8/40,2"	"73/49"	122	stress_45	"POPTR_0009s13650.1"	399	"	"A/G"	"50,0/50,0"	"19/19"	38
controllo_3	"POPTR_0009s06530.1"	900	"	"A/G"	"59,8/40,2"	"67/45"	112	stress_12bis	"POPTR_0009s06530.1"	900	"	"G/A"	"54,8/45,2"	"17/14"	31
controllo_3	"POPTR_0009s06530.1"	900	"	"A/G"	"59,8/40,2"	"67/45"	112	stress_45	"POPTR_0009s06530.1"	900	"	"A/G"	"72,7/27,3"	"8/3"	11
controllo_3	"POPTR_0015s08540.1"	198	"	"A/T"	"59,8/40,2"	"143/96"	239	stress_12bis	"POPTR_0015s08540.1"	198	"	"A/T"	"59,5/40,5"	"47/32"	79
controllo_3	"POPTR_0015s08540.1"	198	"	"A/T"	"59,8/40,2"	"143/96"	239	stress_42	"POPTR_0015s08540.1"	198	"	"A/T"	"57,7/42,3"	"15/11"	26
controllo_3	"POPTR_0015s08540.1"	198	"	"A/T"	"59,8/40,2"	"143/96"	239	stress_45	"POPTR_0015s08540.1"	198	"	"A/T"	"55,2/44,8"	"16/13"	29
controllo_3	"POPTR_0001s15230.1"	466	"	"G/A"	"59,8/40,2"	"101/68"	169	stress_12bis	"POPTR_0001s15230.1"	466	"	"G/A"	"59,1/40,9"	"39/27"	66
controllo_3	"POPTR_0001s15230.1"	466	"	"G/A"	"59,8/40,2"	"101/68"	169	stress_42	"POPTR_0001s15230.1"	466	"	"G/A"	"54,2/45,8"	"13/11"	24
controllo_3	"POPTR_0001s15230.1"	466	"	"G/A"	"59,8/40,2"	"101/68"	169	stress_45	"POPTR_0001s15230.1"	466	"	"A/G"	"60,6/39,4"	"20/13"	33
controllo_3	"POPTR_0001s06910.1"	984	"	"G/A"	"59,8/40,2"	"70/47"	117	stress_12bis	"POPTR_0001s06910.1"	984	"	"G/A"	"65,7/34,3"	"23/12"	35
controllo_3	"POPTR_0001s06910.1"	984	"	"G/A"	"59,8/40,2"	"70/47"	117	stress_42	"POPTR_0001s06910.1"	984	"	"G/A"	"52,3/47,7"	"23/21"	44
controllo_3	"POPTR_0001s06910.1"	984	"	"G/A"	"59,8/40,2"	"70/47"	117	stress_45	"POPTR_0001s06910.1"	984	"	"A/G"	"50,0/50,0"	"23/23"	46
controllo_3	"POPTR_0010s14080.1"	1551	"	"C/T"	"59,8/40,2"	"146/98"	244	stress_12bis	"POPTR_0010s14080.1"	1551	"	"C/T"	"65,8/34,2"	"73/38"	111
controllo_3	"POPTR_0010s14080.1"	1551	"	"C/T"	"59,8/40,2"	"146/98"	244	stress_42	"POPTR_0010s14080.1"	1551	"	"C/T"	"81,4/18,6"	"35/8"	43
controllo_3	"POPTR_0010s14080.1"	1551	"	"C/T"	"59,8/40,2"	"146/98"	244	stress_45	"POPTR_0010s14080.1"	1551	"	"C/T"	"71,1/28,9"	"27/11"	38
controllo_3	"POPTR_0010s21100.1"	77	"	"A/C"	"59,8/40,2"	"67/45"	112	stress_12bis	"POPTR_0010s21100.1"	77	"	"C/A"	"64,6/35,4"	"31/17"	48
controllo_3	"POPTR_0010s21100.1"	77	"	"A/C"	"59,8/40,2"	"67/45"	112	stress_42	"POPTR_0010s21100.1"	77	"	"C/A"	"51,2/48,8"	"22/21"	43
controllo_3	"POPTR_0010s21100.1"	77	"	"A/C"	"59,8/40,2"	"67/45"	112	stress_45	"POPTR_0010s21100.1"	77	"	"A/C"	"50,0/50,0"	"28/28"	56
controllo_3	"POPTR_0010s05170.1"	35	"	"G/A"	"59,8/40,2"	"174/117"	291	stress_12bis	"POPTR_0010s05170.1"	35	"	"A/G"	"50,0/50,0"	"9/9"	18
controllo_3	"POPTR_0007s14390.1"	177	"	"C/T"	"59,8/40,2"	"116/78"	194	stress_12bis	"POPTR_0007s14390.1"	177	"	"T/C"	"57,8/42,2"	"26/19"	45
controllo_3	"POPTR_0007s14390.1"	177	"	"C/T"	"59,8/40,2"	"116/78"	194	stress_42	"POPTR_0007s14390.1"	177	"	"C/T"	"70,6/29,4"	"12/5"	17
controllo_3	"POPTR_0007s14390.1"	177	"	"C/T"	"59,8/40,2"	"116/78"	194	stress_45	"POPTR_0007s14390.1"	177	"	"C/T"	"60,0/40,0"	"24/16"	40
controllo_3	"POPTR_0002s25810.1"	149	"	"A/T"	"59,8/40,2"	"174/117"	291	stress_12bis	"POPTR_0002s25810.1"	149	"	"A/T"	"53,6/46,4"	"52/45"	97
controllo_3	"POPTR_0002s25810.1"	149	"	"A/T"	"59,8/40,2"	"174/117"	291	stress_42	"POPTR_0002s25810.1"	149	"	"T/A"	"64,7/35,3"	"22/12"	34
controllo_3	"POPTR_0002s25810.1"	149	"	"A/T"	"59,8/40,2"	"174/117"	291	stress_45	"POPTR_0002s25810.1"	149	"	"A/T"	"55,9/42,4"	"33/25"	59
controllo_3	"POPTR_0002s01320.1"	345	"	"T/C"	"59,8/40,2"	"337/227"	564	stress_12bis	"POPTR_0002s01320.1"	345	"	"T/C"	"57,2/42,8"	"107/80"	187
controllo_3	"POPTR_0002s01320.1"	345	"	"T/C"	"59,8/40,2"	"337/227"	564	stress_42	"POPTR_0002s01320.1"	345	"	"C/T"	"54,2/45,8"	"32/27"	59
controllo_3	"POPTR_0002s01320.1"	345	"	"T/C"	"59,8/40,2"	"337/227"	564	stress_45	"POPTR_0002s01320.1"	345	"	"T/C"	"61,5/38,5"	"56/35"	91
controllo_3	"POPTR_0008s20590.1"	486	"	"T/C"	"59,8/40,2"	"146/98"	244	stress_12bis	"POPTR_0008s20590.1"	486	"	"C/T"	"56,5/43,5"	"65/50"	115
controllo_3	"POPTR_0008s20590.1"	486	"	"T/C"	"59,8/40,2"	"146/98"	244	stress_42	"POPTR_0008s20590.1"	486	"	"T/C"	"54,8/45,2"	"51/42"	93
controllo_3	"POPTR_0008s20590.1"	486	"	"T/C"	"59,8/40,2"	"146/98"	244	stress_45	"POPTR_0008s20590.1"	486	"	"T/C"	"52,6/47,4"	"80/72"	152
controllo_3	"POPTR_0025s00560.1"	573	"	"C/T"	"59,8/40,2"	"61/41"	102	stress_12bis	"POPTR_0025s00560.1"	573	"	"T/C"	"59,4/40,6"	"19/13"	32
controllo_3	"POPTR_0025s00560.1"	573	"	"C/T"	"59,8/40,2"	"61/41"	102	stress_42	"POPTR_0025s00560.1"	573	"	"C/T"	"50,0/50,0"	"14/14"	28
controllo_3	"POPTR_0025s00560.1"	573	"	"C/T"	"59,8/40,2"	"61/41"	102	stress_45	"POPTR_0025s00560.1"	573	"	"C/T"	"60,5/39,5"	"23/15"	38
controllo_3	"POPTR_0001s36560.1"	1285	"	"A/G"	"59,9/39,8"	"420/279"	701	stress_12bis	"POPTR_0001s36560.1"	1285	"	"A/G"	"56,9/43,1"	"115/87"	202
controllo_3	"POPTR_0001s36560.1"	1285	"	"A/G"	"59,9/39,8"	"420/279"	701	stress_42	"POPTR_0001s36560.1"	1285	"	"A/G"	"50,0/50,0"	"19/19"	38
controllo_3	"POPTR_0001s36560.1"	1285	"	"A/G"	"59,9/39,8"	"420/279"	701	stress_45	"POPTR_0001s36560.1"	1285	"	"G/A"	"56,1/43,9"	"32/25"	57
controllo_3	"POPTR_0005s20560.1"	86	"	"G/A"	"59,9/40,1"	"82/55"	137	stress_12bis	"POPTR_0005s20560.1"	86	"	"G/A"	"71,4/28,6"	"30/12"	42
controllo_3	"POPTR_0005s20560.1"	86	"	"G/A"	"59,9/40,1"	"82/55"	137	stress_45	"POPTR_0005s20560.1"	86	"	"G/A"	"54,5/45,5"	"6/5"	11
controllo_3	"POPTR_0006s04960.1"	2517	"	"A/G"	"59,9/40,1"	"118/79"	197	stress_12bis	"POPTR_0006s04960.1"	2517	"	"A/G"	"61,1/38,9"	"22/14"	36
controllo_3	"POPTR_0006s04960.1"	2517	"	"A/G"	"59,9/40,1"	"118/79"	197	stress_42	"POPTR_0006s04960.1"	2517	"	"A/G"	"53,8/46,2"	"7/6"	13
controllo_3	"POPTR_0006s04960.1"	2517	"	"A/G"	"59,9/40,1"	"118/79"	197	stress_45	"POPTR_0006s04960.1"	2517	"	"A/G"	"51,7/48,3"	"15/14"	29
controllo_3	"POPTR_0013s12130.1"	294	"	"C/T"	"59,9/40,1"	"85/57"	142	stress_12bis	"POPTR_0013s12130.1"	294	"	"C/T"	"64,7/35,3"	"22/12"	34
controllo_3	"POPTR_0013s12130.1"	294	"	"C/T"	"59,9/40,1"	"85/57"	142	stress_45	"POPTR_0013s12130.1"	294	"	"C/T"	"68,8/31,2"	"11/5"	16
controllo_3	"POPTR_0013s13220.1"	258	"	"C/T"	"59,9/40,1"	"109/73"	182	stress_12bis	"POPTR_0013s13220.1"	258	"	"C/T"	"59,4/40,6"	"60/41"	101
controllo_3	"POPTR_0013s13220.1"	258	"	"C/T"	"59,9/40,1"	"109/73"	182	stress_42	"POPTR_0013s13220.1"	258	"	"C/T"	"65,3/34,7"	"47/25"	72
controllo_3	"POPTR_0013s13220.1"	258	"	"C/T"	"59,9/40,1"	"109/73"	182	stress_45	"POPTR_0013s13220.1"	258	"	"C/T"	"59,7/40,3"	"92/62"	154
controllo_3	"POPTR_0004s20960.1"	429	"	"G/A"	"59,9/40,1"	"172/115"	287	stress_12bis	"POPTR_0004s20960.1"	429	"	"G/A"	"56,5/43,5"	"39/30"	69
controllo_3	"POPTR_0004s20960.1"	429	"	"G/A"	"59,9/40,1"	"172/115"	287	stress_42	"POPTR_0004s20960.1"	429	"	"G/A"	"78,3/21,7"	"18/5"	23
controllo_3	"POPTR_0004s20960.1"	429	"	"G/A"	"59,9/40,1"	"172/115"	287	stress_45	"POPTR_0004s20960.1"	429	"	"G/A"	"69,6/30,4"	"16/7"	23
controllo_3	"POPTR_0004s17610.1"	447	"	"C/T"	"59,9/40,1"	"88/59"	147	stress_12bis	"POPTR_0004s17610.1"	447	"	"C/T"	"68,1/31,9"	"64/30"	94
controllo_3	"POPTR_0004s17610.1"	447	"	"C/T"	"59,9/40,1"	"88/59"	147	stress_42	"POPTR_0004s17610.1"	447	"	"C/T"	"60,2/39,8"	"189/125"	314
controllo_3	"POPTR_0004s17610.1"	447	"	"C/T"	"59,9/40,1"	"88/59"	147	stress_45	"POPTR_0004s17610.1"	447	"	"C/T"	"64,0/36,0"	"208/117"	325
controllo_3	"POPTR_0011s12440.1"	256	"	"A/G"	"59,9/40,1"	"154/103"	257	stress_12bis	"POPTR_0011s12440.1"	256	"	"A/G"	"67,5/32,5"	"85/41"	126
controllo_3	"POPTR_0011s12440.1"	256	"	"A/G"	"59,9/40,1"	"154/103"	257	stress_42	"POPTR_0011s12440.1"	256	"	"A/G"	"81,0/19,0"	"17/4"	21
controllo_3	"POPTR_0011s12440.1"	256	"	"A/G"	"59,9/40,1"	"154/103"	257	stress_45	"POPTR_0011s12440.1"	256	"	"A/G"	"78,0/22,0"	"32/9"	41
controllo_3	"POPTR_0015s10920.1"	1611	"	"T/C"	"59,9/40,1"	"106/71"	177	stress_12bis	"POPTR_0015s10920.1"	1611	"	"T/C"	"54,5/45,5"	"30/25"	55
controllo_3	"POPTR_0015s10920.1"	1611	"	"T/C"	"59,9/40,1"	"106/71"	177	stress_42	"POPTR_0015s10920.1"	1611	"	"T/C"	"58,8/41,2"	"10/7"	17
controllo_3	"POPTR_0015s10920.1"	1611	"	"T/C"	"59,9/40,1"	"106/71"	177	stress_45	"POPTR_0015s10920.1"	1611	"	"C/T"	"51,2/48,8"	"22/21"	43
controllo_3	"POPTR_0001s33910.1"	381	"	"G/A"	"59,9/40,1"	"142/95"	237	stress_12bis	"POPTR_0001s33910.1"	381	"	"G/A"	"55,9/44,1"	"33/26"	59
controllo_3	"POPTR_0001s33910.1"	381	"	"G/A"	"59,9/40,1"	"142/95"	237	stress_42	"POPTR_0001s33910.1"	381	"	"G/A"	"58,3/41,7"	"21/15"	36
controllo_3	"POPTR_0001s33910.1"	381	"	"G/A"	"59,9/40,1"	"142/95"	237	stress_45	"POPTR_0001s33910.1"	381	"	"G/A"	"70,0/30,0"	"21/9"	30
controllo_3	"POPTR_0010s21270.1"	411	"	"A/T"	"59,9/40,1"	"199/133"	332	stress_12bis	"POPTR_0010s21270.1"	411	"	"A/T"	"67,3/32,7"	"72/35"	107
controllo_3	"POPTR_0010s21270.1"	411	"	"A/T"	"59,9/40,1"	"199/133"	332	stress_42	"POPTR_0010s21270.1"	411	"	"A/T"	"52,4/47,6"	"22/20"	42
controllo_3	"POPTR_0010s21270.1"	411	"	"A/T"	"59,9/40,1"	"199/133"	332	stress_45	"POPTR_0010s21270.1"	411	"	"T/A"	"51,7/48,3"	"46/43"	89
controllo_3	"POPTR_0002s25810.1"	152	"	"A/G"	"59,9/40,1"	"163/109"	272	stress_12bis	"POPTR_0002s25810.1"	152	"	"A/G"	"51,7/48,3"	"46/43"	89
controllo_3	"POPTR_0002s25810.1"	152	"	"A/G"	"59,9/40,1"	"163/109"	272	stress_42	"POPTR_0002s25810.1"	152	"	"G/A"	"68,6/31,4"	"24/11"	35
controllo_3	"POPTR_0002s25810.1"	152	"	"A/G"	"59,9/40,1"	"163/109"	272	stress_45	"POPTR_0002s25810.1"	152	"	"A/G"	"52,7/47,3"	"29/26"	55
controllo_3	"POPTR_0002s03020.1"	30	"	"C/T"	"59,9/40,1"	"206/138"	344	stress_12bis	"POPTR_0002s03020.1"	30	"	"C/T"	"56,6/43,4"	"56/43"	99
controllo_3	"POPTR_0002s03020.1"	30	"	"C/T"	"59,9/40,1"	"206/138"	344	stress_42	"POPTR_0002s03020.1"	30	"	"C/T"	"74,5/25,5"	"102/35"	137
controllo_3	"POPTR_0002s03020.1"	30	"	"C/T"	"59,9/40,1"	"206/138"	344	stress_45	"POPTR_0002s03020.1"	30	"	"C/T"	"74,9/25,1"	"251/84"	335
controllo_3	"POPTR_0002s01320.1"	456	"	"C/T"	"59,9/40,1"	"408/273"	681	stress_12bis	"POPTR_0002s01320.1"	456	"	"T/C"	"50,5/49,5"	"108/106"	214
controllo_3	"POPTR_0002s01320.1"	456	"	"C/T"	"59,9/40,1"	"408/273"	681	stress_42	"POPTR_0002s01320.1"	456	"	"C/T"	"58,2/41,8"	"39/28"	67
controllo_3	"POPTR_0002s01320.1"	456	"	"C/T"	"59,9/40,1"	"408/273"	681	stress_45	"POPTR_0002s01320.1"	456	"	"T/C"	"50,9/49,1"	"54/52"	106
controllo_3	"POPTR_0002s24310.1"	93	"	"T/C"	"59,9/40,1"	"82/55"	137	stress_12bis	"POPTR_0002s24310.1"	93	"	"T/C"	"53,1/46,9"	"17/15"	32
controllo_3	"POPTR_0002s24310.1"	93	"	"T/C"	"59,9/40,1"	"82/55"	137	stress_42	"POPTR_0002s24310.1"	93	"	"T/C"	"54,5/45,5"	"12/10"	22
controllo_3	"POPTR_0002s24310.1"	93	"	"T/C"	"59,9/40,1"	"82/55"	137	stress_45	"POPTR_0002s24310.1"	93	"	"C/T"	"60,0/40,0"	"12/8"	20
controllo_3	"POPTR_0008s09150.1"	42	"	"C/T"	"59,9/40,1"	"85/57"	142	stress_12bis	"POPTR_0008s09150.1"	42	"	"C/T"	"63,2/36,8"	"24/14"	38
controllo_3	"POPTR_0008s09150.1"	42	"	"C/T"	"59,9/40,1"	"85/57"	142	stress_42	"POPTR_0008s09150.1"	42	"	"C/T"	"54,2/45,8"	"45/38"	83
controllo_3	"POPTR_0008s09150.1"	42	"	"C/T"	"59,9/40,1"	"85/57"	142	stress_45	"POPTR_0008s09150.1"	42	"	"C/T"	"58,1/41,9"	"68/49"	117
controllo_3	"POPTR_0008s05470.1"	111	"	"C/G/	"60,0/21,7/18,3"	"177/64/54"	295	stress_12bis	"POPTR_0008s05470.1"	111	"	"C/T/	"55,1/28,6/16,3"	"27/14/8"	49
controllo_3	"POPTR_0008s05470.1"	111	"	"C/G/	"60,0/21,7/18,3"	"177/64/54"	295	stress_42	"POPTR_0008s05470.1"	111	"	"T/C/	"44,4/37,0/18,5"	"12/10/5"	27
controllo_3	"POPTR_0008s05470.1"	111	"	"C/G/	"60,0/21,7/18,3"	"177/64/54"	295	stress_45	"POPTR_0008s05470.1"	111	"	"C/T/	"55,2/29,2/15,6"	"53/28/15"	96
controllo_3	"POPTR_0006s10080.1"	430	"	"G/T"	"60,0/39,5"	"132/87"	220	stress_12bis	"POPTR_0006s10080.1"	430	"	"G/T"	"57,7/42,3"	"45/33"	78
controllo_3	"POPTR_0006s10080.1"	430	"	"G/T"	"60,0/39,5"	"132/87"	220	stress_42	"POPTR_0006s10080.1"	430	"	"T/G"	"58,8/35,3"	"20/12"	34
controllo_3	"POPTR_0006s10080.1"	430	"	"G/T"	"60,0/39,5"	"132/87"	220	stress_45	"POPTR_0006s10080.1"	430	"	"G/T"	"51,9/48,1"	"80/74"	154
controllo_3	"POPTR_0003s20870.1"	1476	"	"C/T"	"60,0/39,5"	"111/73"	185	stress_12bis	"POPTR_0003s20870.1"	1476	"	"C/T"	"72,4/27,6"	"21/8"	29
controllo_3	"POPTR_0003s20870.1"	1476	"	"C/T"	"60,0/39,5"	"111/73"	185	stress_42	"POPTR_0003s20870.1"	1476	"	"T/C"	"57,1/42,9"	"8/6"	14
controllo_3	"POPTR_0003s20870.1"	1476	"	"C/T"	"60,0/39,5"	"111/73"	185	stress_45	"POPTR_0003s20870.1"	1476	"	"C/T"	"67,4/32,6"	"31/15"	46
controllo_3	"POPTR_0005s20560.1"	87	"	"C/A"	"60,0/40,0"	"81/54"	135	stress_12bis	"POPTR_0005s20560.1"	87	"	"C/A"	"69,0/31,0"	"29/13"	42
controllo_3	"POPTR_0005s20560.1"	87	"	"C/A"	"60,0/40,0"	"81/54"	135	stress_45	"POPTR_0005s20560.1"	87	"	"C/A"	"54,5/45,5"	"6/5"	11
controllo_3	"POPTR_0005s05450.1"	1107	"	"C/T"	"60,0/40,0"	"93/62"	155	stress_12bis	"POPTR_0005s05450.1"	1107	"	"C/T"	"50,0/50,0"	"11/11"	22
controllo_3	"POPTR_0005s05450.1"	1107	"	"C/T"	"60,0/40,0"	"93/62"	155	stress_42	"POPTR_0005s05450.1"	1107	"	"C/T"	"54,5/45,5"	"6/5"	11
controllo_3	"POPTR_0005s05450.1"	1107	"	"C/T"	"60,0/40,0"	"93/62"	155	stress_45	"POPTR_0005s05450.1"	1107	"	"C/T"	"71,4/28,6"	"15/6"	21
controllo_3	"POPTR_0006s13240.1"	27	"	"T/C"	"60,0/40,0"	"75/50"	125	stress_12bis	"POPTR_0006s13240.1"	27	"	"C/T"	"55,9/44,1"	"33/26"	59
controllo_3	"POPTR_0006s13240.1"	27	"	"T/C"	"60,0/40,0"	"75/50"	125	stress_42	"POPTR_0006s13240.1"	27	"	"T/C"	"68,4/31,6"	"13/6"	19
controllo_3	"POPTR_0006s13240.1"	27	"	"T/C"	"60,0/40,0"	"75/50"	125	stress_45	"POPTR_0006s13240.1"	27	"	"T/C"	"54,5/45,5"	"18/15"	33
controllo_3	"POPTR_0018s05860.1"	53	"	"A/G"	"60,0/40,0"	"81/54"	135	stress_12bis	"POPTR_0018s05860.1"	53	"	"A/G"	"60,9/39,1"	"14/9"	23
controllo_3	"POPTR_0018s05860.1"	53	"	"A/G"	"60,0/40,0"	"81/54"	135	stress_42	"POPTR_0018s05860.1"	53	"	"A/G"	"64,7/35,3"	"11/6"	17
controllo_3	"POPTR_0018s05860.1"	53	"	"A/G"	"60,0/40,0"	"81/54"	135	stress_45	"POPTR_0018s05860.1"	53	"	"G/A"	"57,1/42,9"	"16/12"	28
controllo_3	"POPTR_0018s02230.1"	153	"	"C/A"	"60,0/40,0"	"84/56"	140	stress_12bis	"POPTR_0018s02230.1"	153	"	"A/C"	"56,4/43,6"	"44/34"	78
controllo_3	"POPTR_0018s02230.1"	153	"	"C/A"	"60,0/40,0"	"84/56"	140	stress_42	"POPTR_0018s02230.1"	153	"	"A/C"	"51,8/48,2"	"44/41"	85
controllo_3	"POPTR_0018s02230.1"	153	"	"C/A"	"60,0/40,0"	"84/56"	140	stress_45	"POPTR_0018s02230.1"	153	"	"A/C"	"50,0/50,0"	"74/74"	148
controllo_3	"POPTR_0003s08140.1"	670	"	"A/G"	"60,0/40,0"	"9/6"	15	stress_42	"POPTR_0003s08140.1"	670	"	"G/A"	"66,3/33,7"	"240/122"	362
controllo_3	"POPTR_0003s08140.1"	670	"	"A/G"	"60,0/40,0"	"9/6"	15	stress_45	"POPTR_0003s08140.1"	670	"	"G/A"	"64,1/35,9"	"270/151"	421
controllo_3	"POPTR_0013s12130.1"	33	"	"T/A"	"60,0/40,0"	"90/60"	150	stress_12bis	"POPTR_0013s12130.1"	33	"	"T/A"	"52,2/47,8"	"24/22"	46
controllo_3	"POPTR_0013s12130.1"	33	"	"T/A"	"60,0/40,0"	"90/60"	150	stress_42	"POPTR_0013s12130.1"	33	"	"T/A"	"81,8/18,2"	"9/2"	11
controllo_3	"POPTR_0013s12130.1"	33	"	"T/A"	"60,0/40,0"	"90/60"	150	stress_45	"POPTR_0013s12130.1"	33	"	"T/A"	"71,4/28,6"	"15/6"	21
controllo_3	"POPTR_0014s06820.1"	1415	"	"A/G"	"60,0/40,0"	"93/62"	155	stress_12bis	"POPTR_0014s06820.1"	1415	"	"G/A"	"52,1/47,9"	"25/23"	48
controllo_3	"POPTR_0014s06820.1"	1415	"	"A/G"	"60,0/40,0"	"93/62"	155	stress_42	"POPTR_0014s06820.1"	1415	"	"G/A"	"52,2/47,8"	"12/11"	23
controllo_3	"POPTR_0014s06820.1"	1415	"	"A/G"	"60,0/40,0"	"93/62"	155	stress_45	"POPTR_0014s06820.1"	1415	"	"G/A"	"76,2/23,8"	"16/5"	21
controllo_3	"POPTR_0014s13430.1"	681	"	"G/T"	"60,0/40,0"	"93/62"	155	stress_12bis	"POPTR_0014s13430.1"	681	"	"G/T"	"63,5/36,5"	"33/19"	52
controllo_3	"POPTR_0014s13430.1"	681	"	"G/T"	"60,0/40,0"	"93/62"	155	stress_42	"POPTR_0014s13430.1"	681	"	"T/G"	"63,6/36,4"	"7/4"	11
controllo_3	"POPTR_0014s14370.1"	329	"	"C/T"	"60,0/40,0"	"283/189"	472	stress_12bis	"POPTR_0014s14370.1"	329	"	"C/T"	"62,5/37,5"	"45/27"	72
controllo_3	"POPTR_0014s14370.1"	329	"	"C/T"	"60,0/40,0"	"283/189"	472	stress_42	"POPTR_0014s14370.1"	329	"	"T/C"	"52,8/47,2"	"19/17"	36
controllo_3	"POPTR_0014s14370.1"	329	"	"C/T"	"60,0/40,0"	"283/189"	472	stress_45	"POPTR_0014s14370.1"	329	"	"T/C"	"54,9/45,1"	"28/23"	51
controllo_3	"POPTR_0014s15710.1"	624	"	"A/G"	"60,0/40,0"	"280/187"	467	stress_12bis	"POPTR_0014s15710.1"	624	"	"A/G"	"54,0/46,0"	"75/64"	139
controllo_3	"POPTR_0014s15710.1"	624	"	"A/G"	"60,0/40,0"	"280/187"	467	stress_42	"POPTR_0014s15710.1"	624	"	"A/G"	"69,6/30,4"	"64/28"	92
controllo_3	"POPTR_0014s15710.1"	624	"	"A/G"	"60,0/40,0"	"280/187"	467	stress_45	"POPTR_0014s15710.1"	624	"	"A/G"	"70,3/29,7"	"78/33"	111
controllo_3	"POPTR_0004s23310.1"	1827	"	"T/C"	"60,0/40,0"	"72/48"	120	stress_12bis	"POPTR_0004s23310.1"	1827	"	"T/C"	"68,2/31,8"	"30/14"	44
controllo_3	"POPTR_0004s23310.1"	1827	"	"T/C"	"60,0/40,0"	"72/48"	120	stress_42	"POPTR_0004s23310.1"	1827	"	"C/T"	"61,5/38,5"	"8/5"	13
controllo_3	"POPTR_0004s23310.1"	1827	"	"T/C"	"60,0/40,0"	"72/48"	120	stress_45	"POPTR_0004s23310.1"	1827	"	"C/T"	"60,7/39,3"	"17/11"	28
controllo_3	"POPTR_0009s12420.1"	108	"	"T/A"	"60,0/40,0"	"63/42"	105	stress_12bis	"POPTR_0009s12420.1"	108	"	"T/A"	"58,8/41,2"	"20/14"	34
controllo_3	"POPTR_0009s12420.1"	108	"	"T/A"	"60,0/40,0"	"63/42"	105	stress_42	"POPTR_0009s12420.1"	108	"	"T/A"	"70,3/29,7"	"78/33"	111
controllo_3	"POPTR_0009s12420.1"	108	"	"T/A"	"60,0/40,0"	"63/42"	105	stress_45	"POPTR_0009s12420.1"	108	"	"T/A"	"66,4/33,6"	"85/43"	128
controllo_3	"POPTR_0009s12420.1"	1059	"	"C/A"	"60,0/40,0"	"60/40"	100	stress_42	"POPTR_0009s12420.1"	1059	"	"C/A"	"59,2/40,8"	"93/64"	157
controllo_3	"POPTR_0009s12420.1"	1059	"	"C/A"	"60,0/40,0"	"60/40"	100	stress_45	"POPTR_0009s12420.1"	1059	"	"A/C"	"50,0/50,0"	"72/72"	144
controllo_3	"POPTR_0011s05250.1"	846	"	"C/T"	"60,0/40,0"	"45/30"	75	stress_45	"POPTR_0011s05250.1"	846	"	"T/C"	"57,5/42,5"	"73/54"	127
controllo_3	"POPTR_0001s10700.1"	936	"	"A/G"	"60,0/40,0"	"9/6"	15	stress_42	"POPTR_0001s10700.1"	936	"	"A/G"	"61,5/38,5"	"67/42"	109
controllo_3	"POPTR_0001s04580.1"	282	"	"T/C"	"60,0/40,0"	"63/42"	105	stress_12bis	"POPTR_0001s04580.1"	282	"	"T/C"	"77,4/22,6"	"41/12"	53
controllo_3	"POPTR_0001s04580.1"	282	"	"T/C"	"60,0/40,0"	"63/42"	105	stress_42	"POPTR_0001s04580.1"	282	"	"T/C"	"59,1/40,9"	"13/9"	22
controllo_3	"POPTR_0001s04580.1"	282	"	"T/C"	"60,0/40,0"	"63/42"	105	stress_45	"POPTR_0001s04580.1"	282	"	"C/T"	"58,6/41,4"	"17/12"	29
controllo_3	"POPTR_0001s10930.1"	288	"	"G/A"	"60,0/40,0"	"150/100"	250	stress_12bis	"POPTR_0001s10930.1"	288	"	"G/A"	"50,0/48,2"	"28/27"	56
controllo_3	"POPTR_0001s10930.1"	288	"	"G/A"	"60,0/40,0"	"150/100"	250	stress_42	"POPTR_0001s10930.1"	288	"	"A/G"	"52,3/47,7"	"23/21"	44
controllo_3	"POPTR_0001s10930.1"	288	"	"G/A"	"60,0/40,0"	"150/100"	250	stress_45	"POPTR_0001s10930.1"	288	"	"G/A"	"52,1/47,9"	"37/34"	71
controllo_3	"POPTR_0001s07860.1"	667	"	"T/A"	"60,0/40,0"	"87/58"	145	stress_12bis	"POPTR_0001s07860.1"	667	"	"T/A"	"71,4/28,6"	"10/4"	14
controllo_3	"POPTR_0001s07870.1"	1155	"	"C/T"	"60,0/40,0"	"84/56"	140	stress_12bis	"POPTR_0001s07870.1"	1155	"	"C/T"	"63,6/36,4"	"14/8"	22
controllo_3	"POPTR_0001s07870.1"	1155	"	"C/T"	"60,0/40,0"	"84/56"	140	stress_42	"POPTR_0001s07870.1"	1155	"	"C/T"	"70,6/29,4"	"12/5"	17
controllo_3	"POPTR_0001s07870.1"	1155	"	"C/T"	"60,0/40,0"	"84/56"	140	stress_45	"POPTR_0001s07870.1"	1155	"	"C/T"	"60,5/39,5"	"23/15"	38
controllo_3	"POPTR_0010s21270.1"	1006	"	"T/A"	"60,0/40,0"	"99/66"	165	stress_12bis	"POPTR_0010s21270.1"	1006	"	"T/A"	"61,7/38,3"	"37/23"	60
controllo_3	"POPTR_0010s21270.1"	1006	"	"T/A"	"60,0/40,0"	"99/66"	165	stress_42	"POPTR_0010s21270.1"	1006	"	"T/A"	"59,3/40,7"	"16/11"	27
controllo_3	"POPTR_0010s21270.1"	1006	"	"T/A"	"60,0/40,0"	"99/66"	165	stress_45	"POPTR_0010s21270.1"	1006	"	"T/A"	"67,8/32,2"	"40/19"	59
controllo_3	"POPTR_0010s21270.1"	1842	"	"C/G"	"60,0/40,0"	"216/144"	360	stress_12bis	"POPTR_0010s21270.1"	1842	"	"C/G"	"66,9/33,1"	"83/41"	124
controllo_3	"POPTR_0010s21270.1"	1842	"	"C/G"	"60,0/40,0"	"216/144"	360	stress_42	"POPTR_0010s21270.1"	1842	"	"C/G"	"60,0/40,0"	"51/34"	85
controllo_3	"POPTR_0010s21270.1"	1842	"	"C/G"	"60,0/40,0"	"216/144"	360	stress_45	"POPTR_0010s21270.1"	1842	"	"C/G"	"50,8/49,2"	"65/63"	128
controllo_3	"POPTR_0010s21700.1"	89	"	"T/C"	"60,0/40,0"	"105/70"	175	stress_42	"POPTR_0010s21700.1"	89	"	"C/T"	"60,0/40,0"	"15/10"	25
controllo_3	"POPTR_0010s21700.1"	89	"	"T/C"	"60,0/40,0"	"105/70"	175	stress_45	"POPTR_0010s21700.1"	89	"	"T/C"	"58,8/41,2"	"10/7"	17
controllo_3	"POPTR_0007s09630.1"	653	"	"C/G"	"60,0/40,0"	"259/173"	432	stress_12bis	"POPTR_0007s09630.1"	653	"	"C/G"	"65,0/35,0"	"67/36"	103
controllo_3	"POPTR_0007s09630.1"	653	"	"C/G"	"60,0/40,0"	"259/173"	432	stress_42	"POPTR_0007s09630.1"	653	"	"G/C"	"53,3/46,7"	"8/7"	15
controllo_3	"POPTR_0007s09630.1"	653	"	"C/G"	"60,0/40,0"	"259/173"	432	stress_45	"POPTR_0007s09630.1"	653	"	"C/G"	"72,7/27,3"	"16/6"	22
controllo_3	"POPTR_0007s15080.1"	1644	"	"G/A"	"60,0/40,0"	"138/92"	230	stress_12bis	"POPTR_0007s15080.1"	1644	"	"G/A"	"54,8/45,2"	"40/33"	73
controllo_3	"POPTR_0007s15080.1"	1644	"	"G/A"	"60,0/40,0"	"138/92"	230	stress_42	"POPTR_0007s15080.1"	1644	"	"G/A"	"79,2/20,8"	"19/5"	24
controllo_3	"POPTR_0007s15080.1"	1644	"	"G/A"	"60,0/40,0"	"138/92"	230	stress_45	"POPTR_0007s15080.1"	1644	"	"A/G"	"50,0/45,8"	"12/11"	24
controllo_3	"POPTR_0002s25870.1"	857	"	"A/G"	"60,0/40,0"	"63/42"	105	stress_12bis	"POPTR_0002s25870.1"	857	"	"A/G"	"60,0/40,0"	"12/8"	20
controllo_3	"POPTR_0002s25870.1"	857	"	"A/G"	"60,0/40,0"	"63/42"	105	stress_42	"POPTR_0002s25870.1"	857	"	"G/A"	"76,2/19,0"	"16/4"	21
controllo_3	"POPTR_0002s25870.1"	857	"	"A/G"	"60,0/40,0"	"63/42"	105	stress_45	"POPTR_0002s25870.1"	857	"	"A/G"	"53,8/46,2"	"14/12"	26
controllo_3	"POPTR_0002s08010.1"	522	"	"C/T"	"60,0/40,0"	"84/56"	140	stress_12bis	"POPTR_0002s08010.1"	522	"	"C/T"	"52,5/47,5"	"21/19"	40
controllo_3	"POPTR_0002s08010.1"	522	"	"C/T"	"60,0/40,0"	"84/56"	140	stress_45	"POPTR_0002s08010.1"	522	"	"C/T"	"52,6/47,4"	"10/9"	19
controllo_3	"POPTR_0002s08010.1"	618	"	"T/G"	"60,0/40,0"	"66/44"	110	stress_12bis	"POPTR_0002s08010.1"	618	"	"T/G"	"60,9/34,8"	"14/8"	23
controllo_3	"POPTR_0002s08010.1"	1233	"	"G/C"	"60,0/40,0"	"72/48"	120	stress_12bis	"POPTR_0002s08010.1"	1233	"	"G/C"	"68,8/31,2"	"11/5"	16
controllo_3	"POPTR_0002s08010.1"	1233	"	"G/C"	"60,0/40,0"	"72/48"	120	stress_45	"POPTR_0002s08010.1"	1233	"	"G/C"	"75,0/25,0"	"9/3"	12
controllo_3	"POPTR_0008s03160.1"	633	"	"C/T"	"60,0/40,0"	"165/110"	275	stress_12bis	"POPTR_0008s03160.1"	633	"	"C/T"	"56,8/43,2"	"54/41"	95
controllo_3	"POPTR_0008s03160.1"	633	"	"C/T"	"60,0/40,0"	"165/110"	275	stress_42	"POPTR_0008s03160.1"	633	"	"C/T"	"71,4/28,6"	"20/8"	28
controllo_3	"POPTR_0008s03160.1"	633	"	"C/T"	"60,0/40,0"	"165/110"	275	stress_45	"POPTR_0008s03160.1"	633	"	"C/T"	"60,8/39,2"	"31/20"	51
controllo_3	"POPTR_0008s12550.1"	153	"	"G/T"	"60,0/40,0"	"81/54"	135	stress_12bis	"POPTR_0008s12550.1"	153	"	"T/G"	"55,8/44,2"	"24/19"	43
controllo_3	"POPTR_0008s12550.1"	153	"	"G/T"	"60,0/40,0"	"81/54"	135	stress_42	"POPTR_0008s12550.1"	153	"	"T/G"	"55,0/42,5"	"22/17"	40
controllo_3	"POPTR_0008s12550.1"	153	"	"G/T"	"60,0/40,0"	"81/54"	135	stress_45	"POPTR_0008s12550.1"	153	"	"T/G"	"52,5/47,5"	"53/48"	101
controllo_3	"POPTR_0016s11670.1"	257	"	"C/G"	"60,0/40,0"	"78/52"	130	stress_12bis	"POPTR_0016s11670.1"	257	"	"C/G"	"60,5/39,5"	"26/17"	43
controllo_3	"POPTR_0016s11670.1"	257	"	"C/G"	"60,0/40,0"	"78/52"	130	stress_42	"POPTR_0016s11670.1"	257	"	"G/C"	"50,5/49,5"	"48/47"	95
controllo_3	"POPTR_0016s11670.1"	257	"	"C/G"	"60,0/40,0"	"78/52"	130	stress_45	"POPTR_0016s11670.1"	257	"	"G/C"	"57,0/43,0"	"61/46"	107
controllo_3	"POPTR_0015s09990.1"	216	"	"G/A"	"60,1/38,5"	"131/84"	218	stress_12bis	"POPTR_0015s09990.1"	216	"	"G/A"	"64,0/36,0"	"57/32"	89
controllo_3	"POPTR_0015s09990.1"	216	"	"G/A"	"60,1/38,5"	"131/84"	218	stress_42	"POPTR_0015s09990.1"	216	"	"G/A"	"69,6/30,4"	"16/7"	23
controllo_3	"POPTR_0015s09990.1"	216	"	"G/A"	"60,1/38,5"	"131/84"	218	stress_45	"POPTR_0015s09990.1"	216	"	"A/G"	"50,0/50,0"	"9/9"	18
controllo_3	"POPTR_0013s03700.1"	117	"	"C/A"	"60,1/39,5"	"155/102"	258	stress_12bis	"POPTR_0013s03700.1"	117	"	"C/A"	"59,7/40,3"	"46/31"	77
controllo_3	"POPTR_0013s03700.1"	117	"	"C/A"	"60,1/39,5"	"155/102"	258	stress_42	"POPTR_0013s03700.1"	117	"	"C/A"	"52,2/43,5"	"12/10"	23
controllo_3	"POPTR_0013s03700.1"	117	"	"C/A"	"60,1/39,5"	"155/102"	258	stress_45	"POPTR_0013s03700.1"	117	"	"A/C"	"57,1/42,9"	"20/15"	35
controllo_3	"POPTR_0005s13860.1"	712	"	"T/A"	"60,1/39,9"	"505/335"	840	stress_12bis	"POPTR_0005s13860.1"	712	"	"T/A"	"61,5/38,5"	"158/99"	257
controllo_3	"POPTR_0005s13860.1"	712	"	"T/A"	"60,1/39,9"	"505/335"	840	stress_42	"POPTR_0005s13860.1"	712	"	"T/A"	"68,8/31,2"	"44/20"	64
controllo_3	"POPTR_0005s13860.1"	712	"	"T/A"	"60,1/39,9"	"505/335"	840	stress_45	"POPTR_0005s13860.1"	712	"	"T/A"	"72,9/27,1"	"62/23"	85
controllo_3	"POPTR_0017s00850.1"	429	"	"C/T"	"60,1/39,9"	"89/59"	148	stress_12bis	"POPTR_0017s00850.1"	429	"	"C/T"	"82,4/17,6"	"14/3"	17
controllo_3	"POPTR_0017s00850.1"	429	"	"C/T"	"60,1/39,9"	"89/59"	148	stress_42	"POPTR_0017s00850.1"	429	"	"T/C"	"55,6/44,4"	"25/20"	45
controllo_3	"POPTR_0017s00850.1"	429	"	"C/T"	"60,1/39,9"	"89/59"	148	stress_45	"POPTR_0017s00850.1"	429	"	"C/T"	"60,5/39,5"	"52/34"	86
controllo_3	"POPTR_0006s22130.1"	450	"	"C/T"	"60,1/39,9"	"92/61"	153	stress_12bis	"POPTR_0006s22130.1"	450	"	"C/T"	"55,6/44,4"	"20/16"	36
controllo_3	"POPTR_0006s22130.1"	450	"	"C/T"	"60,1/39,9"	"92/61"	153	stress_42	"POPTR_0006s22130.1"	450	"	"C/T"	"75,0/25,0"	"12/4"	16
controllo_3	"POPTR_0006s22130.1"	450	"	"C/T"	"60,1/39,9"	"92/61"	153	stress_45	"POPTR_0006s22130.1"	450	"	"C/T"	"79,2/20,8"	"19/5"	24
controllo_3	"POPTR_0003s21070.1"	614	"	"C/G"	"60,1/39,9"	"86/57"	143	stress_12bis	"POPTR_0003s21070.1"	614	"	"C/G"	"65,7/34,3"	"23/12"	35
controllo_3	"POPTR_0003s21070.1"	614	"	"C/G"	"60,1/39,9"	"86/57"	143	stress_42	"POPTR_0003s21070.1"	614	"	"C/G"	"50,0/50,0"	"5/5"	10
controllo_3	"POPTR_0003s21070.1"	614	"	"C/G"	"60,1/39,9"	"86/57"	143	stress_45	"POPTR_0003s21070.1"	614	"	"C/G"	"60,6/39,4"	"20/13"	33
controllo_3	"POPTR_0003s20870.1"	1247	"	"T/C"	"60,1/39,9"	"101/67"	168	stress_12bis	"POPTR_0003s20870.1"	1247	"	"T/C"	"66,7/33,3"	"20/10"	30
controllo_3	"POPTR_0003s20870.1"	1247	"	"T/C"	"60,1/39,9"	"101/67"	168	stress_42	"POPTR_0003s20870.1"	1247	"	"T/C"	"57,1/42,9"	"8/6"	14
controllo_3	"POPTR_0003s20870.1"	1247	"	"T/C"	"60,1/39,9"	"101/67"	168	stress_45	"POPTR_0003s20870.1"	1247	"	"T/C"	"64,0/36,0"	"16/9"	25
controllo_3	"POPTR_0019s14860.1"	1035	"	"T/C"	"60,1/39,9"	"86/57"	143	stress_12bis	"POPTR_0019s14860.1"	1035	"	"T/C"	"58,7/41,3"	"27/19"	46
controllo_3	"POPTR_0019s14860.1"	1035	"	"T/C"	"60,1/39,9"	"86/57"	143	stress_42	"POPTR_0019s14860.1"	1035	"	"T/C"	"57,9/42,1"	"11/8"	19
controllo_3	"POPTR_0019s14860.1"	1035	"	"T/C"	"60,1/39,9"	"86/57"	143	stress_45	"POPTR_0019s14860.1"	1035	"	"T/C"	"57,1/42,9"	"12/9"	21
controllo_3	"POPTR_0014s02550.1"	239	"	"G/C"	"60,1/39,9"	"107/71"	178	stress_12bis	"POPTR_0014s02550.1"	239	"	"C/G"	"52,4/47,6"	"33/30"	63
controllo_3	"POPTR_0014s02550.1"	239	"	"G/C"	"60,1/39,9"	"107/71"	178	stress_42	"POPTR_0014s02550.1"	239	"	"G/C"	"66,7/33,3"	"20/10"	30
controllo_3	"POPTR_0014s02550.1"	239	"	"G/C"	"60,1/39,9"	"107/71"	178	stress_45	"POPTR_0014s02550.1"	239	"	"G/C"	"55,6/44,4"	"50/40"	90
controllo_3	"POPTR_0014s17130.1"	489	"	"A/C"	"60,1/39,9"	"101/67"	168	stress_12bis	"POPTR_0014s17130.1"	489	"	"A/C"	"58,5/41,5"	"24/17"	41
controllo_3	"POPTR_0014s17130.1"	489	"	"A/C"	"60,1/39,9"	"101/67"	168	stress_42	"POPTR_0014s17130.1"	489	"	"C/A"	"53,6/46,4"	"15/13"	28
controllo_3	"POPTR_0014s17130.1"	489	"	"A/C"	"60,1/39,9"	"101/67"	168	stress_45	"POPTR_0014s17130.1"	489	"	"A/C"	"51,4/48,6"	"19/18"	37
controllo_3	"POPTR_0004s02080.1"	411	"	"A/T"	"60,1/39,9"	"113/75"	188	stress_12bis	"POPTR_0004s02080.1"	411	"	"A/T"	"65,1/34,9"	"54/29"	83
controllo_3	"POPTR_0004s02080.1"	411	"	"A/T"	"60,1/39,9"	"113/75"	188	stress_42	"POPTR_0004s02080.1"	411	"	"A/T"	"51,4/48,6"	"55/52"	107
controllo_3	"POPTR_0004s02080.1"	411	"	"A/T"	"60,1/39,9"	"113/75"	188	stress_45	"POPTR_0004s02080.1"	411	"	"T/A"	"56,3/43,7"	"107/83"	190
controllo_3	"POPTR_0001s47210.1"	571	"	"A/T"	"60,1/39,9"	"211/140"	351	stress_12bis	"POPTR_0001s47210.1"	571	"	"A/T"	"69,2/30,8"	"36/16"	52
controllo_3	"POPTR_0001s21140.1"	318	"	"T/C"	"60,1/39,9"	"273/181"	454	stress_12bis	"POPTR_0001s21140.1"	318	"	"T/C"	"58,2/41,8"	"103/74"	177
controllo_3	"POPTR_0001s21140.1"	318	"	"T/C"	"60,1/39,9"	"273/181"	454	stress_42	"POPTR_0001s21140.1"	318	"	"C/T"	"54,5/45,5"	"18/15"	33
controllo_3	"POPTR_0001s21140.1"	318	"	"T/C"	"60,1/39,9"	"273/181"	454	stress_45	"POPTR_0001s21140.1"	318	"	"C/T"	"50,0/50,0"	"15/15"	30
controllo_3	"POPTR_0010s21840.1"	365	"	"C/A"	"60,1/39,9"	"86/57"	143	stress_12bis	"POPTR_0010s21840.1"	365	"	"C/A"	"51,9/48,1"	"27/25"	52
controllo_3	"POPTR_0010s21840.1"	365	"	"C/A"	"60,1/39,9"	"86/57"	143	stress_42	"POPTR_0010s21840.1"	365	"	"A/C"	"55,6/44,4"	"15/12"	27
controllo_3	"POPTR_0010s21840.1"	365	"	"C/A"	"60,1/39,9"	"86/57"	143	stress_45	"POPTR_0010s21840.1"	365	"	"A/C"	"61,9/38,1"	"13/8"	21
controllo_3	"POPTR_0010s26130.1"	96	"	"T/C"	"60,1/39,9"	"86/57"	143	stress_12bis	"POPTR_0010s26130.1"	96	"	"T/C"	"53,3/46,7"	"32/28"	60
controllo_3	"POPTR_0010s26130.1"	96	"	"T/C"	"60,1/39,9"	"86/57"	143	stress_45	"POPTR_0010s26130.1"	96	"	"T/C"	"66,7/33,3"	"8/4"	12
controllo_3	"POPTR_0010s21270.1"	1197	"	"A/T"	"60,1/39,9"	"200/133"	333	stress_12bis	"POPTR_0010s21270.1"	1197	"	"A/T"	"57,6/42,4"	"83/61"	144
controllo_3	"POPTR_0010s21270.1"	1197	"	"A/T"	"60,1/39,9"	"200/133"	333	stress_42	"POPTR_0010s21270.1"	1197	"	"A/T"	"62,5/37,5"	"40/24"	64
controllo_3	"POPTR_0010s21270.1"	1197	"	"A/T"	"60,1/39,9"	"200/133"	333	stress_45	"POPTR_0010s21270.1"	1197	"	"A/T"	"56,2/43,8"	"81/63"	144
controllo_3	"POPTR_0002s01320.1"	342	"	"A/T"	"60,1/39,9"	"340/226"	566	stress_12bis	"POPTR_0002s01320.1"	342	"	"A/T"	"57,1/42,3"	"104/77"	182
controllo_3	"POPTR_0002s01320.1"	342	"	"A/T"	"60,1/39,9"	"340/226"	566	stress_42	"POPTR_0002s01320.1"	342	"	"T/A"	"54,4/45,6"	"31/26"	57
controllo_3	"POPTR_0002s01320.1"	342	"	"A/T"	"60,1/39,9"	"340/226"	566	stress_45	"POPTR_0002s01320.1"	342	"	"A/T"	"63,0/37,0"	"58/34"	92
controllo_3	"POPTR_0016s08580.1"	616	"	"A/T"	"60,1/39,9"	"261/173"	434	stress_12bis	"POPTR_0016s08580.1"	616	"	"A/T"	"56,2/43,8"	"59/46"	105
controllo_3	"POPTR_0016s08580.1"	616	"	"A/T"	"60,1/39,9"	"261/173"	434	stress_42	"POPTR_0016s08580.1"	616	"	"A/T"	"59,8/40,2"	"52/35"	87
controllo_3	"POPTR_0016s08580.1"	616	"	"A/T"	"60,1/39,9"	"261/173"	434	stress_45	"POPTR_0016s08580.1"	616	"	"A/T"	"59,2/40,8"	"74/51"	125
controllo_3	"POPTR_0017s06920.1"	699	"	"A/G"	"60,2/39,8"	"495/327"	822	stress_12bis	"POPTR_0017s06920.1"	699	"	"A/G"	"63,7/36,3"	"158/90"	248
controllo_3	"POPTR_0017s06920.1"	699	"	"A/G"	"60,2/39,8"	"495/327"	822	stress_45	"POPTR_0017s06920.1"	699	"	"A/G"	"66,7/33,3"	"8/4"	12
controllo_3	"POPTR_0017s06920.1"	796	"	"G/A"	"60,2/39,8"	"487/322"	809	stress_12bis	"POPTR_0017s06920.1"	796	"	"G/A"	"58,0/42,0"	"152/110"	262
controllo_3	"POPTR_0017s06920.1"	796	"	"G/A"	"60,2/39,8"	"487/322"	809	stress_45	"POPTR_0017s06920.1"	796	"	"G/A"	"63,6/36,4"	"7/4"	11
controllo_3	"POPTR_0006s11620.1"	1567	"	"T/C"	"60,2/39,8"	"65/43"	108	stress_12bis	"POPTR_0006s11620.1"	1567	"	"T/C"	"54,5/45,5"	"18/15"	33
controllo_3	"POPTR_0006s11620.1"	1567	"	"T/C"	"60,2/39,8"	"65/43"	108	stress_42	"POPTR_0006s11620.1"	1567	"	"T/C"	"72,7/27,3"	"16/6"	22
controllo_3	"POPTR_0006s11620.1"	1567	"	"T/C"	"60,2/39,8"	"65/43"	108	stress_45	"POPTR_0006s11620.1"	1567	"	"T/C"	"63,6/36,4"	"21/12"	33
controllo_3	"POPTR_0006s10080.1"	1234	"	"T/A"	"60,2/39,8"	"133/88"	221	stress_12bis	"POPTR_0006s10080.1"	1234	"	"A/T"	"50,5/49,5"	"51/50"	101
controllo_3	"POPTR_0006s10080.1"	1234	"	"T/A"	"60,2/39,8"	"133/88"	221	stress_42	"POPTR_0006s10080.1"	1234	"	"A/T"	"55,6/44,4"	"60/48"	108
controllo_3	"POPTR_0006s10080.1"	1234	"	"T/A"	"60,2/39,8"	"133/88"	221	stress_45	"POPTR_0006s10080.1"	1234	"	"A/T"	"51,7/48,3"	"119/111"	230
controllo_3	"POPTR_0006s04960.1"	2719	"	"G/A"	"60,2/39,8"	"206/136"	342	stress_12bis	"POPTR_0006s04960.1"	2719	"	"A/G"	"50,7/49,3"	"37/36"	73
controllo_3	"POPTR_0006s04960.1"	2719	"	"G/A"	"60,2/39,8"	"206/136"	342	stress_42	"POPTR_0006s04960.1"	2719	"	"G/A"	"64,7/35,3"	"11/6"	17
controllo_3	"POPTR_0006s04960.1"	2719	"	"G/A"	"60,2/39,8"	"206/136"	342	stress_45	"POPTR_0006s04960.1"	2719	"	"A/G"	"50,0/50,0"	"20/20"	40
controllo_3	"POPTR_0006s21680.1"	84	"	"T/C"	"60,2/39,8"	"65/43"	108	stress_12bis	"POPTR_0006s21680.1"	84	"	"T/C"	"66,7/31,2"	"32/15"	48
controllo_3	"POPTR_0006s21680.1"	84	"	"T/C"	"60,2/39,8"	"65/43"	108	stress_42	"POPTR_0006s21680.1"	84	"	"T/C"	"54,5/45,5"	"18/15"	33
controllo_3	"POPTR_0006s21680.1"	84	"	"T/C"	"60,2/39,8"	"65/43"	108	stress_45	"POPTR_0006s21680.1"	84	"	"C/T"	"50,7/49,3"	"36/35"	71
controllo_3	"POPTR_0003s18530.1"	748	"	"T/C"	"60,2/39,8"	"106/70"	176	stress_12bis	"POPTR_0003s18530.1"	748	"	"C/T"	"52,1/47,9"	"37/34"	71
controllo_3	"POPTR_0003s18530.1"	748	"	"T/C"	"60,2/39,8"	"106/70"	176	stress_42	"POPTR_0003s18530.1"	748	"	"T/C"	"53,3/46,7"	"40/35"	75
controllo_3	"POPTR_0003s18530.1"	748	"	"T/C"	"60,2/39,8"	"106/70"	176	stress_45	"POPTR_0003s18530.1"	748	"	"C/T"	"51,0/49,0"	"49/47"	96
controllo_3	"POPTR_0003s20870.1"	1140	"	"G/A"	"60,2/39,8"	"71/47"	118	stress_12bis	"POPTR_0003s20870.1"	1140	"	"G/A"	"80,0/20,0"	"24/6"	30
controllo_3	"POPTR_0003s20870.1"	1140	"	"G/A"	"60,2/39,8"	"71/47"	118	stress_42	"POPTR_0003s20870.1"	1140	"	"G/A"	"76,9/23,1"	"10/3"	13
controllo_3	"POPTR_0003s20870.1"	1140	"	"G/A"	"60,2/39,8"	"71/47"	118	stress_45	"POPTR_0003s20870.1"	1140	"	"A/G"	"55,0/45,0"	"11/9"	20
controllo_3	"POPTR_0003s09860.1"	375	"	"T/A"	"60,2/39,8"	"74/49"	123	stress_12bis	"POPTR_0003s09860.1"	375	"	"T/A"	"58,3/41,7"	"7/5"	12
controllo_3	"POPTR_0003s09860.1"	375	"	"T/A"	"60,2/39,8"	"74/49"	123	stress_45	"POPTR_0003s09860.1"	375	"	"T/A"	"54,5/45,5"	"6/5"	11
controllo_3	"POPTR_0003s08800.1"	2079	"	"A/T"	"60,2/39,8"	"62/41"	103	stress_12bis	"POPTR_0003s08800.1"	2079	"	"T/A"	"56,7/43,3"	"17/13"	30
controllo_3	"POPTR_0003s08800.1"	2079	"	"A/T"	"60,2/39,8"	"62/41"	103	stress_42	"POPTR_0003s08800.1"	2079	"	"A/T"	"65,0/35,0"	"13/7"	20
controllo_3	"POPTR_0003s08800.1"	2079	"	"A/T"	"60,2/39,8"	"62/41"	103	stress_45	"POPTR_0003s08800.1"	2079	"	"A/T"	"68,2/31,8"	"15/7"	22
controllo_3	"POPTR_0019s12320.1"	261	"	"A/G"	"60,2/39,8"	"71/47"	118	stress_12bis	"POPTR_0019s12320.1"	261	"	"A/G"	"67,2/32,8"	"39/19"	58
controllo_3	"POPTR_0013s07150.1"	790	"	"G/A"	"60,2/39,8"	"71/47"	118	stress_12bis	"POPTR_0013s07150.1"	790	"	"A/G"	"59,3/40,7"	"16/11"	27
controllo_3	"POPTR_0013s07150.1"	790	"	"G/A"	"60,2/39,8"	"71/47"	118	stress_42	"POPTR_0013s07150.1"	790	"	"G/A"	"63,6/36,4"	"7/4"	11
controllo_3	"POPTR_0013s07150.1"	790	"	"G/A"	"60,2/39,8"	"71/47"	118	stress_45	"POPTR_0013s07150.1"	790	"	"A/G"	"64,3/35,7"	"9/5"	14
controllo_3	"POPTR_0009s05840.1"	483	"	"G/A"	"60,2/39,8"	"65/43"	108	stress_12bis	"POPTR_0009s05840.1"	483	"	"G/A"	"68,8/31,2"	"11/5"	16
controllo_3	"POPTR_0009s05840.1"	483	"	"G/A"	"60,2/39,8"	"65/43"	108	stress_42	"POPTR_0009s05840.1"	483	"	"A/G"	"51,7/48,3"	"15/14"	29
controllo_3	"POPTR_0009s05840.1"	483	"	"G/A"	"60,2/39,8"	"65/43"	108	stress_45	"POPTR_0009s05840.1"	483	"	"G/A"	"54,1/45,9"	"46/39"	85
controllo_3	"POPTR_0012s11630.1"	669	"	"A/G"	"60,2/39,8"	"139/92"	231	stress_12bis	"POPTR_0012s11630.1"	669	"	"A/G"	"57,3/42,7"	"51/38"	89
controllo_3	"POPTR_0012s11630.1"	669	"	"A/G"	"60,2/39,8"	"139/92"	231	stress_42	"POPTR_0012s11630.1"	669	"	"A/G"	"62,1/37,9"	"64/39"	103
controllo_3	"POPTR_0012s11630.1"	669	"	"A/G"	"60,2/39,8"	"139/92"	231	stress_45	"POPTR_0012s11630.1"	669	"	"A/G"	"52,2/47,8"	"36/33"	69
controllo_3	"POPTR_0001s47210.1"	165	"	"C/G"	"60,2/39,8"	"203/134"	337	stress_12bis	"POPTR_0001s47210.1"	165	"	"C/G"	"75,0/25,0"	"36/12"	48
controllo_3	"POPTR_0001s44110.1"	523	"	"A/G"	"60,2/39,8"	"65/43"	108	stress_12bis	"POPTR_0001s44110.1"	523	"	"A/G"	"56,0/44,0"	"14/11"	25
controllo_3	"POPTR_0001s02040.1"	535	"	"T/G"	"60,2/39,8"	"65/43"	108	stress_12bis	"POPTR_0001s02040.1"	535	"	"T/G"	"69,0/28,6"	"29/12"	42
controllo_3	"POPTR_0001s02040.1"	535	"	"T/G"	"60,2/39,8"	"65/43"	108	stress_42	"POPTR_0001s02040.1"	535	"	"G/T"	"61,5/38,5"	"16/10"	26
controllo_3	"POPTR_0001s02040.1"	535	"	"T/G"	"60,2/39,8"	"65/43"	108	stress_45	"POPTR_0001s02040.1"	535	"	"T/G"	"51,6/48,4"	"16/15"	31
controllo_3	"POPTR_0001s29350.1"	1152	"	"G/A"	"60,2/39,8"	"97/64"	161	stress_12bis	"POPTR_0001s29350.1"	1152	"	"G/A"	"63,2/36,8"	"24/14"	38
controllo_3	"POPTR_0001s29350.1"	1152	"	"G/A"	"60,2/39,8"	"97/64"	161	stress_42	"POPTR_0001s29350.1"	1152	"	"G/A"	"65,0/35,0"	"13/7"	20
controllo_3	"POPTR_0001s29350.1"	1152	"	"G/A"	"60,2/39,8"	"97/64"	161	stress_45	"POPTR_0001s29350.1"	1152	"	"G/A"	"76,5/23,5"	"26/8"	34
controllo_3	"POPTR_0010s09740.1"	195	"	"A/G"	"60,2/39,8"	"65/43"	108	stress_12bis	"POPTR_0010s09740.1"	195	"	"A/G"	"61,9/38,1"	"13/8"	21
controllo_3	"POPTR_0010s03010.1"	1204	"	"A/G"	"60,2/39,8"	"148/98"	246	stress_12bis	"POPTR_0010s03010.1"	1204	"	"A/G"	"66,2/33,8"	"51/26"	77
controllo_3	"POPTR_0010s03010.1"	1204	"	"A/G"	"60,2/39,8"	"148/98"	246	stress_42	"POPTR_0010s03010.1"	1204	"	"A/G"	"63,6/36,4"	"21/12"	33
controllo_3	"POPTR_0010s03010.1"	1204	"	"A/G"	"60,2/39,8"	"148/98"	246	stress_45	"POPTR_0010s03010.1"	1204	"	"A/G"	"82,4/17,6"	"14/3"	17
controllo_3	"POPTR_0008s15730.1"	366	"	"T/G"	"60,2/39,8"	"77/51"	128	stress_12bis	"POPTR_0008s15730.1"	366	"	"T/G"	"60,0/40,0"	"21/14"	35
controllo_3	"POPTR_0008s15730.1"	366	"	"T/G"	"60,2/39,8"	"77/51"	128	stress_42	"POPTR_0008s15730.1"	366	"	"G/T"	"57,1/42,9"	"20/15"	35
controllo_3	"POPTR_0008s15730.1"	366	"	"T/G"	"60,2/39,8"	"77/51"	128	stress_45	"POPTR_0008s15730.1"	366	"	"T/G"	"71,9/28,1"	"23/9"	32
controllo_3	"POPTR_0008s06720.1"	630	"	"T/A"	"60,2/39,8"	"1159/767"	1926	stress_12bis	"POPTR_0008s06720.1"	630	"	"T/A"	"59,8/40,2"	"293/197"	490
controllo_3	"POPTR_0008s06720.1"	630	"	"T/A"	"60,2/39,8"	"1159/767"	1926	stress_42	"POPTR_0008s06720.1"	630	"	"A/T"	"50,9/49,1"	"87/84"	171
controllo_3	"POPTR_0008s06720.1"	630	"	"T/A"	"60,2/39,8"	"1159/767"	1926	stress_45	"POPTR_0008s06720.1"	630	"	"A/T"	"64,1/35,9"	"91/51"	142
controllo_3	"POPTR_0001s47020.1"	1972	"	"C/A"	"60,3/38,1"	"117/74"	194	stress_12bis	"POPTR_0001s47020.1"	1972	"	"C/A"	"64,8/33,8"	"46/24"	71
controllo_3	"POPTR_0001s47020.1"	1972	"	"C/A"	"60,3/38,1"	"117/74"	194	stress_42	"POPTR_0001s47020.1"	1972	"	"C/A"	"62,7/37,3"	"52/31"	83
controllo_3	"POPTR_0001s47020.1"	1972	"	"C/A"	"60,3/38,1"	"117/74"	194	stress_45	"POPTR_0001s47020.1"	1972	"	"C/A"	"53,9/46,1"	"83/71"	154
controllo_3	"POPTR_0016s00260.1"	829	"	"G/T"	"60,3/38,9"	"79/51"	131	stress_12bis	"POPTR_0016s00260.1"	829	"	"G/T"	"60,0/40,0"	"12/8"	20
controllo_3	"POPTR_0013s10250.1"	99	"	"C/A"	"60,3/39,5"	"282/185"	468	stress_12bis	"POPTR_0013s10250.1"	99	"	"C/A"	"51,3/48,3"	"121/114"	236
controllo_3	"POPTR_0013s10250.1"	99	"	"C/A"	"60,3/39,5"	"282/185"	468	stress_42	"POPTR_0013s10250.1"	99	"	"C/A"	"69,0/31,0"	"58/26"	84
controllo_3	"POPTR_0013s10250.1"	99	"	"C/A"	"60,3/39,5"	"282/185"	468	stress_45	"POPTR_0013s10250.1"	99	"	"C/A"	"67,0/33,0"	"75/37"	112
controllo_3	"POPTR_0005s22830.1"	348	"	"A/G"	"60,3/39,7"	"184/121"	305	stress_12bis	"POPTR_0005s22830.1"	348	"	"A/G"	"53,1/46,9"	"94/83"	177
controllo_3	"POPTR_0005s22830.1"	348	"	"A/G"	"60,3/39,7"	"184/121"	305	stress_42	"POPTR_0005s22830.1"	348	"	"G/A"	"54,0/46,0"	"54/46"	100
controllo_3	"POPTR_0005s22830.1"	348	"	"A/G"	"60,3/39,7"	"184/121"	305	stress_45	"POPTR_0005s22830.1"	348	"	"A/G"	"56,4/43,6"	"44/34"	78
controllo_3	"POPTR_0017s01760.1"	465	"	"A/G"	"60,3/39,7"	"85/56"	141	stress_12bis	"POPTR_0017s01760.1"	465	"	"G/A"	"55,6/44,4"	"20/16"	36
controllo_3	"POPTR_0017s01760.1"	465	"	"A/G"	"60,3/39,7"	"85/56"	141	stress_42	"POPTR_0017s01760.1"	465	"	"A/G"	"57,1/42,9"	"28/21"	49
controllo_3	"POPTR_0017s01760.1"	465	"	"A/G"	"60,3/39,7"	"85/56"	141	stress_45	"POPTR_0017s01760.1"	465	"	"A/G"	"53,6/46,4"	"37/32"	69
controllo_3	"POPTR_0006s00620.1"	2041	"	"C/T"	"60,3/39,7"	"73/48"	121	stress_12bis	"POPTR_0006s00620.1"	2041	"	"C/T"	"70,0/30,0"	"7/3"	10
controllo_3	"POPTR_0018s11600.1"	1353	"	"T/C"	"60,3/39,7"	"94/62"	156	stress_12bis	"POPTR_0018s11600.1"	1353	"	"T/C"	"64,1/35,9"	"41/23"	64
controllo_3	"POPTR_0018s11600.1"	1353	"	"T/C"	"60,3/39,7"	"94/62"	156	stress_42	"POPTR_0018s11600.1"	1353	"	"T/C"	"51,2/48,8"	"21/20"	41
controllo_3	"POPTR_0018s11600.1"	1353	"	"T/C"	"60,3/39,7"	"94/62"	156	stress_45	"POPTR_0018s11600.1"	1353	"	"T/C"	"53,5/46,5"	"23/20"	43
controllo_3	"POPTR_0013s07050.1"	951	"	"G/A"	"60,3/39,7"	"91/60"	151	stress_12bis	"POPTR_0013s07050.1"	951	"	"G/A"	"63,4/36,6"	"26/15"	41
controllo_3	"POPTR_0013s07050.1"	951	"	"G/A"	"60,3/39,7"	"91/60"	151	stress_42	"POPTR_0013s07050.1"	951	"	"G/A"	"58,1/41,9"	"25/18"	43
controllo_3	"POPTR_0013s07050.1"	951	"	"G/A"	"60,3/39,7"	"91/60"	151	stress_45	"POPTR_0013s07050.1"	951	"	"G/A"	"62,7/37,3"	"47/28"	75
controllo_3	"POPTR_0013s03700.1"	99	"	"C/A"	"60,3/39,7"	"108/71"	179	stress_12bis	"POPTR_0013s03700.1"	99	"	"A/C"	"50,0/50,0"	"26/26"	52
controllo_3	"POPTR_0013s03700.1"	99	"	"C/A"	"60,3/39,7"	"108/71"	179	stress_42	"POPTR_0013s03700.1"	99	"	"A/C"	"52,6/47,4"	"10/9"	19
controllo_3	"POPTR_0013s03700.1"	99	"	"C/A"	"60,3/39,7"	"108/71"	179	stress_45	"POPTR_0013s03700.1"	99	"	"A/C"	"72,0/28,0"	"18/7"	25
controllo_3	"POPTR_0014s13560.1"	1725	"	"C/G"	"60,3/39,7"	"214/141"	355	stress_12bis	"POPTR_0014s13560.1"	1725	"	"C/G"	"58,3/41,7"	"74/53"	127
controllo_3	"POPTR_0014s13560.1"	1725	"	"C/G"	"60,3/39,7"	"214/141"	355	stress_42	"POPTR_0014s13560.1"	1725	"	"C/G"	"62,2/37,8"	"61/37"	98
controllo_3	"POPTR_0014s13560.1"	1725	"	"C/G"	"60,3/39,7"	"214/141"	355	stress_45	"POPTR_0014s13560.1"	1725	"	"C/G"	"67,7/32,3"	"67/32"	99
controllo_3	"POPTR_0014s15960.1"	842	"	"G/A"	"60,3/39,7"	"41/27"	68	stress_42	"POPTR_0014s15960.1"	842	"	"A/G"	"59,5/40,5"	"135/92"	227
controllo_3	"POPTR_0014s15960.1"	842	"	"G/A"	"60,3/39,7"	"41/27"	68	stress_45	"POPTR_0014s15960.1"	842	"	"A/G"	"59,8/40,2"	"134/90"	224
controllo_3	"POPTR_0004s14960.1"	2940	"	"C/T"	"60,3/39,7"	"73/48"	121	stress_12bis	"POPTR_0004s14960.1"	2940	"	"C/T"	"52,5/47,5"	"21/19"	40
controllo_3	"POPTR_0004s14960.1"	2940	"	"C/T"	"60,3/39,7"	"73/48"	121	stress_42	"POPTR_0004s14960.1"	2940	"	"T/C"	"52,4/47,6"	"11/10"	21
controllo_3	"POPTR_0004s14960.1"	2940	"	"C/T"	"60,3/39,7"	"73/48"	121	stress_45	"POPTR_0004s14960.1"	2940	"	"C/T"	"61,1/38,9"	"11/7"	18
controllo_3	"POPTR_0001s26410.1"	150	"	"T/C"	"60,3/39,7"	"261/172"	433	stress_12bis	"POPTR_0001s26410.1"	150	"	"T/C"	"57,3/42,7"	"47/35"	82
controllo_3	"POPTR_0001s26410.1"	150	"	"T/C"	"60,3/39,7"	"261/172"	433	stress_42	"POPTR_0001s26410.1"	150	"	"C/T"	"63,3/36,7"	"19/11"	30
controllo_3	"POPTR_0001s26410.1"	150	"	"T/C"	"60,3/39,7"	"261/172"	433	stress_45	"POPTR_0001s26410.1"	150	"	"C/T"	"72,7/27,3"	"8/3"	11
controllo_3	"POPTR_0001s28970.1"	345	"	"C/T"	"60,3/39,7"	"82/54"	136	stress_12bis	"POPTR_0001s28970.1"	345	"	"C/T"	"61,1/38,9"	"22/14"	36
controllo_3	"POPTR_0001s28970.1"	345	"	"C/T"	"60,3/39,7"	"82/54"	136	stress_42	"POPTR_0001s28970.1"	345	"	"C/T"	"58,5/41,5"	"24/17"	41
controllo_3	"POPTR_0001s28970.1"	345	"	"C/T"	"60,3/39,7"	"82/54"	136	stress_45	"POPTR_0001s28970.1"	345	"	"C/T"	"53,7/46,3"	"22/19"	41
controllo_3	"POPTR_0010s20060.1"	699	"	"T/C"	"60,3/39,7"	"461/303"	764	stress_12bis	"POPTR_0010s20060.1"	699	"	"C/T"	"50,0/50,0"	"116/116"	232
controllo_3	"POPTR_0010s20060.1"	699	"	"T/C"	"60,3/39,7"	"461/303"	764	stress_42	"POPTR_0010s20060.1"	699	"	"C/T"	"62,7/37,3"	"42/25"	67
controllo_3	"POPTR_0010s20060.1"	699	"	"T/C"	"60,3/39,7"	"461/303"	764	stress_45	"POPTR_0010s20060.1"	699	"	"C/T"	"53,4/45,2"	"39/33"	73
controllo_3	"POPTR_0010s16160.1"	139	"	"G/A"	"60,3/39,7"	"191/126"	317	stress_12bis	"POPTR_0010s16160.1"	139	"	"G/A"	"58,0/42,0"	"40/29"	69
controllo_3	"POPTR_0010s16160.1"	139	"	"G/A"	"60,3/39,7"	"191/126"	317	stress_42	"POPTR_0010s16160.1"	139	"	"A/G"	"82,9/17,1"	"29/6"	35
controllo_3	"POPTR_0010s16160.1"	139	"	"G/A"	"60,3/39,7"	"191/126"	317	stress_45	"POPTR_0010s16160.1"	139	"	"A/G"	"69,8/30,2"	"30/13"	43
controllo_3	"POPTR_0002s24310.1"	801	"	"G/C"	"60,3/39,7"	"94/62"	156	stress_12bis	"POPTR_0002s24310.1"	801	"	"C/G"	"56,2/43,8"	"9/7"	16
controllo_3	"POPTR_0002s24310.1"	801	"	"G/C"	"60,3/39,7"	"94/62"	156	stress_42	"POPTR_0002s24310.1"	801	"	"G/C"	"57,7/42,3"	"15/11"	26
controllo_3	"POPTR_0002s24310.1"	801	"	"G/C"	"60,3/39,7"	"94/62"	156	stress_45	"POPTR_0002s24310.1"	801	"	"C/G"	"50,0/50,0"	"11/11"	22
controllo_3	"POPTR_0008s06960.1"	168	"	"T/A"	"60,3/39,7"	"85/56"	141	stress_12bis	"POPTR_0008s06960.1"	168	"	"A/T"	"50,0/50,0"	"7/7"	14
controllo_3	"POPTR_0008s06960.1"	168	"	"T/A"	"60,3/39,7"	"85/56"	141	stress_42	"POPTR_0008s06960.1"	168	"	"A/T"	"83,3/16,7"	"10/2"	12
controllo_3	"POPTR_0009s01470.1"	1638	"	"C/T"	"60,4/39,0"	"110/71"	182	stress_12bis	"POPTR_0009s01470.1"	1638	"	"C/T"	"55,2/40,3"	"37/27"	67
controllo_3	"POPTR_0009s01470.1"	1638	"	"C/T"	"60,4/39,0"	"110/71"	182	stress_42	"POPTR_0009s01470.1"	1638	"	"C/T"	"55,2/44,8"	"16/13"	29
controllo_3	"POPTR_0009s01470.1"	1638	"	"C/T"	"60,4/39,0"	"110/71"	182	stress_45	"POPTR_0009s01470.1"	1638	"	"C/T"	"56,4/41,8"	"31/23"	55
controllo_3	"POPTR_0017s06920.1"	1200	"	"C/A"	"60,4/39,5"	"608/398"	1007	stress_12bis	"POPTR_0017s06920.1"	1200	"	"C/A"	"60,9/39,1"	"187/120"	307
controllo_3	"POPTR_0017s06920.1"	1200	"	"C/A"	"60,4/39,5"	"608/398"	1007	stress_42	"POPTR_0017s06920.1"	1200	"	"C/A"	"53,3/46,7"	"8/7"	15
controllo_3	"POPTR_0017s06920.1"	1200	"	"C/A"	"60,4/39,5"	"608/398"	1007	stress_45	"POPTR_0017s06920.1"	1200	"	"C/A"	"80,0/20,0"	"8/2"	10
controllo_3	"POPTR_0017s14470.1"	993	"	"C/T"	"60,4/39,6"	"32/21"	53	stress_45	"POPTR_0017s14470.1"	993	"	"T/C"	"57,1/42,9"	"76/57"	133
controllo_3	"POPTR_0006s23890.1"	337	"	"G/C"	"60,4/39,6"	"358/235"	593	stress_12bis	"POPTR_0006s23890.1"	337	"	"G/C"	"71,2/28,8"	"126/51"	177
controllo_3	"POPTR_0006s23890.1"	337	"	"G/C"	"60,4/39,6"	"358/235"	593	stress_42	"POPTR_0006s23890.1"	337	"	"G/C"	"66,2/33,8"	"47/24"	71
controllo_3	"POPTR_0006s23890.1"	337	"	"G/C"	"60,4/39,6"	"358/235"	593	stress_45	"POPTR_0006s23890.1"	337	"	"G/C"	"65,2/34,8"	"43/23"	66
controllo_3	"POPTR_0006s22950.1"	783	"	"G/T"	"60,4/39,6"	"136/89"	225	stress_12bis	"POPTR_0006s22950.1"	783	"	"G/T"	"61,0/39,0"	"36/23"	59
controllo_3	"POPTR_0006s22950.1"	783	"	"G/T"	"60,4/39,6"	"136/89"	225	stress_42	"POPTR_0006s22950.1"	783	"	"G/T"	"63,2/36,8"	"12/7"	19
controllo_3	"POPTR_0006s22950.1"	783	"	"G/T"	"60,4/39,6"	"136/89"	225	stress_45	"POPTR_0006s22950.1"	783	"	"G/T"	"65,5/34,5"	"19/10"	29
controllo_3	"POPTR_0006s05040.1"	70	"	"A/G"	"60,4/39,6"	"67/44"	111	stress_12bis	"POPTR_0006s05040.1"	70	"	"A/G"	"50,0/50,0"	"9/9"	18
controllo_3	"POPTR_0006s05040.1"	70	"	"A/G"	"60,4/39,6"	"67/44"	111	stress_42	"POPTR_0006s05040.1"	70	"	"G/A"	"54,2/45,8"	"26/22"	48
controllo_3	"POPTR_0006s05040.1"	70	"	"A/G"	"60,4/39,6"	"67/44"	111	stress_45	"POPTR_0006s05040.1"	70	"	"A/G"	"50,0/50,0"	"35/35"	70
controllo_3	"POPTR_0006s16030.1"	811	"	"A/G"	"60,4/39,6"	"61/40"	101	stress_45	"POPTR_0006s16030.1"	811	"	"A/G"	"72,7/27,3"	"8/3"	11
controllo_3	"POPTR_0003s21070.1"	33	"	"T/A"	"60,4/39,6"	"61/40"	101	stress_42	"POPTR_0003s21070.1"	33	"	"A/T"	"50,0/50,0"	"5/5"	10
controllo_3	"POPTR_0003s21070.1"	33	"	"T/A"	"60,4/39,6"	"61/40"	101	stress_45	"POPTR_0003s21070.1"	33	"	"T/A"	"60,0/40,0"	"6/4"	10
controllo_3	"POPTR_0003s13230.1"	168	"	"C/T"	"60,4/39,6"	"61/40"	101	stress_12bis	"POPTR_0003s13230.1"	168	"	"T/C"	"70,8/29,2"	"17/7"	24
controllo_3	"POPTR_0003s13230.1"	168	"	"C/T"	"60,4/39,6"	"61/40"	101	stress_45	"POPTR_0003s13230.1"	168	"	"C/T"	"52,4/47,6"	"11/10"	21
controllo_3	"POPTR_0003s09830.1"	741	"	"C/T"	"60,4/39,6"	"427/280"	707	stress_12bis	"POPTR_0003s09830.1"	741	"	"C/T"	"55,1/44,9"	"70/57"	127
controllo_3	"POPTR_0003s09830.1"	741	"	"C/T"	"60,4/39,6"	"427/280"	707	stress_42	"POPTR_0003s09830.1"	741	"	"C/T"	"52,6/47,4"	"20/18"	38
controllo_3	"POPTR_0003s09830.1"	741	"	"C/T"	"60,4/39,6"	"427/280"	707	stress_45	"POPTR_0003s09830.1"	741	"	"C/T"	"52,6/47,4"	"20/18"	38
controllo_3	"POPTR_0003s17010.1"	447	"	"C/T"	"60,4/39,6"	"198/130"	328	stress_12bis	"POPTR_0003s17010.1"	447	"	"C/T"	"64,8/35,2"	"79/43"	122
controllo_3	"POPTR_0003s17010.1"	447	"	"C/T"	"60,4/39,6"	"198/130"	328	stress_42	"POPTR_0003s17010.1"	447	"	"C/T"	"75,4/24,6"	"49/16"	65
controllo_3	"POPTR_0003s17010.1"	447	"	"C/T"	"60,4/39,6"	"198/130"	328	stress_45	"POPTR_0003s17010.1"	447	"	"C/T"	"63,8/36,2"	"51/29"	80
controllo_3	"POPTR_0019s12320.1"	1413	"	"A/C"	"60,4/39,6"	"99/65"	164	stress_12bis	"POPTR_0019s12320.1"	1413	"	"A/C"	"75,4/24,6"	"49/16"	65
controllo_3	"POPTR_0014s09180.1"	302	"	"C/T"	"60,4/39,6"	"116/76"	192	stress_12bis	"POPTR_0014s09180.1"	302	"	"C/T"	"67,3/32,7"	"35/17"	52
controllo_3	"POPTR_0014s09180.1"	302	"	"C/T"	"60,4/39,6"	"116/76"	192	stress_45	"POPTR_0014s09180.1"	302	"	"C/T"	"82,4/17,6"	"14/3"	17
controllo_3	"POPTR_0014s08410.1"	112	"	"A/G"	"60,4/39,6"	"61/40"	101	stress_12bis	"POPTR_0014s08410.1"	112	"	"A/G"	"61,2/38,8"	"30/19"	49
controllo_3	"POPTR_0014s08410.1"	112	"	"A/G"	"60,4/39,6"	"61/40"	101	stress_45	"POPTR_0014s08410.1"	112	"	"A/G"	"59,3/40,7"	"16/11"	27
controllo_3	"POPTR_0004s00480.1"	95	"	"T/C"	"60,4/39,6"	"192/126"	318	stress_12bis	"POPTR_0004s00480.1"	95	"	"T/C"	"51,2/48,8"	"88/84"	172
controllo_3	"POPTR_0004s00480.1"	95	"	"T/C"	"60,4/39,6"	"192/126"	318	stress_42	"POPTR_0004s00480.1"	95	"	"T/C"	"58,7/41,3"	"61/43"	104
controllo_3	"POPTR_0004s00480.1"	95	"	"T/C"	"60,4/39,6"	"192/126"	318	stress_45	"POPTR_0004s00480.1"	95	"	"T/C"	"56,7/43,3"	"97/74"	171
controllo_3	"POPTR_0011s05670.1"	267	"	"C/T"	"60,4/39,6"	"142/93"	235	stress_12bis	"POPTR_0011s05670.1"	267	"	"C/T"	"56,5/43,5"	"35/27"	62
controllo_3	"POPTR_0011s05670.1"	267	"	"C/T"	"60,4/39,6"	"142/93"	235	stress_42	"POPTR_0011s05670.1"	267	"	"C/T"	"80,8/19,2"	"21/5"	26
controllo_3	"POPTR_0011s05670.1"	267	"	"C/T"	"60,4/39,6"	"142/93"	235	stress_45	"POPTR_0011s05670.1"	267	"	"C/T"	"58,1/41,9"	"25/18"	43
controllo_3	"POPTR_0001s40250.1"	2034	"	"C/T"	"60,4/39,6"	"29/19"	48	stress_45	"POPTR_0001s40250.1"	2034	"	"T/C"	"70,5/29,5"	"79/33"	112
controllo_3	"POPTR_0001s12630.1"	144	"	"T/C"	"60,4/39,6"	"142/93"	235	stress_12bis	"POPTR_0001s12630.1"	144	"	"T/C"	"60,7/39,3"	"54/35"	89
controllo_3	"POPTR_0001s12630.1"	144	"	"T/C"	"60,4/39,6"	"142/93"	235	stress_42	"POPTR_0001s12630.1"	144	"	"T/C"	"52,2/47,8"	"72/66"	138
controllo_3	"POPTR_0001s12630.1"	144	"	"T/C"	"60,4/39,6"	"142/93"	235	stress_45	"POPTR_0001s12630.1"	144	"	"T/C"	"54,9/45,1"	"101/83"	184
controllo_3	"POPTR_0001s25630.1"	67	"	"G/T"	"60,4/39,6"	"116/76"	192	stress_12bis	"POPTR_0001s25630.1"	67	"	"T/G"	"52,6/47,4"	"20/18"	38
controllo_3	"POPTR_0001s25630.1"	67	"	"G/T"	"60,4/39,6"	"116/76"	192	stress_45	"POPTR_0001s25630.1"	67	"	"T/G"	"80,0/20,0"	"8/2"	10
controllo_3	"POPTR_0001s25630.1"	408	"	"G/A"	"60,4/39,6"	"110/72"	182	stress_12bis	"POPTR_0001s25630.1"	408	"	"G/A"	"55,6/44,4"	"30/24"	54
controllo_3	"POPTR_0001s25630.1"	408	"	"G/A"	"60,4/39,6"	"110/72"	182	stress_45	"POPTR_0001s25630.1"	408	"	"A/G"	"73,3/26,7"	"11/4"	15
controllo_3	"POPTR_0010s20770.1"	74	"	"G/C"	"60,4/39,6"	"67/44"	111	stress_12bis	"POPTR_0010s20770.1"	74	"	"G/C"	"66,0/34,0"	"33/17"	50
controllo_3	"POPTR_0010s16860.1"	408	"	"A/G"	"60,4/39,6"	"186/122"	308	stress_12bis	"POPTR_0010s16860.1"	408	"	"A/G"	"67,8/32,2"	"103/49"	152
controllo_3	"POPTR_0010s16860.1"	408	"	"A/G"	"60,4/39,6"	"186/122"	308	stress_42	"POPTR_0010s16860.1"	408	"	"A/G"	"57,1/42,9"	"12/9"	21
controllo_3	"POPTR_0010s16860.1"	408	"	"A/G"	"60,4/39,6"	"186/122"	308	stress_45	"POPTR_0010s16860.1"	408	"	"A/G"	"78,6/21,4"	"11/3"	14
controllo_3	"POPTR_0010s17860.1"	200	"	"G/A"	"60,4/39,6"	"160/105"	265	stress_12bis	"POPTR_0010s17860.1"	200	"	"A/G"	"50,0/50,0"	"23/23"	46
controllo_3	"POPTR_0010s17860.1"	200	"	"G/A"	"60,4/39,6"	"160/105"	265	stress_45	"POPTR_0010s17860.1"	200	"	"G/A"	"72,7/27,3"	"8/3"	11
controllo_3	"POPTR_0010s21270.1"	918	"	"A/T"	"60,4/39,6"	"169/111"	280	stress_12bis	"POPTR_0010s21270.1"	918	"	"A/T"	"55,4/44,6"	"56/45"	101
controllo_3	"POPTR_0010s21270.1"	918	"	"A/T"	"60,4/39,6"	"169/111"	280	stress_42	"POPTR_0010s21270.1"	918	"	"A/T"	"69,4/30,6"	"25/11"	36
controllo_3	"POPTR_0010s21270.1"	918	"	"A/T"	"60,4/39,6"	"169/111"	280	stress_45	"POPTR_0010s21270.1"	918	"	"A/T"	"58,4/40,4"	"52/36"	89
controllo_3	"POPTR_0010s21350.1"	828	"	"A/G"	"60,4/39,6"	"151/99"	250	stress_12bis	"POPTR_0010s21350.1"	828	"	"A/G"	"69,6/30,4"	"71/31"	102
controllo_3	"POPTR_0010s21350.1"	828	"	"A/G"	"60,4/39,6"	"151/99"	250	stress_42	"POPTR_0010s21350.1"	828	"	"A/G"	"84,8/15,2"	"28/5"	33
controllo_3	"POPTR_0010s21350.1"	828	"	"A/G"	"60,4/39,6"	"151/99"	250	stress_45	"POPTR_0010s21350.1"	828	"	"A/G"	"71,9/28,1"	"41/16"	57
controllo_3	"POPTR_0010s13740.1"	123	"	"A/G"	"60,4/39,6"	"61/40"	101	stress_12bis	"POPTR_0010s13740.1"	123	"	"G/A"	"53,5/46,5"	"23/20"	43
controllo_3	"POPTR_0007s05210.1"	840	"	"C/T"	"60,4/39,6"	"84/55"	139	stress_12bis	"POPTR_0007s05210.1"	840	"	"T/C"	"66,7/33,3"	"10/5"	15
controllo_3	"POPTR_0002s04420.1"	97	"	"C/T"	"60,4/39,6"	"64/42"	106	stress_12bis	"POPTR_0002s04420.1"	97	"	"C/T"	"56,7/43,3"	"17/13"	30
controllo_3	"POPTR_0002s04420.1"	97	"	"C/T"	"60,4/39,6"	"64/42"	106	stress_42	"POPTR_0002s04420.1"	97	"	"C/T"	"55,6/42,9"	"35/27"	63
controllo_3	"POPTR_0002s04420.1"	97	"	"C/T"	"60,4/39,6"	"64/42"	106	stress_45	"POPTR_0002s04420.1"	97	"	"C/T"	"53,0/47,0"	"62/55"	117
controllo_3	"POPTR_0002s04790.1"	928	"	"C/T"	"60,4/39,6"	"142/93"	235	stress_12bis	"POPTR_0002s04790.1"	928	"	"C/T"	"57,7/42,3"	"30/22"	52
controllo_3	"POPTR_0002s04790.1"	928	"	"C/T"	"60,4/39,6"	"142/93"	235	stress_42	"POPTR_0002s04790.1"	928	"	"C/T"	"59,1/40,9"	"13/9"	22
controllo_3	"POPTR_0002s04790.1"	928	"	"C/T"	"60,4/39,6"	"142/93"	235	stress_45	"POPTR_0002s04790.1"	928	"	"C/T"	"58,6/37,9"	"17/11"	29
controllo_3	"POPTR_0016s06540.1"	564	"	"G/A"	"60,4/39,6"	"142/93"	235	stress_12bis	"POPTR_0016s06540.1"	564	"	"G/A"	"64,7/35,3"	"11/6"	17
controllo_3	"POPTR_0016s11610.1"	917	"	"A/G"	"60,4/39,6"	"165/108"	273	stress_12bis	"POPTR_0016s11610.1"	917	"	"A/G"	"58,8/41,2"	"47/33"	80
controllo_3	"POPTR_0016s11610.1"	917	"	"A/G"	"60,4/39,6"	"165/108"	273	stress_42	"POPTR_0016s11610.1"	917	"	"A/G"	"65,2/34,8"	"30/16"	46
controllo_3	"POPTR_0016s11610.1"	917	"	"A/G"	"60,4/39,6"	"165/108"	273	stress_45	"POPTR_0016s11610.1"	917	"	"A/G"	"70,0/30,0"	"35/15"	50
controllo_3	"POPTR_0001s07850.1"	306	"	"C/T"	"60,5/38,8"	"89/57"	147	stress_12bis	"POPTR_0001s07850.1"	306	"	"C/T"	"82,8/17,2"	"24/5"	29
controllo_3	"POPTR_0001s07850.1"	306	"	"C/T"	"60,5/38,8"	"89/57"	147	stress_42	"POPTR_0001s07850.1"	306	"	"C/T"	"75,0/25,0"	"18/6"	24
controllo_3	"POPTR_0001s07850.1"	306	"	"C/T"	"60,5/38,8"	"89/57"	147	stress_45	"POPTR_0001s07850.1"	306	"	"C/T"	"69,4/30,6"	"34/15"	49
controllo_3	"POPTR_0005s06460.1"	612	"	"A/G"	"60,5/39,5"	"72/47"	119	stress_12bis	"POPTR_0005s06460.1"	612	"	"G/A"	"57,4/42,6"	"27/20"	47
controllo_3	"POPTR_0005s06460.1"	612	"	"A/G"	"60,5/39,5"	"72/47"	119	stress_42	"POPTR_0005s06460.1"	612	"	"G/A"	"67,6/32,4"	"23/11"	34
controllo_3	"POPTR_0005s06460.1"	612	"	"A/G"	"60,5/39,5"	"72/47"	119	stress_45	"POPTR_0005s06460.1"	612	"	"G/A"	"70,0/30,0"	"21/9"	30
controllo_3	"POPTR_0005s21360.1"	426	"	"T/C"	"60,5/39,5"	"107/70"	177	stress_12bis	"POPTR_0005s21360.1"	426	"	"T/C"	"64,2/35,8"	"34/19"	53
controllo_3	"POPTR_0017s14470.1"	759	"	"T/A"	"60,5/39,5"	"26/17"	43	stress_45	"POPTR_0017s14470.1"	759	"	"T/A"	"59,0/36,9"	"72/45"	122
controllo_3	"POPTR_0006s05160.1"	233	"	"G/A"	"60,5/39,5"	"150/98"	248	stress_12bis	"POPTR_0006s05160.1"	233	"	"G/A"	"55,7/44,3"	"54/43"	97
controllo_3	"POPTR_0006s05160.1"	233	"	"G/A"	"60,5/39,5"	"150/98"	248	stress_42	"POPTR_0006s05160.1"	233	"	"G/A"	"71,4/28,6"	"15/6"	21
controllo_3	"POPTR_0006s05160.1"	233	"	"G/A"	"60,5/39,5"	"150/98"	248	stress_45	"POPTR_0006s05160.1"	233	"	"G/A"	"67,3/32,7"	"37/18"	55
controllo_3	"POPTR_0006s21680.1"	87	"	"C/T"	"60,5/39,5"	"69/45"	114	stress_12bis	"POPTR_0006s21680.1"	87	"	"C/T"	"69,6/30,4"	"39/17"	56
controllo_3	"POPTR_0006s21680.1"	87	"	"C/T"	"60,5/39,5"	"69/45"	114	stress_42	"POPTR_0006s21680.1"	87	"	"C/T"	"57,9/42,1"	"22/16"	38
controllo_3	"POPTR_0006s21680.1"	87	"	"C/T"	"60,5/39,5"	"69/45"	114	stress_45	"POPTR_0006s21680.1"	87	"	"C/T"	"54,9/45,1"	"45/37"	82
controllo_3	"POPTR_0006s17950.1"	499	"	"G/A"	"60,5/39,5"	"78/51"	129	stress_12bis	"POPTR_0006s17950.1"	499	"	"G/A"	"65,9/34,1"	"29/15"	44
controllo_3	"POPTR_0006s17950.1"	499	"	"G/A"	"60,5/39,5"	"78/51"	129	stress_42	"POPTR_0006s17950.1"	499	"	"G/A"	"52,6/47,4"	"10/9"	19
controllo_3	"POPTR_0006s17950.1"	499	"	"G/A"	"60,5/39,5"	"78/51"	129	stress_45	"POPTR_0006s17950.1"	499	"	"G/A"	"59,1/40,9"	"13/9"	22
controllo_3	"POPTR_0009s07030.1"	167	"	"A/G"	"60,5/39,5"	"75/49"	124	stress_12bis	"POPTR_0009s07030.1"	167	"	"A/G"	"50,0/50,0"	"26/26"	52
controllo_3	"POPTR_0009s07030.1"	167	"	"A/G"	"60,5/39,5"	"75/49"	124	stress_42	"POPTR_0009s07030.1"	167	"	"A/G"	"69,2/30,8"	"9/4"	13
controllo_3	"POPTR_0009s07030.1"	167	"	"A/G"	"60,5/39,5"	"75/49"	124	stress_45	"POPTR_0009s07030.1"	167	"	"A/G"	"73,9/26,1"	"17/6"	23
controllo_3	"POPTR_0009s09580.1"	1077	"	"T/C"	"60,5/39,5"	"75/49"	124	stress_12bis	"POPTR_0009s09580.1"	1077	"	"T/C"	"51,2/48,8"	"21/20"	41
controllo_3	"POPTR_0009s09580.1"	1077	"	"T/C"	"60,5/39,5"	"75/49"	124	stress_42	"POPTR_0009s09580.1"	1077	"	"C/T"	"64,7/35,3"	"11/6"	17
controllo_3	"POPTR_0009s09580.1"	1077	"	"T/C"	"60,5/39,5"	"75/49"	124	stress_45	"POPTR_0009s09580.1"	1077	"	"C/T"	"50,0/50,0"	"9/9"	18
controllo_3	"POPTR_0012s06320.1"	2571	"	"C/T"	"60,5/39,5"	"78/51"	129	stress_12bis	"POPTR_0012s06320.1"	2571	"	"C/T"	"56,2/43,8"	"36/28"	64
controllo_3	"POPTR_0012s06320.1"	2571	"	"C/T"	"60,5/39,5"	"78/51"	129	stress_42	"POPTR_0012s06320.1"	2571	"	"T/C"	"50,8/49,2"	"30/29"	59
controllo_3	"POPTR_0012s06320.1"	2571	"	"C/T"	"60,5/39,5"	"78/51"	129	stress_45	"POPTR_0012s06320.1"	2571	"	"C/T"	"53,3/46,7"	"49/43"	92
controllo_3	"POPTR_0001s37480.1"	717	"	"T/C"	"60,5/39,5"	"204/133"	337	stress_12bis	"POPTR_0001s37480.1"	717	"	"T/C"	"57,6/42,4"	"34/25"	59
controllo_3	"POPTR_0001s37480.1"	717	"	"T/C"	"60,5/39,5"	"204/133"	337	stress_42	"POPTR_0001s37480.1"	717	"	"T/C"	"61,0/39,0"	"36/23"	59
controllo_3	"POPTR_0001s37480.1"	717	"	"T/C"	"60,5/39,5"	"204/133"	337	stress_45	"POPTR_0001s37480.1"	717	"	"T/C"	"67,8/32,2"	"101/48"	149
controllo_3	"POPTR_0001s36560.1"	585	"	"T/G"	"60,5/39,5"	"403/263"	666	stress_12bis	"POPTR_0001s36560.1"	585	"	"G/T"	"52,0/48,0"	"93/86"	179
controllo_3	"POPTR_0001s36560.1"	585	"	"T/G"	"60,5/39,5"	"403/263"	666	stress_42	"POPTR_0001s36560.1"	585	"	"G/T"	"50,0/50,0"	"20/20"	40
controllo_3	"POPTR_0001s36560.1"	585	"	"T/G"	"60,5/39,5"	"403/263"	666	stress_45	"POPTR_0001s36560.1"	585	"	"T/G"	"53,7/46,3"	"29/25"	54
controllo_3	"POPTR_0001s12970.1"	1527	"	"G/C"	"60,5/39,5"	"69/45"	114	stress_12bis	"POPTR_0001s12970.1"	1527	"	"G/C"	"53,7/46,3"	"22/19"	41
controllo_3	"POPTR_0001s12970.1"	1527	"	"G/C"	"60,5/39,5"	"69/45"	114	stress_45	"POPTR_0001s12970.1"	1527	"	"G/C"	"52,4/47,6"	"11/10"	21
controllo_3	"POPTR_0001s25630.1"	657	"	"C/T"	"60,5/39,5"	"98/64"	162	stress_12bis	"POPTR_0001s25630.1"	657	"	"C/T"	"57,1/42,9"	"24/18"	42
controllo_3	"POPTR_0010s05170.1"	726	"	"C/G"	"60,5/39,5"	"230/150"	380	stress_12bis	"POPTR_0010s05170.1"	726	"	"C/G"	"58,6/41,4"	"17/12"	29
controllo_3	"POPTR_0010s20060.1"	840	"	"T/A"	"60,5/39,5"	"336/219"	555	stress_12bis	"POPTR_0010s20060.1"	840	"	"T/A"	"66,5/33,5"	"113/57"	170
controllo_3	"POPTR_0010s20060.1"	840	"	"T/A"	"60,5/39,5"	"336/219"	555	stress_42	"POPTR_0010s20060.1"	840	"	"T/A"	"70,5/29,5"	"31/13"	44
controllo_3	"POPTR_0010s20060.1"	840	"	"T/A"	"60,5/39,5"	"336/219"	555	stress_45	"POPTR_0010s20060.1"	840	"	"T/A"	"81,8/18,2"	"45/10"	55
controllo_3	"POPTR_0007s07660.1"	366	"	"T/G"	"60,6/38,5"	"66/42"	109	stress_12bis	"POPTR_0007s07660.1"	366	"	"T/G"	"63,6/36,4"	"21/12"	33
controllo_3	"POPTR_0007s07660.1"	366	"	"T/G"	"60,6/38,5"	"66/42"	109	stress_42	"POPTR_0007s07660.1"	366	"	"T/G"	"53,3/46,7"	"24/21"	45
controllo_3	"POPTR_0007s07660.1"	366	"	"T/G"	"60,6/38,5"	"66/42"	109	stress_45	"POPTR_0007s07660.1"	366	"	"T/G"	"54,8/45,2"	"17/14"	31
controllo_3	"POPTR_0010s15250.1"	723	"	"G/T"	"60,6/38,8"	"97/62"	160	stress_12bis	"POPTR_0010s15250.1"	723	"	"G/T"	"58,7/41,3"	"37/26"	63
controllo_3	"POPTR_0010s15250.1"	723	"	"G/T"	"60,6/38,8"	"97/62"	160	stress_42	"POPTR_0010s15250.1"	723	"	"T/G"	"57,1/42,9"	"20/15"	35
controllo_3	"POPTR_0010s15250.1"	723	"	"G/T"	"60,6/38,8"	"97/62"	160	stress_45	"POPTR_0010s15250.1"	723	"	"G/T"	"52,6/47,4"	"20/18"	38
controllo_3	"POPTR_0017s05700.1"	36	"	"C/A"	"60,6/39,4"	"131/85"	216	stress_12bis	"POPTR_0017s05700.1"	36	"	"C/A"	"61,0/39,0"	"36/23"	59
controllo_3	"POPTR_0017s05700.1"	36	"	"C/A"	"60,6/39,4"	"131/85"	216	stress_42	"POPTR_0017s05700.1"	36	"	"C/A"	"56,0/44,0"	"14/11"	25
controllo_3	"POPTR_0017s05700.1"	36	"	"C/A"	"60,6/39,4"	"131/85"	216	stress_45	"POPTR_0017s05700.1"	36	"	"A/C"	"60,4/39,6"	"29/19"	48
controllo_3	"POPTR_0006s03660.1"	77	"	"A/G"	"60,6/39,4"	"66/43"	109	stress_12bis	"POPTR_0006s03660.1"	77	"	"G/A"	"61,5/38,5"	"16/10"	26
controllo_3	"POPTR_0006s03660.1"	77	"	"A/G"	"60,6/39,4"	"66/43"	109	stress_45	"POPTR_0006s03660.1"	77	"	"A/G"	"55,0/45,0"	"11/9"	20
controllo_3	"POPTR_0006s03660.1"	3649	"	"A/G"	"60,6/39,4"	"77/50"	127	stress_12bis	"POPTR_0006s03660.1"	3649	"	"A/G"	"77,8/22,2"	"21/6"	27
controllo_3	"POPTR_0006s03660.1"	3649	"	"A/G"	"60,6/39,4"	"77/50"	127	stress_45	"POPTR_0006s03660.1"	3649	"	"A/G"	"65,6/34,4"	"21/11"	32
controllo_3	"POPTR_0014s05640.1"	552	"	"A/G"	"60,6/39,4"	"63/41"	104	stress_12bis	"POPTR_0014s05640.1"	552	"	"A/G"	"50,0/50,0"	"22/22"	44
controllo_3	"POPTR_0014s05640.1"	552	"	"A/G"	"60,6/39,4"	"63/41"	104	stress_42	"POPTR_0014s05640.1"	552	"	"A/G"	"61,6/38,4"	"53/33"	86
controllo_3	"POPTR_0014s05640.1"	552	"	"A/G"	"60,6/39,4"	"63/41"	104	stress_45	"POPTR_0014s05640.1"	552	"	"A/G"	"66,7/33,3"	"86/43"	129
controllo_3	"POPTR_0004s22810.1"	197	"	"C/A"	"60,6/39,4"	"3738/2433"	6173	stress_12bis	"POPTR_0004s22810.1"	197	"	"C/A"	"61,1/38,9"	"1090/694"	1785
controllo_3	"POPTR_0004s22810.1"	197	"	"C/A"	"60,6/39,4"	"3738/2433"	6173	stress_42	"POPTR_0004s22810.1"	197	"	"C/A"	"56,5/43,5"	"350/269"	619
controllo_3	"POPTR_0004s22810.1"	197	"	"C/A"	"60,6/39,4"	"3738/2433"	6173	stress_45	"POPTR_0004s22810.1"	197	"	"C/A"	"54,0/46,0"	"398/339"	737
controllo_3	"POPTR_0001s37490.1"	982	"	"T/A"	"60,6/39,4"	"80/52"	132	stress_12bis	"POPTR_0001s37490.1"	982	"	"T/A"	"55,6/44,4"	"15/12"	27
controllo_3	"POPTR_0001s37490.1"	982	"	"T/A"	"60,6/39,4"	"80/52"	132	stress_42	"POPTR_0001s37490.1"	982	"	"T/A"	"66,7/33,3"	"24/12"	36
controllo_3	"POPTR_0001s37490.1"	982	"	"T/A"	"60,6/39,4"	"80/52"	132	stress_45	"POPTR_0001s37490.1"	982	"	"T/A"	"68,3/31,7"	"43/20"	63
controllo_3	"POPTR_0001s25630.1"	918	"	"C/A"	"60,6/39,4"	"132/86"	218	stress_12bis	"POPTR_0001s25630.1"	918	"	"C/A"	"52,2/47,8"	"35/32"	67
controllo_3	"POPTR_0001s25630.1"	918	"	"C/A"	"60,6/39,4"	"132/86"	218	stress_45	"POPTR_0001s25630.1"	918	"	"C/A"	"50,0/42,9"	"7/6"	14
controllo_3	"POPTR_0010s17860.1"	318	"	"C/T"	"60,6/39,4"	"114/74"	188	stress_12bis	"POPTR_0010s17860.1"	318	"	"C/T"	"60,0/40,0"	"24/16"	40
controllo_3	"POPTR_0010s17860.1"	318	"	"C/T"	"60,6/39,4"	"114/74"	188	stress_45	"POPTR_0010s17860.1"	318	"	"C/T"	"50,0/50,0"	"5/5"	10
controllo_3	"POPTR_0014s17610.1"	1032	"	"C/T"	"60,7/38,6"	"88/56"	145	stress_12bis	"POPTR_0014s17610.1"	1032	"	"C/T"	"51,6/48,4"	"33/31"	64
controllo_3	"POPTR_0014s17610.1"	1032	"	"C/T"	"60,7/38,6"	"88/56"	145	stress_42	"POPTR_0014s17610.1"	1032	"	"C/T"	"69,2/30,8"	"9/4"	13
controllo_3	"POPTR_0014s17610.1"	1032	"	"C/T"	"60,7/38,6"	"88/56"	145	stress_45	"POPTR_0014s17610.1"	1032	"	"C/T"	"52,0/48,0"	"13/12"	25
controllo_3	"POPTR_0005s07010.1"	90	"	"T/C"	"60,7/39,3"	"65/42"	107	stress_12bis	"POPTR_0005s07010.1"	90	"	"T/C"	"73,2/26,8"	"30/11"	41
controllo_3	"POPTR_0017s01760.1"	260	"	"G/A"	"60,7/39,3"	"74/48"	122	stress_12bis	"POPTR_0017s01760.1"	260	"	"G/A"	"54,3/45,7"	"19/16"	35
controllo_3	"POPTR_0017s01760.1"	260	"	"G/A"	"60,7/39,3"	"74/48"	122	stress_42	"POPTR_0017s01760.1"	260	"	"A/G"	"55,9/44,1"	"19/15"	34
controllo_3	"POPTR_0017s01760.1"	260	"	"G/A"	"60,7/39,3"	"74/48"	122	stress_45	"POPTR_0017s01760.1"	260	"	"G/A"	"56,8/43,2"	"25/19"	44
controllo_3	"POPTR_0006s13310.1"	822	"	"C/T"	"60,7/39,3"	"306/198"	504	stress_12bis	"POPTR_0006s13310.1"	822	"	"C/T"	"66,0/33,4"	"308/156"	467
controllo_3	"POPTR_0006s13310.1"	822	"	"C/T"	"60,7/39,3"	"306/198"	504	stress_42	"POPTR_0006s13310.1"	822	"	"C/T"	"63,3/36,7"	"178/103"	281
controllo_3	"POPTR_0006s13310.1"	822	"	"C/T"	"60,7/39,3"	"306/198"	504	stress_45	"POPTR_0006s13310.1"	822	"	"C/T"	"59,3/39,7"	"294/197"	496
controllo_3	"POPTR_0006s03660.1"	581	"	"A/G"	"60,7/39,3"	"68/44"	112	stress_12bis	"POPTR_0006s03660.1"	581	"	"G/A"	"62,5/37,5"	"10/6"	16
controllo_3	"POPTR_0006s03660.1"	581	"	"A/G"	"60,7/39,3"	"68/44"	112	stress_45	"POPTR_0006s03660.1"	581	"	"G/A"	"66,7/33,3"	"10/5"	15
controllo_3	"POPTR_0006s27170.1"	234	"	"A/G"	"60,7/39,3"	"949/615"	1564	stress_12bis	"POPTR_0006s27170.1"	234	"	"A/G"	"58,4/41,6"	"303/216"	519
controllo_3	"POPTR_0006s27170.1"	234	"	"A/G"	"60,7/39,3"	"949/615"	1564	stress_42	"POPTR_0006s27170.1"	234	"	"A/G"	"77,9/22,1"	"60/17"	77
controllo_3	"POPTR_0006s27170.1"	234	"	"A/G"	"60,7/39,3"	"949/615"	1564	stress_45	"POPTR_0006s27170.1"	234	"	"A/G"	"80,0/20,0"	"88/22"	110
controllo_3	"POPTR_0013s10250.1"	96	"	"C/T"	"60,7/39,3"	"283/183"	466	stress_12bis	"POPTR_0013s10250.1"	96	"	"C/T"	"51,5/48,5"	"123/116"	239
controllo_3	"POPTR_0013s10250.1"	96	"	"C/T"	"60,7/39,3"	"283/183"	466	stress_42	"POPTR_0013s10250.1"	96	"	"C/T"	"67,1/32,9"	"57/28"	85
controllo_3	"POPTR_0013s10250.1"	96	"	"C/T"	"60,7/39,3"	"283/183"	466	stress_45	"POPTR_0013s10250.1"	96	"	"C/T"	"67,5/32,5"	"77/37"	114
controllo_3	"POPTR_0014s15960.1"	1071	"	"C/T"	"60,7/39,3"	"34/22"	56	stress_42	"POPTR_0014s15960.1"	1071	"	"T/C"	"65,7/34,3"	"186/97"	283
controllo_3	"POPTR_0014s15960.1"	1071	"	"C/T"	"60,7/39,3"	"34/22"	56	stress_45	"POPTR_0014s15960.1"	1071	"	"T/C"	"67,7/32,3"	"176/84"	260
controllo_3	"POPTR_0014s10260.1"	162	"	"A/G"	"60,7/39,3"	"111/72"	183	stress_12bis	"POPTR_0014s10260.1"	162	"	"A/G"	"52,5/47,5"	"21/19"	40
controllo_3	"POPTR_0014s10260.1"	162	"	"A/G"	"60,7/39,3"	"111/72"	183	stress_42	"POPTR_0014s10260.1"	162	"	"A/G"	"64,3/35,7"	"18/10"	28
controllo_3	"POPTR_0014s10260.1"	162	"	"A/G"	"60,7/39,3"	"111/72"	183	stress_45	"POPTR_0014s10260.1"	162	"	"A/G"	"58,8/41,2"	"20/14"	34
controllo_3	"POPTR_0014s10260.1"	1835	"	"C/G"	"60,7/39,3"	"167/108"	275	stress_12bis	"POPTR_0014s10260.1"	1835	"	"C/G"	"53,8/46,2"	"28/24"	52
controllo_3	"POPTR_0014s10260.1"	1835	"	"C/G"	"60,7/39,3"	"167/108"	275	stress_42	"POPTR_0014s10260.1"	1835	"	"G/C"	"53,6/46,4"	"30/26"	56
controllo_3	"POPTR_0014s10260.1"	1835	"	"C/G"	"60,7/39,3"	"167/108"	275	stress_45	"POPTR_0014s10260.1"	1835	"	"G/C"	"60,8/39,2"	"48/31"	79
controllo_3	"POPTR_0014s16990.1"	137	"	"A/G"	"60,7/39,3"	"82/53"	135	stress_12bis	"POPTR_0014s16990.1"	137	"	"G/A"	"53,6/46,4"	"15/13"	28
controllo_3	"POPTR_0014s16990.1"	137	"	"A/G"	"60,7/39,3"	"82/53"	135	stress_45	"POPTR_0014s16990.1"	137	"	"A/G"	"58,3/41,7"	"7/5"	12
controllo_3	"POPTR_0014s01240.1"	587	"	"A/G"	"60,7/39,3"	"82/53"	135	stress_12bis	"POPTR_0014s01240.1"	587	"	"A/G"	"75,0/25,0"	"42/14"	56
controllo_3	"POPTR_0014s01240.1"	587	"	"A/G"	"60,7/39,3"	"82/53"	135	stress_42	"POPTR_0014s01240.1"	587	"	"A/G"	"69,0/31,0"	"20/9"	29
controllo_3	"POPTR_0014s01240.1"	587	"	"A/G"	"60,7/39,3"	"82/53"	135	stress_45	"POPTR_0014s01240.1"	587	"	"A/G"	"71,4/28,6"	"20/8"	28
controllo_3	"POPTR_0004s19380.1"	874	"	"A/G"	"60,7/39,3"	"85/55"	140	stress_12bis	"POPTR_0004s19380.1"	874	"	"A/G"	"60,8/39,2"	"45/29"	74
controllo_3	"POPTR_0004s19380.1"	874	"	"A/G"	"60,7/39,3"	"85/55"	140	stress_42	"POPTR_0004s19380.1"	874	"	"G/A"	"61,5/38,5"	"8/5"	13
controllo_3	"POPTR_0004s19380.1"	874	"	"A/G"	"60,7/39,3"	"85/55"	140	stress_45	"POPTR_0004s19380.1"	874	"	"G/A"	"53,3/46,7"	"8/7"	15
controllo_3	"POPTR_0009s13650.1"	788	"	"C/T"	"60,7/39,3"	"74/48"	122	stress_12bis	"POPTR_0009s13650.1"	788	"	"C/T"	"50,0/50,0"	"31/31"	62
controllo_3	"POPTR_0009s13650.1"	788	"	"C/T"	"60,7/39,3"	"74/48"	122	stress_42	"POPTR_0009s13650.1"	788	"	"T/C"	"56,1/43,9"	"23/18"	41
controllo_3	"POPTR_0009s13650.1"	788	"	"C/T"	"60,7/39,3"	"74/48"	122	stress_45	"POPTR_0009s13650.1"	788	"	"T/C"	"60,0/40,0"	"21/14"	35
controllo_3	"POPTR_0012s07270.1"	663	"	"A/G"	"60,7/39,3"	"111/72"	183	stress_12bis	"POPTR_0012s07270.1"	663	"	"G/A"	"59,7/40,3"	"46/31"	77
controllo_3	"POPTR_0012s07270.1"	663	"	"A/G"	"60,7/39,3"	"111/72"	183	stress_42	"POPTR_0012s07270.1"	663	"	"G/A"	"58,1/41,9"	"61/44"	105
controllo_3	"POPTR_0012s07270.1"	663	"	"A/G"	"60,7/39,3"	"111/72"	183	stress_45	"POPTR_0012s07270.1"	663	"	"A/G"	"51,3/48,7"	"58/55"	113
controllo_3	"POPTR_0001s01630.1"	526	"	"C/T"	"60,7/39,3"	"122/79"	201	stress_12bis	"POPTR_0001s01630.1"	526	"	"C/T"	"60,0/40,0"	"24/16"	40
controllo_3	"POPTR_0001s01630.1"	526	"	"C/T"	"60,7/39,3"	"122/79"	201	stress_45	"POPTR_0001s01630.1"	526	"	"C/T"	"70,0/30,0"	"7/3"	10
controllo_3	"POPTR_0010s17400.1"	569	"	"A/G"	"60,7/39,3"	"102/66"	168	stress_12bis	"POPTR_0010s17400.1"	569	"	"A/G"	"78,1/21,9"	"50/14"	64
controllo_3	"POPTR_0010s17400.1"	569	"	"A/G"	"60,7/39,3"	"102/66"	168	stress_45	"POPTR_0010s17400.1"	569	"	"A/G"	"78,8/21,2"	"26/7"	33
controllo_3	"POPTR_0002s22600.1"	158	"	"C/T"	"60,7/39,3"	"68/44"	112	stress_12bis	"POPTR_0002s22600.1"	158	"	"C/T"	"59,0/38,5"	"23/15"	39
controllo_3	"POPTR_0002s22600.1"	158	"	"C/T"	"60,7/39,3"	"68/44"	112	stress_42	"POPTR_0002s22600.1"	158	"	"C/T"	"72,7/27,3"	"8/3"	11
controllo_3	"POPTR_0002s22600.1"	158	"	"C/T"	"60,7/39,3"	"68/44"	112	stress_45	"POPTR_0002s22600.1"	158	"	"C/T"	"76,9/23,1"	"10/3"	13
controllo_3	"POPTR_0002s22220.1"	562	"	"C/A"	"60,8/38,7"	"413/263"	679	stress_12bis	"POPTR_0002s22220.1"	562	"	"C/A"	"54,5/44,8"	"73/60"	134
controllo_3	"POPTR_0002s22220.1"	562	"	"C/A"	"60,8/38,7"	"413/263"	679	stress_42	"POPTR_0002s22220.1"	562	"	"C/A"	"60,6/39,4"	"57/37"	94
controllo_3	"POPTR_0002s22220.1"	562	"	"C/A"	"60,8/38,7"	"413/263"	679	stress_45	"POPTR_0002s22220.1"	562	"	"A/C"	"56,2/42,3"	"77/58"	137
controllo_3	"POPTR_0010s20060.1"	390	"	"T/C"	"60,8/38,9"	"399/255"	656	stress_12bis	"POPTR_0010s20060.1"	390	"	"T/C"	"55,9/44,1"	"118/93"	211
controllo_3	"POPTR_0010s20060.1"	390	"	"T/C"	"60,8/38,9"	"399/255"	656	stress_42	"POPTR_0010s20060.1"	390	"	"T/C"	"58,3/41,7"	"28/20"	48
controllo_3	"POPTR_0010s20060.1"	390	"	"T/C"	"60,8/38,9"	"399/255"	656	stress_45	"POPTR_0010s20060.1"	390	"	"C/T"	"51,9/48,1"	"28/26"	54
controllo_3	"POPTR_0005s07010.1"	114	"	"T/C"	"60,8/39,2"	"62/40"	102	stress_12bis	"POPTR_0005s07010.1"	114	"	"T/C"	"70,3/29,7"	"26/11"	37
controllo_3	"POPTR_0017s05700.1"	123	"	"G/A"	"60,8/39,2"	"233/150"	383	stress_12bis	"POPTR_0017s05700.1"	123	"	"G/A"	"63,7/36,3"	"65/37"	102
controllo_3	"POPTR_0017s05700.1"	123	"	"G/A"	"60,8/39,2"	"233/150"	383	stress_42	"POPTR_0017s05700.1"	123	"	"G/A"	"67,2/32,8"	"45/22"	67
controllo_3	"POPTR_0017s05700.1"	123	"	"G/A"	"60,8/39,2"	"233/150"	383	stress_45	"POPTR_0017s05700.1"	123	"	"A/G"	"52,3/47,7"	"45/41"	86
controllo_3	"POPTR_0017s06920.1"	735	"	"A/C"	"60,8/39,2"	"357/230"	587	stress_12bis	"POPTR_0017s06920.1"	735	"	"A/C"	"63,4/36,1"	"116/66"	183
controllo_3	"POPTR_0017s06920.1"	1647	"	"T/C"	"60,8/39,2"	"694/447"	1141	stress_12bis	"POPTR_0017s06920.1"	1647	"	"T/C"	"61,2/38,6"	"211/133"	345
controllo_3	"POPTR_0017s06920.1"	1647	"	"T/C"	"60,8/39,2"	"694/447"	1141	stress_45	"POPTR_0017s06920.1"	1647	"	"T/C"	"80,0/20,0"	"8/2"	10
controllo_3	"POPTR_0003s20870.1"	1188	"	"T/C"	"60,8/39,2"	"76/49"	125	stress_12bis	"POPTR_0003s20870.1"	1188	"	"T/C"	"70,6/29,4"	"24/10"	34
controllo_3	"POPTR_0003s20870.1"	1188	"	"T/C"	"60,8/39,2"	"76/49"	125	stress_45	"POPTR_0003s20870.1"	1188	"	"T/C"	"57,1/42,9"	"12/9"	21
controllo_3	"POPTR_0003s13880.1"	476	"	"T/G"	"60,8/39,2"	"76/49"	125	stress_12bis	"POPTR_0003s13880.1"	476	"	"T/G"	"61,5/38,5"	"32/20"	52
controllo_3	"POPTR_0003s13880.1"	476	"	"T/G"	"60,8/39,2"	"76/49"	125	stress_42	"POPTR_0003s13880.1"	476	"	"T/G"	"57,1/42,9"	"100/75"	175
controllo_3	"POPTR_0003s13880.1"	476	"	"T/G"	"60,8/39,2"	"76/49"	125	stress_45	"POPTR_0003s13880.1"	476	"	"T/G"	"54,0/46,0"	"108/92"	200
controllo_3	"POPTR_0003s04000.1"	100	"	"G/T"	"60,8/39,2"	"76/49"	125	stress_12bis	"POPTR_0003s04000.1"	100	"	"T/G"	"58,5/41,5"	"24/17"	41
controllo_3	"POPTR_0003s04000.1"	100	"	"G/T"	"60,8/39,2"	"76/49"	125	stress_42	"POPTR_0003s04000.1"	100	"	"G/T"	"55,6/44,4"	"15/12"	27
controllo_3	"POPTR_0003s04000.1"	100	"	"G/T"	"60,8/39,2"	"76/49"	125	stress_45	"POPTR_0003s04000.1"	100	"	"T/G"	"55,0/45,0"	"22/18"	40
controllo_3	"POPTR_0019s04970.1"	148	"	"G/A"	"60,8/39,2"	"62/40"	102	stress_12bis	"POPTR_0019s04970.1"	148	"	"G/A"	"83,3/16,7"	"25/5"	30
controllo_3	"POPTR_0013s03700.1"	101	"	"A/C"	"60,8/39,2"	"110/71"	181	stress_12bis	"POPTR_0013s03700.1"	101	"	"C/A"	"50,9/49,1"	"27/26"	53
controllo_3	"POPTR_0013s03700.1"	101	"	"A/C"	"60,8/39,2"	"110/71"	181	stress_42	"POPTR_0013s03700.1"	101	"	"C/A"	"52,6/47,4"	"10/9"	19
controllo_3	"POPTR_0013s03700.1"	101	"	"A/C"	"60,8/39,2"	"110/71"	181	stress_45	"POPTR_0013s03700.1"	101	"	"C/A"	"73,1/26,9"	"19/7"	26
controllo_3	"POPTR_0014s09800.1"	309	"	"G/A"	"60,8/39,2"	"121/78"	199	stress_12bis	"POPTR_0014s09800.1"	309	"	"G/A"	"61,1/38,9"	"44/28"	72
controllo_3	"POPTR_0014s09800.1"	309	"	"G/A"	"60,8/39,2"	"121/78"	199	stress_42	"POPTR_0014s09800.1"	309	"	"G/A"	"76,5/23,5"	"13/4"	17
controllo_3	"POPTR_0014s09800.1"	309	"	"G/A"	"60,8/39,2"	"121/78"	199	stress_45	"POPTR_0014s09800.1"	309	"	"G/A"	"66,7/33,3"	"20/10"	30
controllo_3	"POPTR_0014s17610.1"	273	"	"A/G"	"60,8/39,2"	"87/56"	143	stress_12bis	"POPTR_0014s17610.1"	273	"	"A/G"	"75,0/25,0"	"57/19"	76
controllo_3	"POPTR_0014s17610.1"	273	"	"A/G"	"60,8/39,2"	"87/56"	143	stress_45	"POPTR_0014s17610.1"	273	"	"A/G"	"71,4/28,6"	"25/10"	35
controllo_3	"POPTR_0014s15120.1"	465	"	"G/A"	"60,8/39,2"	"76/49"	125	stress_12bis	"POPTR_0014s15120.1"	465	"	"G/A"	"65,9/34,1"	"29/15"	44
controllo_3	"POPTR_0014s15120.1"	465	"	"G/A"	"60,8/39,2"	"76/49"	125	stress_42	"POPTR_0014s15120.1"	465	"	"G/A"	"60,0/40,0"	"12/8"	20
controllo_3	"POPTR_0014s15120.1"	465	"	"G/A"	"60,8/39,2"	"76/49"	125	stress_45	"POPTR_0014s15120.1"	465	"	"G/A"	"63,2/36,8"	"12/7"	19
controllo_3	"POPTR_0004s18200.1"	354	"	"T/C"	"60,8/39,2"	"93/60"	153	stress_12bis	"POPTR_0004s18200.1"	354	"	"T/C"	"52,8/47,2"	"28/25"	53
controllo_3	"POPTR_0004s18200.1"	354	"	"T/C"	"60,8/39,2"	"93/60"	153	stress_42	"POPTR_0004s18200.1"	354	"	"T/C"	"58,3/41,7"	"35/25"	60
controllo_3	"POPTR_0004s18200.1"	354	"	"T/C"	"60,8/39,2"	"93/60"	153	stress_45	"POPTR_0004s18200.1"	354	"	"T/C"	"68,8/31,2"	"33/15"	48
controllo_3	"POPTR_0004s00480.1"	298	"	"G/A"	"60,8/39,2"	"186/120"	306	stress_12bis	"POPTR_0004s00480.1"	298	"	"G/A"	"51,0/49,0"	"73/70"	143
controllo_3	"POPTR_0004s00480.1"	298	"	"G/A"	"60,8/39,2"	"186/120"	306	stress_42	"POPTR_0004s00480.1"	298	"	"G/A"	"57,3/42,7"	"55/41"	96
controllo_3	"POPTR_0004s00480.1"	298	"	"G/A"	"60,8/39,2"	"186/120"	306	stress_45	"POPTR_0004s00480.1"	298	"	"G/A"	"56,8/43,2"	"63/48"	111
controllo_3	"POPTR_0015s11640.1"	153	"	"G/A"	"60,8/39,2"	"446/287"	733	stress_12bis	"POPTR_0015s11640.1"	153	"	"G/A"	"59,2/40,8"	"141/97"	238
controllo_3	"POPTR_0015s11640.1"	153	"	"G/A"	"60,8/39,2"	"446/287"	733	stress_42	"POPTR_0015s11640.1"	153	"	"A/G"	"57,1/42,9"	"24/18"	42
controllo_3	"POPTR_0015s11640.1"	153	"	"G/A"	"60,8/39,2"	"446/287"	733	stress_45	"POPTR_0015s11640.1"	153	"	"G/A"	"65,2/34,8"	"116/62"	178
controllo_3	"POPTR_0001s14280.1"	159	"	"A/T"	"60,8/39,2"	"79/51"	130	stress_12bis	"POPTR_0001s14280.1"	159	"	"A/T"	"58,1/41,9"	"36/26"	62
controllo_3	"POPTR_0001s14280.1"	159	"	"A/T"	"60,8/39,2"	"79/51"	130	stress_42	"POPTR_0001s14280.1"	159	"	"A/T"	"51,8/47,6"	"85/78"	164
controllo_3	"POPTR_0001s14280.1"	159	"	"A/T"	"60,8/39,2"	"79/51"	130	stress_45	"POPTR_0001s14280.1"	159	"	"A/T"	"51,2/48,8"	"123/117"	240
controllo_3	"POPTR_0001s01350.1"	186	"	"T/A"	"60,8/39,2"	"59/38"	97	stress_45	"POPTR_0001s01350.1"	186	"	"T/A"	"64,1/35,9"	"66/37"	103
controllo_3	"POPTR_0001s32780.1"	450	"	"T/C"	"60,8/39,2"	"90/58"	148	stress_12bis	"POPTR_0001s32780.1"	450	"	"T/C"	"63,0/37,0"	"17/10"	27
controllo_3	"POPTR_0001s32780.1"	450	"	"T/C"	"60,8/39,2"	"90/58"	148	stress_42	"POPTR_0001s32780.1"	450	"	"T/C"	"64,1/35,9"	"25/14"	39
controllo_3	"POPTR_0001s32780.1"	450	"	"T/C"	"60,8/39,2"	"90/58"	148	stress_45	"POPTR_0001s32780.1"	450	"	"T/C"	"58,9/41,1"	"56/39"	95
controllo_3	"POPTR_0010s20060.1"	540	"	"C/T"	"60,8/39,2"	"336/217"	553	stress_12bis	"POPTR_0010s20060.1"	540	"	"T/C"	"52,4/47,6"	"89/81"	170
controllo_3	"POPTR_0010s20060.1"	540	"	"C/T"	"60,8/39,2"	"336/217"	553	stress_42	"POPTR_0010s20060.1"	540	"	"C/T"	"64,3/35,7"	"18/10"	28
controllo_3	"POPTR_0010s20060.1"	540	"	"C/T"	"60,8/39,2"	"336/217"	553	stress_45	"POPTR_0010s20060.1"	540	"	"T/C"	"61,5/38,5"	"16/10"	26
controllo_3	"POPTR_0010s16160.1"	140	"	"C/A"	"60,8/39,2"	"194/125"	319	stress_12bis	"POPTR_0010s16160.1"	140	"	"C/A"	"59,2/40,8"	"42/29"	71
controllo_3	"POPTR_0010s16160.1"	140	"	"C/A"	"60,8/39,2"	"194/125"	319	stress_42	"POPTR_0010s16160.1"	140	"	"A/C"	"82,9/17,1"	"29/6"	35
controllo_3	"POPTR_0010s16160.1"	140	"	"C/A"	"60,8/39,2"	"194/125"	319	stress_45	"POPTR_0010s16160.1"	140	"	"A/C"	"69,8/30,2"	"30/13"	43
controllo_3	"POPTR_0007s08390.1"	72	"	"T/C"	"60,8/39,2"	"101/65"	166	stress_12bis	"POPTR_0007s08390.1"	72	"	"T/C"	"70,5/29,5"	"43/18"	61
controllo_3	"POPTR_0007s08390.1"	72	"	"T/C"	"60,8/39,2"	"101/65"	166	stress_42	"POPTR_0007s08390.1"	72	"	"T/C"	"55,3/44,7"	"21/17"	38
controllo_3	"POPTR_0007s08390.1"	72	"	"T/C"	"60,8/39,2"	"101/65"	166	stress_45	"POPTR_0007s08390.1"	72	"	"T/C"	"59,4/39,6"	"63/42"	106
controllo_3	"POPTR_0007s12070.1"	687	"	"T/A"	"60,8/39,2"	"621/400"	1021	stress_12bis	"POPTR_0007s12070.1"	687	"	"T/A"	"60,3/39,7"	"284/187"	471
controllo_3	"POPTR_0007s12070.1"	687	"	"T/A"	"60,8/39,2"	"621/400"	1021	stress_42	"POPTR_0007s12070.1"	687	"	"T/A"	"53,9/46,1"	"55/47"	102
controllo_3	"POPTR_0007s12070.1"	687	"	"T/A"	"60,8/39,2"	"621/400"	1021	stress_45	"POPTR_0007s12070.1"	687	"	"A/T"	"50,0/50,0"	"50/50"	100
controllo_3	"POPTR_0002s18500.1"	444	"	"T/C"	"60,8/39,2"	"76/49"	125	stress_12bis	"POPTR_0002s18500.1"	444	"	"T/C"	"80,0/20,0"	"36/9"	45
controllo_3	"POPTR_0002s18500.1"	444	"	"T/C"	"60,8/39,2"	"76/49"	125	stress_42	"POPTR_0002s18500.1"	444	"	"T/C"	"58,7/41,3"	"108/76"	184
controllo_3	"POPTR_0002s18500.1"	444	"	"T/C"	"60,8/39,2"	"76/49"	125	stress_45	"POPTR_0002s18500.1"	444	"	"T/C"	"62,5/36,9"	"110/65"	176
controllo_3	"POPTR_0002s03020.1"	36	"	"A/C"	"60,8/39,2"	"219/141"	360	stress_12bis	"POPTR_0002s03020.1"	36	"	"A/C"	"56,4/43,6"	"57/44"	101
controllo_3	"POPTR_0002s03020.1"	36	"	"A/C"	"60,8/39,2"	"219/141"	360	stress_42	"POPTR_0002s03020.1"	36	"	"A/C"	"74,5/25,5"	"111/38"	149
controllo_3	"POPTR_0002s03020.1"	36	"	"A/C"	"60,8/39,2"	"219/141"	360	stress_45	"POPTR_0002s03020.1"	36	"	"A/C"	"75,7/24,3"	"268/86"	354
controllo_3	"POPTR_0002s03020.1"	51	"	"A/C"	"60,8/39,2"	"247/159"	406	stress_12bis	"POPTR_0002s03020.1"	51	"	"A/C"	"54,4/45,6"	"62/52"	114
controllo_3	"POPTR_0002s03020.1"	51	"	"A/C"	"60,8/39,2"	"247/159"	406	stress_42	"POPTR_0002s03020.1"	51	"	"A/C"	"71,3/28,7"	"127/51"	178
controllo_3	"POPTR_0002s03020.1"	51	"	"A/C"	"60,8/39,2"	"247/159"	406	stress_45	"POPTR_0002s03020.1"	51	"	"A/C"	"76,0/24,0"	"307/97"	404
controllo_3	"POPTR_0008s14480.1"	303	"	"C/T"	"60,8/39,2"	"228/147"	375	stress_12bis	"POPTR_0008s14480.1"	303	"	"C/T"	"64,4/35,6"	"58/32"	90
controllo_3	"POPTR_0008s14480.1"	303	"	"C/T"	"60,8/39,2"	"228/147"	375	stress_42	"POPTR_0008s14480.1"	303	"	"C/T"	"56,0/44,0"	"14/11"	25
controllo_3	"POPTR_0008s14480.1"	303	"	"C/T"	"60,8/39,2"	"228/147"	375	stress_45	"POPTR_0008s14480.1"	303	"	"C/T"	"61,5/38,5"	"24/15"	39
controllo_3	"POPTR_0016s11610.1"	930	"	"C/T"	"60,8/39,2"	"186/120"	306	stress_12bis	"POPTR_0016s11610.1"	930	"	"C/T"	"53,3/46,7"	"49/43"	92
controllo_3	"POPTR_0016s11610.1"	930	"	"C/T"	"60,8/39,2"	"186/120"	306	stress_42	"POPTR_0016s11610.1"	930	"	"C/T"	"62,2/37,8"	"28/17"	45
controllo_3	"POPTR_0016s11610.1"	930	"	"C/T"	"60,8/39,2"	"186/120"	306	stress_45	"POPTR_0016s11610.1"	930	"	"C/T"	"71,2/28,8"	"37/15"	52
controllo_3	"POPTR_0001s36870.1"	2140	"	"T/C"	"60,9/37,3"	"67/41"	110	stress_12bis	"POPTR_0001s36870.1"	2140	"	"T/C"	"73,0/27,0"	"27/10"	37
controllo_3	"POPTR_0001s36870.1"	2140	"	"T/C"	"60,9/37,3"	"67/41"	110	stress_42	"POPTR_0001s36870.1"	2140	"	"T/C"	"53,7/46,3"	"22/19"	41
controllo_3	"POPTR_0001s36870.1"	2140	"	"T/C"	"60,9/37,3"	"67/41"	110	stress_45	"POPTR_0001s36870.1"	2140	"	"T/C"	"55,2/44,8"	"16/13"	29
controllo_3	"POPTR_0010s07560.1"	1095	"	"T/A"	"60,9/37,3"	"67/41"	110	stress_12bis	"POPTR_0010s07560.1"	1095	"	"T/A"	"70,3/29,7"	"26/11"	37
controllo_3	"POPTR_0010s07560.1"	1095	"	"T/A"	"60,9/37,3"	"67/41"	110	stress_42	"POPTR_0010s07560.1"	1095	"	"A/T"	"58,5/41,5"	"24/17"	41
controllo_3	"POPTR_0010s07560.1"	1095	"	"T/A"	"60,9/37,3"	"67/41"	110	stress_45	"POPTR_0010s07560.1"	1095	"	"T/A"	"64,0/32,0"	"32/16"	50
controllo_3	"POPTR_0017s12590.1"	1062	"	"C/T"	"60,9/39,1"	"81/52"	133	stress_12bis	"POPTR_0017s12590.1"	1062	"	"C/T"	"58,8/41,2"	"20/14"	34
controllo_3	"POPTR_0017s12590.1"	1062	"	"C/T"	"60,9/39,1"	"81/52"	133	stress_45	"POPTR_0017s12590.1"	1062	"	"T/C"	"63,6/36,4"	"7/4"	11
controllo_3	"POPTR_0006s18760.1"	613	"	"A/T"	"60,9/39,1"	"106/68"	174	stress_12bis	"POPTR_0006s18760.1"	613	"	"A/T"	"60,9/39,1"	"14/9"	23
controllo_3	"POPTR_0006s18760.1"	613	"	"A/T"	"60,9/39,1"	"106/68"	174	stress_45	"POPTR_0006s18760.1"	613	"	"A/T"	"54,5/45,5"	"6/5"	11
controllo_3	"POPTR_0003s18530.1"	932	"	"A/C"	"60,9/39,1"	"126/81"	207	stress_12bis	"POPTR_0003s18530.1"	932	"	"A/C"	"53,9/46,1"	"48/41"	89
controllo_3	"POPTR_0003s18530.1"	932	"	"A/C"	"60,9/39,1"	"126/81"	207	stress_42	"POPTR_0003s18530.1"	932	"	"A/C"	"50,0/50,0"	"36/36"	72
controllo_3	"POPTR_0003s18530.1"	932	"	"A/C"	"60,9/39,1"	"126/81"	207	stress_45	"POPTR_0003s18530.1"	932	"	"A/C"	"50,9/49,1"	"54/52"	106
controllo_3	"POPTR_0004s22660.1"	240	"	"A/G"	"60,9/39,1"	"67/43"	110	stress_12bis	"POPTR_0004s22660.1"	240	"	"A/G"	"63,3/36,7"	"19/11"	30
controllo_3	"POPTR_0004s22660.1"	240	"	"A/G"	"60,9/39,1"	"67/43"	110	stress_42	"POPTR_0004s22660.1"	240	"	"G/A"	"52,9/47,1"	"9/8"	17
controllo_3	"POPTR_0004s22660.1"	240	"	"A/G"	"60,9/39,1"	"67/43"	110	stress_45	"POPTR_0004s22660.1"	240	"	"A/G"	"73,3/26,7"	"11/4"	15
controllo_3	"POPTR_0004s01950.1"	219	"	"T/C"	"60,9/39,1"	"170/109"	279	stress_12bis	"POPTR_0004s01950.1"	219	"	"T/C"	"63,6/36,4"	"7/4"	11
controllo_3	"POPTR_0001s40700.1"	405	"	"G/A"	"60,9/39,1"	"112/72"	184	stress_12bis	"POPTR_0001s40700.1"	405	"	"G/A"	"68,2/31,8"	"45/21"	66
controllo_3	"POPTR_0001s40700.1"	405	"	"G/A"	"60,9/39,1"	"112/72"	184	stress_42	"POPTR_0001s40700.1"	405	"	"G/A"	"83,3/16,7"	"35/7"	42
controllo_3	"POPTR_0001s40700.1"	405	"	"G/A"	"60,9/39,1"	"112/72"	184	stress_45	"POPTR_0001s40700.1"	405	"	"G/A"	"80,0/20,0"	"44/11"	55
controllo_3	"POPTR_0001s01630.1"	810	"	"G/T"	"60,9/39,1"	"212/136"	348	stress_12bis	"POPTR_0001s01630.1"	810	"	"G/T"	"65,7/34,3"	"46/24"	70
controllo_3	"POPTR_0001s26960.1"	138	"	"T/C"	"60,9/39,1"	"176/113"	289	stress_12bis	"POPTR_0001s26960.1"	138	"	"T/C"	"57,1/42,9"	"32/24"	56
controllo_3	"POPTR_0001s26960.1"	138	"	"T/C"	"60,9/39,1"	"176/113"	289	stress_42	"POPTR_0001s26960.1"	138	"	"C/T"	"80,0/20,0"	"12/3"	15
controllo_3	"POPTR_0001s26960.1"	138	"	"T/C"	"60,9/39,1"	"176/113"	289	stress_45	"POPTR_0001s26960.1"	138	"	"C/T"	"54,8/45,2"	"17/14"	31
controllo_3	"POPTR_0002s07390.1"	61	"	"C/T"	"60,9/39,1"	"81/52"	133	stress_12bis	"POPTR_0002s07390.1"	61	"	"T/C"	"55,6/44,4"	"15/12"	27
controllo_3	"POPTR_0002s05840.1"	210	"	"A/T"	"60,9/39,1"	"98/63"	161	stress_12bis	"POPTR_0002s05840.1"	210	"	"A/T"	"60,0/40,0"	"42/28"	70
controllo_3	"POPTR_0002s05840.1"	210	"	"A/T"	"60,9/39,1"	"98/63"	161	stress_42	"POPTR_0002s05840.1"	210	"	"A/T"	"67,8/32,2"	"59/28"	87
controllo_3	"POPTR_0002s05840.1"	210	"	"A/T"	"60,9/39,1"	"98/63"	161	stress_45	"POPTR_0002s05840.1"	210	"	"A/T"	"56,4/43,6"	"62/48"	110
controllo_3	"POPTR_0008s18230.1"	196	"	"A/G"	"60,9/39,1"	"309/198"	507	stress_12bis	"POPTR_0008s18230.1"	196	"	"A/G"	"61,0/39,0"	"111/71"	182
controllo_3	"POPTR_0008s18230.1"	196	"	"A/G"	"60,9/39,1"	"309/198"	507	stress_42	"POPTR_0008s18230.1"	196	"	"A/G"	"59,0/41,0"	"46/32"	78
controllo_3	"POPTR_0008s18230.1"	196	"	"A/G"	"60,9/39,1"	"309/198"	507	stress_45	"POPTR_0008s18230.1"	196	"	"A/G"	"66,0/34,0"	"31/16"	47
controllo_3	"POPTR_0008s06960.1"	1316	"	"A/G"	"60,9/39,1"	"81/52"	133	stress_12bis	"POPTR_0008s06960.1"	1316	"	"A/G"	"50,0/50,0"	"7/7"	14
controllo_3	"POPTR_0008s06960.1"	1316	"	"A/G"	"60,9/39,1"	"81/52"	133	stress_45	"POPTR_0008s06960.1"	1316	"	"G/A"	"80,0/20,0"	"8/2"	10
controllo_3	"POPTR_0016s02540.1"	399	"	"T/C"	"60,9/39,1"	"148/95"	243	stress_12bis	"POPTR_0016s02540.1"	399	"	"T/C"	"55,2/43,8"	"53/42"	96
controllo_3	"POPTR_0016s02540.1"	399	"	"T/C"	"60,9/39,1"	"148/95"	243	stress_42	"POPTR_0016s02540.1"	399	"	"T/C"	"55,1/43,8"	"49/39"	89
controllo_3	"POPTR_0016s02540.1"	399	"	"T/C"	"60,9/39,1"	"148/95"	243	stress_45	"POPTR_0016s02540.1"	399	"	"T/C"	"55,9/43,2"	"62/48"	111
controllo_3	"POPTR_0016s11610.1"	1110	"	"C/G"	"60,9/39,1"	"224/144"	368	stress_12bis	"POPTR_0016s11610.1"	1110	"	"C/G"	"53,8/46,2"	"57/49"	106
controllo_3	"POPTR_0016s11610.1"	1110	"	"C/G"	"60,9/39,1"	"224/144"	368	stress_42	"POPTR_0016s11610.1"	1110	"	"C/G"	"59,3/40,7"	"35/24"	59
controllo_3	"POPTR_0016s11610.1"	1110	"	"C/G"	"60,9/39,1"	"224/144"	368	stress_45	"POPTR_0016s11610.1"	1110	"	"C/G"	"50,8/49,2"	"33/32"	65
controllo_3	"POPTR_0001s36560.1"	1290	"	"A/G"	"61,0/38,9"	"394/251"	646	stress_12bis	"POPTR_0001s36560.1"	1290	"	"A/G"	"59,8/40,2"	"110/74"	184
controllo_3	"POPTR_0001s36560.1"	1290	"	"A/G"	"61,0/38,9"	"394/251"	646	stress_42	"POPTR_0001s36560.1"	1290	"	"A/G"	"53,3/46,7"	"16/14"	30
controllo_3	"POPTR_0001s36560.1"	1290	"	"A/G"	"61,0/38,9"	"394/251"	646	stress_45	"POPTR_0001s36560.1"	1290	"	"G/A"	"57,4/42,6"	"31/23"	54
controllo_3	"POPTR_0005s26930.1"	532	"	"T/C"	"61,0/39,0"	"238/152"	390	stress_12bis	"POPTR_0005s26930.1"	532	"	"T/C"	"55,4/44,6"	"51/41"	92
controllo_3	"POPTR_0005s26930.1"	532	"	"T/C"	"61,0/39,0"	"238/152"	390	stress_42	"POPTR_0005s26930.1"	532	"	"C/T"	"60,5/39,5"	"23/15"	38
controllo_3	"POPTR_0005s26930.1"	532	"	"T/C"	"61,0/39,0"	"238/152"	390	stress_45	"POPTR_0005s26930.1"	532	"	"C/T"	"57,7/42,3"	"30/22"	52
controllo_3	"POPTR_0017s06920.1"	1698	"	"C/T"	"61,0/39,0"	"774/494"	1268	stress_12bis	"POPTR_0017s06920.1"	1698	"	"C/T"	"59,7/40,3"	"197/133"	330
controllo_3	"POPTR_0017s06920.1"	1698	"	"C/T"	"61,0/39,0"	"774/494"	1268	stress_42	"POPTR_0017s06920.1"	1698	"	"C/T"	"68,4/31,6"	"13/6"	19
controllo_3	"POPTR_0017s06920.1"	1698	"	"C/T"	"61,0/39,0"	"774/494"	1268	stress_45	"POPTR_0017s06920.1"	1698	"	"C/T"	"81,8/18,2"	"9/2"	11
controllo_3	"POPTR_0006s22950.1"	172	"	"G/A"	"61,0/39,0"	"153/98"	251	stress_12bis	"POPTR_0006s22950.1"	172	"	"G/A"	"57,5/42,5"	"46/34"	80
controllo_3	"POPTR_0006s22950.1"	172	"	"G/A"	"61,0/39,0"	"153/98"	251	stress_42	"POPTR_0006s22950.1"	172	"	"A/G"	"61,5/38,5"	"8/5"	13
controllo_3	"POPTR_0006s22950.1"	172	"	"G/A"	"61,0/39,0"	"153/98"	251	stress_45	"POPTR_0006s22950.1"	172	"	"G/A"	"64,5/35,5"	"20/11"	31
controllo_3	"POPTR_0006s16030.1"	118	"	"A/G"	"61,0/39,0"	"114/73"	187	stress_45	"POPTR_0006s16030.1"	118	"	"G/A"	"68,8/31,2"	"11/5"	16
controllo_3	"POPTR_0003s21190.1"	1461	"	"A/G"	"61,0/39,0"	"64/41"	105	stress_12bis	"POPTR_0003s21190.1"	1461	"	"A/G"	"56,2/43,8"	"18/14"	32
controllo_3	"POPTR_0019s14860.1"	992	"	"T/G"	"61,0/39,0"	"75/48"	123	stress_12bis	"POPTR_0019s14860.1"	992	"	"T/G"	"66,7/33,3"	"24/12"	36
controllo_3	"POPTR_0019s14860.1"	992	"	"T/G"	"61,0/39,0"	"75/48"	123	stress_42	"POPTR_0019s14860.1"	992	"	"T/G"	"61,9/38,1"	"13/8"	21
controllo_3	"POPTR_0019s14860.1"	992	"	"T/G"	"61,0/39,0"	"75/48"	123	stress_45	"POPTR_0019s14860.1"	992	"	"T/G"	"53,3/46,7"	"8/7"	15
controllo_3	"POPTR_0013s12130.1"	115	"	"G/A"	"61,0/39,0"	"125/80"	205	stress_12bis	"POPTR_0013s12130.1"	115	"	"G/A"	"59,1/40,9"	"26/18"	44
controllo_3	"POPTR_0013s12130.1"	115	"	"G/A"	"61,0/39,0"	"125/80"	205	stress_42	"POPTR_0013s12130.1"	115	"	"G/A"	"60,0/40,0"	"9/6"	15
controllo_3	"POPTR_0013s12130.1"	115	"	"G/A"	"61,0/39,0"	"125/80"	205	stress_45	"POPTR_0013s12130.1"	115	"	"G/A"	"66,7/33,3"	"14/7"	21
controllo_3	"POPTR_0013s07150.1"	135	"	"A/T"	"61,0/39,0"	"86/55"	141	stress_12bis	"POPTR_0013s07150.1"	135	"	"A/T"	"67,9/32,1"	"19/9"	28
controllo_3	"POPTR_0013s07150.1"	135	"	"A/T"	"61,0/39,0"	"86/55"	141	stress_45	"POPTR_0013s07150.1"	135	"	"T/A"	"52,2/47,8"	"12/11"	23
controllo_3	"POPTR_0014s13430.1"	288	"	"A/G"	"61,0/39,0"	"72/46"	118	stress_12bis	"POPTR_0014s13430.1"	288	"	"A/G"	"73,5/26,5"	"25/9"	34
controllo_3	"POPTR_0014s13430.1"	288	"	"A/G"	"61,0/39,0"	"72/46"	118	stress_42	"POPTR_0014s13430.1"	288	"	"A/G"	"53,8/46,2"	"7/6"	13
controllo_3	"POPTR_0014s13430.1"	288	"	"A/G"	"61,0/39,0"	"72/46"	118	stress_45	"POPTR_0014s13430.1"	288	"	"G/A"	"52,9/47,1"	"9/8"	17
controllo_3	"POPTR_0004s01510.1"	660	"	"A/C"	"61,0/39,0"	"467/298"	765	stress_12bis	"POPTR_0004s01510.1"	660	"	"A/C"	"84,6/15,4"	"22/4"	26
controllo_3	"POPTR_0009s05850.1"	348	"	"T/G"	"61,0/39,0"	"75/48"	123	stress_12bis	"POPTR_0009s05850.1"	348	"	"T/G"	"57,9/42,1"	"11/8"	19
controllo_3	"POPTR_0009s05850.1"	348	"	"T/G"	"61,0/39,0"	"75/48"	123	stress_42	"POPTR_0009s05850.1"	348	"	"T/G"	"76,0/24,0"	"19/6"	25
controllo_3	"POPTR_0009s05850.1"	348	"	"T/G"	"61,0/39,0"	"75/48"	123	stress_45	"POPTR_0009s05850.1"	348	"	"T/G"	"67,4/32,6"	"60/29"	89
controllo_3	"POPTR_0012s11410.1"	391	"	"G/T"	"61,0/39,0"	"128/82"	210	stress_12bis	"POPTR_0012s11410.1"	391	"	"G/T"	"67,9/32,1"	"38/18"	56
controllo_3	"POPTR_0012s11410.1"	391	"	"G/T"	"61,0/39,0"	"128/82"	210	stress_42	"POPTR_0012s11410.1"	391	"	"G/T"	"62,5/37,5"	"15/9"	24
controllo_3	"POPTR_0012s11410.1"	391	"	"G/T"	"61,0/39,0"	"128/82"	210	stress_45	"POPTR_0012s11410.1"	391	"	"G/T"	"65,1/34,9"	"28/15"	43
controllo_3	"POPTR_0001s14280.1"	975	"	"C/T"	"61,0/39,0"	"75/48"	123	stress_12bis	"POPTR_0001s14280.1"	975	"	"C/T"	"50,0/50,0"	"28/28"	56
controllo_3	"POPTR_0001s14280.1"	975	"	"C/T"	"61,0/39,0"	"75/48"	123	stress_42	"POPTR_0001s14280.1"	975	"	"C/T"	"52,7/47,3"	"89/80"	169
controllo_3	"POPTR_0001s14280.1"	975	"	"C/T"	"61,0/39,0"	"75/48"	123	stress_45	"POPTR_0001s14280.1"	975	"	"C/T"	"54,2/45,8"	"129/109"	238
controllo_3	"POPTR_0010s21270.1"	333	"	"T/C"	"61,0/39,0"	"213/136"	349	stress_12bis	"POPTR_0010s21270.1"	333	"	"T/C"	"65,4/34,6"	"83/44"	127
controllo_3	"POPTR_0010s21270.1"	333	"	"T/C"	"61,0/39,0"	"213/136"	349	stress_42	"POPTR_0010s21270.1"	333	"	"T/C"	"62,2/37,8"	"23/14"	37
controllo_3	"POPTR_0010s21270.1"	333	"	"T/C"	"61,0/39,0"	"213/136"	349	stress_45	"POPTR_0010s21270.1"	333	"	"T/C"	"59,2/40,8"	"74/51"	125
controllo_3	"POPTR_0007s14390.1"	375	"	"A/G"	"61,0/39,0"	"94/60"	154	stress_12bis	"POPTR_0007s14390.1"	375	"	"G/A"	"57,6/42,4"	"19/14"	33
controllo_3	"POPTR_0007s14390.1"	375	"	"A/G"	"61,0/39,0"	"94/60"	154	stress_42	"POPTR_0007s14390.1"	375	"	"A/G"	"80,0/20,0"	"12/3"	15
controllo_3	"POPTR_0007s14390.1"	375	"	"A/G"	"61,0/39,0"	"94/60"	154	stress_45	"POPTR_0007s14390.1"	375	"	"A/G"	"50,0/50,0"	"12/12"	24
controllo_3	"POPTR_0012s08330.1"	459	"	"T/A"	"61,1/38,1"	"157/98"	257	stress_12bis	"POPTR_0012s08330.1"	459	"	"T/A"	"50,0/48,0"	"49/47"	98
controllo_3	"POPTR_0012s08330.1"	459	"	"T/A"	"61,1/38,1"	"157/98"	257	stress_42	"POPTR_0012s08330.1"	459	"	"T/A"	"57,4/40,7"	"31/22"	54
controllo_3	"POPTR_0012s08330.1"	459	"	"T/A"	"61,1/38,1"	"157/98"	257	stress_45	"POPTR_0012s08330.1"	459	"	"T/A"	"64,3/35,7"	"45/25"	70
controllo_3	"POPTR_0005s26930.1"	489	"	"G/A"	"61,1/38,6"	"228/144"	373	stress_12bis	"POPTR_0005s26930.1"	489	"	"G/A"	"51,9/48,1"	"41/38"	79
controllo_3	"POPTR_0005s26930.1"	489	"	"G/A"	"61,1/38,6"	"228/144"	373	stress_42	"POPTR_0005s26930.1"	489	"	"A/G"	"60,0/40,0"	"27/18"	45
controllo_3	"POPTR_0005s26930.1"	489	"	"G/A"	"61,1/38,6"	"228/144"	373	stress_45	"POPTR_0005s26930.1"	489	"	"G/A"	"52,5/47,5"	"21/19"	40
controllo_3	"POPTR_0005s05450.1"	693	"	"C/T"	"61,1/38,9"	"116/74"	190	stress_12bis	"POPTR_0005s05450.1"	693	"	"T/C"	"51,1/48,9"	"24/23"	47
controllo_3	"POPTR_0005s05450.1"	693	"	"C/T"	"61,1/38,9"	"116/74"	190	stress_42	"POPTR_0005s05450.1"	693	"	"C/T"	"65,0/35,0"	"13/7"	20
controllo_3	"POPTR_0005s05450.1"	693	"	"C/T"	"61,1/38,9"	"116/74"	190	stress_45	"POPTR_0005s05450.1"	693	"	"C/T"	"77,8/22,2"	"14/4"	18
controllo_3	"POPTR_0017s06650.1"	2563	"	"G/A"	"61,1/38,9"	"116/74"	190	stress_12bis	"POPTR_0017s06650.1"	2563	"	"A/G"	"53,3/46,7"	"24/21"	45
controllo_3	"POPTR_0017s06650.1"	2563	"	"G/A"	"61,1/38,9"	"116/74"	190	stress_45	"POPTR_0017s06650.1"	2563	"	"A/G"	"60,0/40,0"	"6/4"	10
controllo_3	"POPTR_0006s06180.1"	2169	"	"T/C"	"61,1/38,9"	"96/61"	157	stress_12bis	"POPTR_0006s06180.1"	2169	"	"T/C"	"82,2/17,8"	"60/13"	73
controllo_3	"POPTR_0006s06180.1"	2169	"	"T/C"	"61,1/38,9"	"96/61"	157	stress_42	"POPTR_0006s06180.1"	2169	"	"T/C"	"77,6/22,4"	"38/11"	49
controllo_3	"POPTR_0006s06180.1"	2169	"	"T/C"	"61,1/38,9"	"96/61"	157	stress_45	"POPTR_0006s06180.1"	2169	"	"T/C"	"63,5/36,5"	"40/23"	63
controllo_3	"POPTR_0006s23770.1"	763	"	"G/A"	"61,1/38,9"	"154/98"	252	stress_12bis	"POPTR_0006s23770.1"	763	"	"A/G"	"50,8/49,2"	"31/30"	61
controllo_3	"POPTR_0006s23770.1"	763	"	"G/A"	"61,1/38,9"	"154/98"	252	stress_42	"POPTR_0006s23770.1"	763	"	"G/A"	"66,7/33,3"	"8/4"	12
controllo_3	"POPTR_0006s23770.1"	763	"	"G/A"	"61,1/38,9"	"154/98"	252	stress_45	"POPTR_0006s23770.1"	763	"	"G/A"	"55,2/44,8"	"16/13"	29
controllo_3	"POPTR_0006s13240.1"	372	"	"T/C"	"61,1/38,9"	"124/79"	203	stress_12bis	"POPTR_0006s13240.1"	372	"	"T/C"	"65,4/34,6"	"87/46"	133
controllo_3	"POPTR_0006s13240.1"	372	"	"T/C"	"61,1/38,9"	"124/79"	203	stress_42	"POPTR_0006s13240.1"	372	"	"T/C"	"63,6/36,4"	"21/12"	33
controllo_3	"POPTR_0006s13240.1"	372	"	"T/C"	"61,1/38,9"	"124/79"	203	stress_45	"POPTR_0006s13240.1"	372	"	"T/C"	"60,9/39,1"	"28/18"	46
controllo_3	"POPTR_0014s17610.1"	1033	"	"A/T"	"61,1/38,9"	"88/56"	144	stress_12bis	"POPTR_0014s17610.1"	1033	"	"A/T"	"50,8/47,6"	"32/30"	63
controllo_3	"POPTR_0014s17610.1"	1033	"	"A/T"	"61,1/38,9"	"88/56"	144	stress_42	"POPTR_0014s17610.1"	1033	"	"A/T"	"69,2/30,8"	"9/4"	13
controllo_3	"POPTR_0014s17610.1"	1033	"	"A/T"	"61,1/38,9"	"88/56"	144	stress_45	"POPTR_0014s17610.1"	1033	"	"A/T"	"51,9/48,1"	"14/13"	27
controllo_3	"POPTR_0004s15900.1"	856	"	"C/T"	"61,1/38,9"	"80/51"	131	stress_12bis	"POPTR_0004s15900.1"	856	"	"T/C"	"52,9/47,1"	"9/8"	17
controllo_3	"POPTR_0004s15900.1"	856	"	"C/T"	"61,1/38,9"	"80/51"	131	stress_42	"POPTR_0004s15900.1"	856	"	"C/T"	"53,3/46,7"	"8/7"	15
controllo_3	"POPTR_0004s15900.1"	856	"	"C/T"	"61,1/38,9"	"80/51"	131	stress_45	"POPTR_0004s15900.1"	856	"	"C/T"	"73,7/26,3"	"14/5"	19
controllo_3	"POPTR_0009s09710.1"	1265	"	"C/T"	"61,1/38,9"	"184/117"	301	stress_12bis	"POPTR_0009s09710.1"	1265	"	"C/T"	"61,0/39,0"	"119/76"	195
controllo_3	"POPTR_0009s09710.1"	1265	"	"C/T"	"61,1/38,9"	"184/117"	301	stress_42	"POPTR_0009s09710.1"	1265	"	"C/T"	"63,6/35,1"	"49/27"	77
controllo_3	"POPTR_0009s09710.1"	1265	"	"C/T"	"61,1/38,9"	"184/117"	301	stress_45	"POPTR_0009s09710.1"	1265	"	"C/T"	"54,0/46,0"	"54/46"	100
controllo_3	"POPTR_0009s06530.1"	87	"	"C/A"	"61,1/38,9"	"69/44"	113	stress_12bis	"POPTR_0009s06530.1"	87	"	"C/A"	"58,7/41,3"	"27/19"	46
controllo_3	"POPTR_0009s06530.1"	87	"	"C/A"	"61,1/38,9"	"69/44"	113	stress_45	"POPTR_0009s06530.1"	87	"	"C/A"	"58,3/41,7"	"7/5"	12
controllo_3	"POPTR_0012s08330.1"	231	"	"A/T"	"61,1/38,9"	"225/143"	368	stress_12bis	"POPTR_0012s08330.1"	231	"	"T/A"	"52,2/47,8"	"72/66"	138
controllo_3	"POPTR_0012s08330.1"	231	"	"A/T"	"61,1/38,9"	"225/143"	368	stress_42	"POPTR_0012s08330.1"	231	"	"A/T"	"65,8/34,2"	"75/39"	114
controllo_3	"POPTR_0012s08330.1"	231	"	"A/T"	"61,1/38,9"	"225/143"	368	stress_45	"POPTR_0012s08330.1"	231	"	"A/T"	"61,7/38,3"	"58/36"	94
controllo_3	"POPTR_0012s01430.1"	1476	"	"A/G"	"61,1/38,9"	"88/56"	144	stress_12bis	"POPTR_0012s01430.1"	1476	"	"A/G"	"56,5/43,5"	"35/27"	62
controllo_3	"POPTR_0012s01430.1"	1476	"	"A/G"	"61,1/38,9"	"88/56"	144	stress_42	"POPTR_0012s01430.1"	1476	"	"G/A"	"52,2/47,8"	"12/11"	23
controllo_3	"POPTR_0012s01430.1"	1476	"	"A/G"	"61,1/38,9"	"88/56"	144	stress_45	"POPTR_0012s01430.1"	1476	"	"G/A"	"59,5/40,5"	"22/15"	37
controllo_3	"POPTR_0001s12630.1"	141	"	"T/C"	"61,1/38,9"	"149/95"	244	stress_12bis	"POPTR_0001s12630.1"	141	"	"T/C"	"58,1/41,9"	"54/39"	93
controllo_3	"POPTR_0001s12630.1"	141	"	"T/C"	"61,1/38,9"	"149/95"	244	stress_42	"POPTR_0001s12630.1"	141	"	"C/T"	"50,7/48,6"	"70/67"	138
controllo_3	"POPTR_0001s12630.1"	141	"	"T/C"	"61,1/38,9"	"149/95"	244	stress_45	"POPTR_0001s12630.1"	141	"	"T/C"	"54,3/45,7"	"101/85"	186
controllo_3	"POPTR_0010s13990.1"	1041	"	"T/C"	"61,1/38,9"	"66/42"	108	stress_12bis	"POPTR_0010s13990.1"	1041	"	"T/C"	"64,3/35,7"	"9/5"	14
controllo_3	"POPTR_0010s13990.1"	1041	"	"T/C"	"61,1/38,9"	"66/42"	108	stress_45	"POPTR_0010s13990.1"	1041	"	"T/C"	"78,3/21,7"	"47/13"	60
controllo_3	"POPTR_0010s07560.1"	1320	"	"G/A"	"61,1/38,9"	"66/42"	108	stress_12bis	"POPTR_0010s07560.1"	1320	"	"G/A"	"62,0/38,0"	"49/30"	79
controllo_3	"POPTR_0010s07560.1"	1320	"	"G/A"	"61,1/38,9"	"66/42"	108	stress_42	"POPTR_0010s07560.1"	1320	"	"G/A"	"68,0/32,0"	"34/16"	50
controllo_3	"POPTR_0010s07560.1"	1320	"	"G/A"	"61,1/38,9"	"66/42"	108	stress_45	"POPTR_0010s07560.1"	1320	"	"G/A"	"64,8/35,2"	"35/19"	54
controllo_3	"POPTR_0002s18020.1"	194	"	"C/A"	"61,1/38,9"	"66/42"	108	stress_12bis	"POPTR_0002s18020.1"	194	"	"C/A"	"60,0/40,0"	"27/18"	45
controllo_3	"POPTR_0002s18020.1"	194	"	"C/A"	"61,1/38,9"	"66/42"	108	stress_42	"POPTR_0002s18020.1"	194	"	"C/A"	"56,8/43,2"	"21/16"	37
controllo_3	"POPTR_0002s18020.1"	194	"	"C/A"	"61,1/38,9"	"66/42"	108	stress_45	"POPTR_0002s18020.1"	194	"	"C/A"	"66,2/33,8"	"47/24"	71
controllo_3	"POPTR_0008s13780.1"	950	"	"C/G"	"61,1/38,9"	"215/137"	352	stress_12bis	"POPTR_0008s13780.1"	950	"	"C/G"	"60,3/39,7"	"35/23"	58
controllo_3	"POPTR_0008s13780.1"	950	"	"C/G"	"61,1/38,9"	"215/137"	352	stress_42	"POPTR_0008s13780.1"	950	"	"C/G"	"51,7/48,3"	"15/14"	29
controllo_3	"POPTR_0008s13780.1"	950	"	"C/G"	"61,1/38,9"	"215/137"	352	stress_45	"POPTR_0008s13780.1"	950	"	"C/G"	"73,8/26,2"	"31/11"	42
controllo_3	"POPTR_0016s03980.1"	933	"	"G/A"	"61,1/38,9"	"69/44"	113	stress_12bis	"POPTR_0016s03980.1"	933	"	"A/G"	"61,8/38,2"	"21/13"	34
controllo_3	"POPTR_0016s05530.1"	723	"	"C/T"	"61,1/38,9"	"66/42"	108	stress_12bis	"POPTR_0016s05530.1"	723	"	"C/T"	"54,3/45,7"	"19/16"	35
controllo_3	"POPTR_0016s05530.1"	723	"	"C/T"	"61,1/38,9"	"66/42"	108	stress_42	"POPTR_0016s05530.1"	723	"	"C/T"	"55,2/44,8"	"48/39"	87
controllo_3	"POPTR_0016s05530.1"	723	"	"C/T"	"61,1/38,9"	"66/42"	108	stress_45	"POPTR_0016s05530.1"	723	"	"C/T"	"49,7/49,7"	"74/74"	149
controllo_3	"POPTR_0006s13980.1"	336	"	"C/T"	"61,2/37,1"	"170/103"	278	stress_12bis	"POPTR_0006s13980.1"	336	"	"C/T"	"53,3/44,0"	"40/33"	75
controllo_3	"POPTR_0006s13980.1"	336	"	"C/T"	"61,2/37,1"	"170/103"	278	stress_42	"POPTR_0006s13980.1"	336	"	"C/T"	"77,8/22,2"	"14/4"	18
controllo_3	"POPTR_0006s13980.1"	336	"	"C/T"	"61,2/37,1"	"170/103"	278	stress_45	"POPTR_0006s13980.1"	336	"	"T/C"	"60,0/40,0"	"9/6"	15
controllo_3	"POPTR_0010s19930.1"	846	"	"C/T"	"61,2/37,8"	"115/71"	188	stress_12bis	"POPTR_0010s19930.1"	846	"	"T/C"	"56,2/43,8"	"9/7"	16
controllo_3	"POPTR_0010s19930.1"	846	"	"C/T"	"61,2/37,8"	"115/71"	188	stress_42	"POPTR_0010s19930.1"	846	"	"T/C"	"58,5/38,2"	"72/47"	123
controllo_3	"POPTR_0010s19930.1"	846	"	"C/T"	"61,2/37,8"	"115/71"	188	stress_45	"POPTR_0010s19930.1"	846	"	"T/C"	"55,8/42,3"	"58/44"	104
controllo_3	"POPTR_0004s00480.1"	233	"	"G/T"	"61,2/38,4"	"148/93"	242	stress_12bis	"POPTR_0004s00480.1"	233	"	"G/T"	"56,6/42,7"	"81/61"	143
controllo_3	"POPTR_0004s00480.1"	233	"	"G/T"	"61,2/38,4"	"148/93"	242	stress_42	"POPTR_0004s00480.1"	233	"	"G/T"	"55,7/44,3"	"39/31"	70
controllo_3	"POPTR_0004s00480.1"	233	"	"G/T"	"61,2/38,4"	"148/93"	242	stress_45	"POPTR_0004s00480.1"	233	"	"G/T"	"66,9/31,5"	"87/41"	130
controllo_3	"POPTR_0001s11600.1"	189	"	"T/A"	"61,2/38,6"	"540/341"	883	stress_12bis	"POPTR_0001s11600.1"	189	"	"T/A"	"57,7/41,6"	"165/119"	286
controllo_3	"POPTR_0001s11600.1"	189	"	"T/A"	"61,2/38,6"	"540/341"	883	stress_42	"POPTR_0001s11600.1"	189	"	"A/T"	"61,3/38,7"	"38/24"	62
controllo_3	"POPTR_0001s11600.1"	189	"	"T/A"	"61,2/38,6"	"540/341"	883	stress_45	"POPTR_0001s11600.1"	189	"	"T/A"	"57,4/42,6"	"35/26"	61
controllo_3	"POPTR_0005s10850.1"	570	"	"G/A"	"61,2/38,8"	"79/50"	129	stress_12bis	"POPTR_0005s10850.1"	570	"	"G/A"	"61,4/38,6"	"43/27"	70
controllo_3	"POPTR_0005s10850.1"	570	"	"G/A"	"61,2/38,8"	"79/50"	129	stress_42	"POPTR_0005s10850.1"	570	"	"G/A"	"56,2/43,8"	"9/7"	16
controllo_3	"POPTR_0005s10850.1"	570	"	"G/A"	"61,2/38,8"	"79/50"	129	stress_45	"POPTR_0005s10850.1"	570	"	"A/G"	"57,1/42,9"	"12/9"	21
controllo_3	"POPTR_0005s05450.1"	183	"	"C/T"	"61,2/38,8"	"115/73"	188	stress_12bis	"POPTR_0005s05450.1"	183	"	"C/T"	"66,7/33,3"	"30/15"	45
controllo_3	"POPTR_0005s05450.1"	183	"	"C/T"	"61,2/38,8"	"115/73"	188	stress_42	"POPTR_0005s05450.1"	183	"	"T/C"	"66,7/33,3"	"8/4"	12
controllo_3	"POPTR_0005s05450.1"	183	"	"C/T"	"61,2/38,8"	"115/73"	188	stress_45	"POPTR_0005s05450.1"	183	"	"C/T"	"60,0/40,0"	"9/6"	15
controllo_3	"POPTR_0005s02580.1"	573	"	"C/T"	"61,2/38,8"	"71/45"	116	stress_12bis	"POPTR_0005s02580.1"	573	"	"C/T"	"68,3/31,7"	"28/13"	41
controllo_3	"POPTR_0005s02580.1"	573	"	"C/T"	"61,2/38,8"	"71/45"	116	stress_42	"POPTR_0005s02580.1"	573	"	"C/T"	"62,9/37,1"	"39/23"	62
controllo_3	"POPTR_0005s02580.1"	573	"	"C/T"	"61,2/38,8"	"71/45"	116	stress_45	"POPTR_0005s02580.1"	573	"	"C/T"	"61,2/38,8"	"41/26"	67
controllo_3	"POPTR_0017s07800.1"	326	"	"G/T"	"61,2/38,8"	"79/50"	129	stress_12bis	"POPTR_0017s07800.1"	326	"	"T/G"	"63,4/36,6"	"26/15"	41
controllo_3	"POPTR_0022s00530.1"	1377	"	"A/G"	"61,2/38,8"	"104/66"	170	stress_12bis	"POPTR_0022s00530.1"	1377	"	"A/G"	"56,2/43,8"	"27/21"	48
controllo_3	"POPTR_0022s00530.1"	1377	"	"A/G"	"61,2/38,8"	"104/66"	170	stress_42	"POPTR_0022s00530.1"	1377	"	"G/A"	"59,3/40,7"	"16/11"	27
controllo_3	"POPTR_0022s00530.1"	1377	"	"A/G"	"61,2/38,8"	"104/66"	170	stress_45	"POPTR_0022s00530.1"	1377	"	"A/G"	"66,2/33,8"	"47/24"	71
controllo_3	"POPTR_0004s22810.1"	196	"	"G/A"	"61,2/38,8"	"3857/2447"	6304	stress_12bis	"POPTR_0004s22810.1"	196	"	"G/A"	"61,6/38,4"	"1115/695"	1810
controllo_3	"POPTR_0004s22810.1"	196	"	"G/A"	"61,2/38,8"	"3857/2447"	6304	stress_42	"POPTR_0004s22810.1"	196	"	"G/A"	"56,5/43,3"	"351/269"	621
controllo_3	"POPTR_0004s22810.1"	196	"	"G/A"	"61,2/38,8"	"3857/2447"	6304	stress_45	"POPTR_0004s22810.1"	196	"	"G/A"	"54,4/45,6"	"406/341"	747
controllo_3	"POPTR_0004s10660.1"	586	"	"A/G"	"61,2/38,8"	"357/226"	583	stress_12bis	"POPTR_0004s10660.1"	586	"	"A/G"	"57,7/42,3"	"86/63"	149
controllo_3	"POPTR_0004s10660.1"	586	"	"A/G"	"61,2/38,8"	"357/226"	583	stress_42	"POPTR_0004s10660.1"	586	"	"G/A"	"59,0/41,0"	"128/89"	217
controllo_3	"POPTR_0004s10660.1"	586	"	"A/G"	"61,2/38,8"	"357/226"	583	stress_45	"POPTR_0004s10660.1"	586	"	"A/G"	"50,2/49,8"	"134/133"	267
controllo_3	"POPTR_0009s05840.1"	466	"	"A/C"	"61,2/38,8"	"74/47"	121	stress_12bis	"POPTR_0009s05840.1"	466	"	"A/C"	"68,8/31,2"	"11/5"	16
controllo_3	"POPTR_0009s05840.1"	466	"	"A/C"	"61,2/38,8"	"74/47"	121	stress_42	"POPTR_0009s05840.1"	466	"	"A/C"	"66,7/33,3"	"22/11"	33
controllo_3	"POPTR_0009s05840.1"	466	"	"A/C"	"61,2/38,8"	"74/47"	121	stress_45	"POPTR_0009s05840.1"	466	"	"A/C"	"68,8/31,2"	"53/24"	77
controllo_3	"POPTR_0009s06530.1"	273	"	"G/A"	"61,2/38,8"	"71/45"	116	stress_12bis	"POPTR_0009s06530.1"	273	"	"G/A"	"62,1/37,9"	"18/11"	29
controllo_3	"POPTR_0009s06530.1"	273	"	"G/A"	"61,2/38,8"	"71/45"	116	stress_45	"POPTR_0009s06530.1"	273	"	"G/A"	"69,2/30,8"	"9/4"	13
controllo_3	"POPTR_0012s13230.1"	213	"	"C/T"	"61,2/38,8"	"63/40"	103	stress_12bis	"POPTR_0012s13230.1"	213	"	"C/T"	"71,4/28,6"	"10/4"	14
controllo_3	"POPTR_0015s06230.1"	33	"	"T/G"	"61,2/38,8"	"93/59"	152	stress_12bis	"POPTR_0015s06230.1"	33	"	"T/G"	"81,0/19,0"	"17/4"	21
controllo_3	"POPTR_0010s08880.1"	124	"	"C/A"	"61,2/38,8"	"63/40"	103	stress_12bis	"POPTR_0010s08880.1"	124	"	"C/A"	"66,7/33,3"	"10/5"	15
controllo_3	"POPTR_0010s08880.1"	124	"	"C/A"	"61,2/38,8"	"63/40"	103	stress_42	"POPTR_0010s08880.1"	124	"	"C/A"	"84,2/15,8"	"16/3"	19
controllo_3	"POPTR_0010s08880.1"	124	"	"C/A"	"61,2/38,8"	"63/40"	103	stress_45	"POPTR_0010s08880.1"	124	"	"C/A"	"70,0/30,0"	"14/6"	20
controllo_3	"POPTR_0002s14730.1"	1026	"	"A/C"	"61,2/38,8"	"599/379"	978	stress_12bis	"POPTR_0002s14730.1"	1026	"	"A/C"	"58,3/41,7"	"190/136"	326
controllo_3	"POPTR_0002s14730.1"	1026	"	"A/C"	"61,2/38,8"	"599/379"	978	stress_42	"POPTR_0002s14730.1"	1026	"	"C/A"	"67,7/32,3"	"84/40"	124
controllo_3	"POPTR_0002s14730.1"	1026	"	"A/C"	"61,2/38,8"	"599/379"	978	stress_45	"POPTR_0002s14730.1"	1026	"	"C/A"	"78,8/21,2"	"167/45"	212
controllo_3	"POPTR_0002s22560.1"	136	"	"A/T"	"61,2/38,8"	"476/302"	778	stress_12bis	"POPTR_0002s22560.1"	136	"	"A/T"	"56,4/43,6"	"159/123"	282
controllo_3	"POPTR_0002s22560.1"	136	"	"A/T"	"61,2/38,8"	"476/302"	778	stress_42	"POPTR_0002s22560.1"	136	"	"A/T"	"63,3/36,7"	"38/22"	60
controllo_3	"POPTR_0002s22560.1"	136	"	"A/T"	"61,2/38,8"	"476/302"	778	stress_45	"POPTR_0002s22560.1"	136	"	"A/T"	"53,9/46,1"	"55/47"	102
controllo_3	"POPTR_0002s24310.1"	774	"	"T/A"	"61,2/38,8"	"74/47"	121	stress_12bis	"POPTR_0002s24310.1"	774	"	"T/A"	"54,5/45,5"	"6/5"	11
controllo_3	"POPTR_0002s24310.1"	774	"	"T/A"	"61,2/38,8"	"74/47"	121	stress_42	"POPTR_0002s24310.1"	774	"	"T/A"	"57,1/42,9"	"12/9"	21
controllo_3	"POPTR_0002s24310.1"	774	"	"T/A"	"61,2/38,8"	"74/47"	121	stress_45	"POPTR_0002s24310.1"	774	"	"T/A"	"56,2/43,8"	"9/7"	16
controllo_3	"POPTR_0016s03230.1"	663	"	"A/G"	"61,2/38,8"	"101/64"	165	stress_12bis	"POPTR_0016s03230.1"	663	"	"A/G"	"66,9/33,1"	"101/50"	151
controllo_3	"POPTR_0016s03230.1"	663	"	"A/G"	"61,2/38,8"	"101/64"	165	stress_42	"POPTR_0016s03230.1"	663	"	"A/G"	"69,2/30,8"	"36/16"	52
controllo_3	"POPTR_0016s03230.1"	663	"	"A/G"	"61,2/38,8"	"101/64"	165	stress_45	"POPTR_0016s03230.1"	663	"	"A/G"	"61,2/38,8"	"30/19"	49
controllo_3	"POPTR_0004s10660.1"	690	"	"T/C"	"61,3/38,3"	"330/206"	538	stress_12bis	"POPTR_0004s10660.1"	690	"	"T/C"	"56,4/43,6"	"79/61"	140
controllo_3	"POPTR_0004s10660.1"	690	"	"T/C"	"61,3/38,3"	"330/206"	538	stress_42	"POPTR_0004s10660.1"	690	"	"T/C"	"84,9/15,1"	"332/59"	391
controllo_3	"POPTR_0004s10660.1"	690	"	"T/C"	"61,3/38,3"	"330/206"	538	stress_45	"POPTR_0004s10660.1"	690	"	"T/C"	"81,1/18,9"	"270/63"	333
controllo_3	"POPTR_0017s14470.1"	810	"	"C/A"	"61,3/38,7"	"38/24"	62	stress_45	"POPTR_0017s14470.1"	810	"	"C/A"	"63,5/36,5"	"99/57"	156
controllo_3	"POPTR_0006s18760.1"	672	"	"C/T"	"61,3/38,7"	"100/63"	163	stress_12bis	"POPTR_0006s18760.1"	672	"	"T/C"	"51,9/48,1"	"14/13"	27
controllo_3	"POPTR_0006s18760.1"	672	"	"C/T"	"61,3/38,7"	"100/63"	163	stress_42	"POPTR_0006s18760.1"	672	"	"C/T"	"61,5/38,5"	"8/5"	13
controllo_3	"POPTR_0006s18760.1"	672	"	"C/T"	"61,3/38,7"	"100/63"	163	stress_45	"POPTR_0006s18760.1"	672	"	"C/T"	"58,3/41,7"	"7/5"	12
controllo_3	"POPTR_0006s28990.1"	322	"	"T/C"	"61,3/38,7"	"138/87"	225	stress_12bis	"POPTR_0006s28990.1"	322	"	"T/C"	"52,9/47,1"	"18/16"	34
controllo_3	"POPTR_0006s28990.1"	322	"	"T/C"	"61,3/38,7"	"138/87"	225	stress_42	"POPTR_0006s28990.1"	322	"	"T/C"	"53,2/46,8"	"25/22"	47
controllo_3	"POPTR_0006s28990.1"	322	"	"T/C"	"61,3/38,7"	"138/87"	225	stress_45	"POPTR_0006s28990.1"	322	"	"T/C"	"51,9/48,1"	"40/37"	77
controllo_3	"POPTR_0006s24770.1"	731	"	"T/A"	"61,3/38,7"	"92/58"	150	stress_12bis	"POPTR_0006s24770.1"	731	"	"A/T"	"60,6/39,4"	"43/28"	71
controllo_3	"POPTR_0006s24770.1"	731	"	"T/A"	"61,3/38,7"	"92/58"	150	stress_42	"POPTR_0006s24770.1"	731	"	"T/A"	"74,5/25,5"	"41/14"	55
controllo_3	"POPTR_0006s24770.1"	731	"	"T/A"	"61,3/38,7"	"92/58"	150	stress_45	"POPTR_0006s24770.1"	731	"	"T/A"	"58,1/41,9"	"43/31"	74
controllo_3	"POPTR_0006s04230.1"	389	"	"C/A"	"61,3/38,7"	"68/43"	111	stress_12bis	"POPTR_0006s04230.1"	389	"	"C/A"	"54,2/45,8"	"39/33"	72
controllo_3	"POPTR_0006s04230.1"	389	"	"C/A"	"61,3/38,7"	"68/43"	111	stress_42	"POPTR_0006s04230.1"	389	"	"A/C"	"52,0/48,0"	"13/12"	25
controllo_3	"POPTR_0006s04230.1"	389	"	"C/A"	"61,3/38,7"	"68/43"	111	stress_45	"POPTR_0006s04230.1"	389	"	"C/A"	"54,5/45,5"	"24/20"	44
controllo_3	"POPTR_0019s08030.1"	756	"	"G/A"	"61,3/38,7"	"76/48"	124	stress_12bis	"POPTR_0019s08030.1"	756	"	"G/A"	"64,3/35,7"	"27/15"	42
controllo_3	"POPTR_0019s08030.1"	756	"	"G/A"	"61,3/38,7"	"76/48"	124	stress_42	"POPTR_0019s08030.1"	756	"	"G/A"	"73,3/26,7"	"11/4"	15
controllo_3	"POPTR_0019s08030.1"	756	"	"G/A"	"61,3/38,7"	"76/48"	124	stress_45	"POPTR_0019s08030.1"	756	"	"G/A"	"58,1/41,9"	"18/13"	31
controllo_3	"POPTR_0019s10280.1"	675	"	"G/C"	"61,3/38,7"	"149/94"	243	stress_12bis	"POPTR_0019s10280.1"	675	"	"G/C"	"59,2/40,8"	"45/31"	76
controllo_3	"POPTR_0019s10280.1"	675	"	"G/C"	"61,3/38,7"	"149/94"	243	stress_42	"POPTR_0019s10280.1"	675	"	"G/C"	"55,0/45,0"	"22/18"	40
controllo_3	"POPTR_0019s10280.1"	675	"	"G/C"	"61,3/38,7"	"149/94"	243	stress_45	"POPTR_0019s10280.1"	675	"	"G/C"	"66,7/33,3"	"22/11"	33
controllo_3	"POPTR_0014s15910.1"	277	"	"C/T"	"61,3/38,7"	"122/77"	199	stress_12bis	"POPTR_0014s15910.1"	277	"	"C/T"	"52,4/47,6"	"43/39"	82
controllo_3	"POPTR_0014s15910.1"	277	"	"C/T"	"61,3/38,7"	"122/77"	199	stress_42	"POPTR_0014s15910.1"	277	"	"C/T"	"61,1/38,9"	"58/37"	95
controllo_3	"POPTR_0014s15910.1"	277	"	"C/T"	"61,3/38,7"	"122/77"	199	stress_45	"POPTR_0014s15910.1"	277	"	"C/T"	"51,0/49,0"	"49/47"	96
controllo_3	"POPTR_0004s17610.1"	225	"	"C/T"	"61,3/38,7"	"76/48"	124	stress_12bis	"POPTR_0004s17610.1"	225	"	"C/T"	"62,9/37,1"	"44/26"	70
controllo_3	"POPTR_0004s17610.1"	225	"	"C/T"	"61,3/38,7"	"76/48"	124	stress_42	"POPTR_0004s17610.1"	225	"	"C/T"	"66,2/33,8"	"139/71"	210
controllo_3	"POPTR_0004s17610.1"	225	"	"C/T"	"61,3/38,7"	"76/48"	124	stress_45	"POPTR_0004s17610.1"	225	"	"C/T"	"68,2/31,8"	"217/101"	318
controllo_3	"POPTR_0009s10270.1"	333	"	"C/T"	"61,3/38,7"	"65/41"	106	stress_42	"POPTR_0009s10270.1"	333	"	"T/C"	"57,1/42,9"	"8/6"	14
controllo_3	"POPTR_0009s10270.1"	333	"	"C/T"	"61,3/38,7"	"65/41"	106	stress_45	"POPTR_0009s10270.1"	333	"	"T/C"	"60,0/40,0"	"9/6"	15
controllo_3	"POPTR_0011s09370.1"	4623	"	"A/G"	"61,3/38,7"	"76/48"	124	stress_12bis	"POPTR_0011s09370.1"	4623	"	"A/G"	"65,7/34,3"	"23/12"	35
controllo_3	"POPTR_0011s09370.1"	4623	"	"A/G"	"61,3/38,7"	"76/48"	124	stress_42	"POPTR_0011s09370.1"	4623	"	"A/G"	"81,2/18,8"	"13/3"	16
controllo_3	"POPTR_0011s09370.1"	4623	"	"A/G"	"61,3/38,7"	"76/48"	124	stress_45	"POPTR_0011s09370.1"	4623	"	"A/G"	"55,0/45,0"	"22/18"	40
controllo_3	"POPTR_0011s03570.1"	291	"	"C/T"	"61,3/38,7"	"19/12"	31	stress_42	"POPTR_0011s03570.1"	291	"	"C/T"	"64,2/35,3"	"131/72"	204
controllo_3	"POPTR_0011s03570.1"	291	"	"C/T"	"61,3/38,7"	"19/12"	31	stress_45	"POPTR_0011s03570.1"	291	"	"C/T"	"74,1/25,9"	"123/43"	166
controllo_3	"POPTR_0015s10920.1"	1740	"	"C/T"	"61,3/38,7"	"100/63"	163	stress_12bis	"POPTR_0015s10920.1"	1740	"	"T/C"	"59,7/40,3"	"37/25"	62
controllo_3	"POPTR_0015s10920.1"	1740	"	"C/T"	"61,3/38,7"	"100/63"	163	stress_42	"POPTR_0015s10920.1"	1740	"	"C/T"	"56,2/43,8"	"18/14"	32
controllo_3	"POPTR_0015s10920.1"	1740	"	"C/T"	"61,3/38,7"	"100/63"	163	stress_45	"POPTR_0015s10920.1"	1740	"	"T/C"	"65,0/35,0"	"26/14"	40
controllo_3	"POPTR_0010s07340.1"	684	"	"T/A"	"61,3/38,7"	"73/46"	119	stress_12bis	"POPTR_0010s07340.1"	684	"	"T/A"	"52,6/47,4"	"20/18"	38
controllo_3	"POPTR_0010s07340.1"	684	"	"T/A"	"61,3/38,7"	"73/46"	119	stress_42	"POPTR_0010s07340.1"	684	"	"A/T"	"50,0/50,0"	"41/41"	82
controllo_3	"POPTR_0010s07340.1"	684	"	"T/A"	"61,3/38,7"	"73/46"	119	stress_45	"POPTR_0010s07340.1"	684	"	"T/A"	"60,9/39,1"	"39/25"	64
controllo_3	"POPTR_0010s11780.1"	495	"	"G/A"	"61,3/38,7"	"87/55"	142	stress_12bis	"POPTR_0010s11780.1"	495	"	"G/A"	"70,2/29,8"	"33/14"	47
controllo_3	"POPTR_0010s11780.1"	495	"	"G/A"	"61,3/38,7"	"87/55"	142	stress_42	"POPTR_0010s11780.1"	495	"	"A/G"	"52,1/47,9"	"38/35"	73
controllo_3	"POPTR_0010s11780.1"	495	"	"G/A"	"61,3/38,7"	"87/55"	142	stress_45	"POPTR_0010s11780.1"	495	"	"G/A"	"58,4/41,6"	"73/52"	125
controllo_3	"POPTR_0007s15080.1"	1165	"	"T/C"	"61,3/38,7"	"68/43"	111	stress_12bis	"POPTR_0007s15080.1"	1165	"	"C/T"	"55,6/44,4"	"20/16"	36
controllo_3	"POPTR_0007s15080.1"	1165	"	"T/C"	"61,3/38,7"	"68/43"	111	stress_45	"POPTR_0007s15080.1"	1165	"	"C/T"	"60,0/40,0"	"6/4"	10
controllo_3	"POPTR_0002s08150.1"	815	"	"G/A"	"61,3/38,7"	"38/24"	62	stress_45	"POPTR_0002s08150.1"	815	"	"A/G"	"50,8/49,2"	"66/64"	130
controllo_3	"POPTR_0002s03020.1"	24	"	"A/T"	"61,3/38,7"	"184/116"	300	stress_12bis	"POPTR_0002s03020.1"	24	"	"A/T"	"52,9/47,1"	"45/40"	85
controllo_3	"POPTR_0002s03020.1"	24	"	"A/T"	"61,3/38,7"	"184/116"	300	stress_42	"POPTR_0002s03020.1"	24	"	"A/T"	"74,1/25,9"	"86/30"	116
controllo_3	"POPTR_0002s03020.1"	24	"	"A/T"	"61,3/38,7"	"184/116"	300	stress_45	"POPTR_0002s03020.1"	24	"	"A/T"	"74,0/26,0"	"216/76"	292
controllo_3	"POPTR_0016s03630.1"	4302	"	"C/G"	"61,3/38,7"	"122/77"	199	stress_12bis	"POPTR_0016s03630.1"	4302	"	"C/G"	"54,7/45,3"	"29/24"	53
controllo_3	"POPTR_0016s03630.1"	4302	"	"C/G"	"61,3/38,7"	"122/77"	199	stress_45	"POPTR_0016s03630.1"	4302	"	"G/C"	"63,6/36,4"	"7/4"	11
controllo_3	"POPTR_0016s12110.1"	144	"	"A/G"	"61,3/38,7"	"171/108"	279	stress_12bis	"POPTR_0016s12110.1"	144	"	"A/G"	"60,9/39,1"	"67/43"	110
controllo_3	"POPTR_0016s12110.1"	144	"	"A/G"	"61,3/38,7"	"171/108"	279	stress_42	"POPTR_0016s12110.1"	144	"	"A/G"	"55,0/45,0"	"22/18"	40
controllo_3	"POPTR_0016s12110.1"	144	"	"A/G"	"61,3/38,7"	"171/108"	279	stress_45	"POPTR_0016s12110.1"	144	"	"A/G"	"62,3/37,7"	"33/20"	53
controllo_3	"POPTR_0014s17400.1"	600	"	"C/T"	"61,4/38,4"	"783/490"	1275	stress_12bis	"POPTR_0014s17400.1"	600	"	"C/T"	"67,1/32,9"	"267/131"	398
controllo_3	"POPTR_0014s17400.1"	600	"	"C/T"	"61,4/38,4"	"783/490"	1275	stress_42	"POPTR_0014s17400.1"	600	"	"C/T"	"61,4/38,6"	"102/64"	166
controllo_3	"POPTR_0014s17400.1"	600	"	"C/T"	"61,4/38,4"	"783/490"	1275	stress_45	"POPTR_0014s17400.1"	600	"	"C/T"	"64,5/35,5"	"129/71"	200
controllo_3	"POPTR_0005s26930.1"	237	"	"T/G"	"61,4/38,6"	"196/123"	319	stress_12bis	"POPTR_0005s26930.1"	237	"	"T/G"	"58,0/42,0"	"40/29"	69
controllo_3	"POPTR_0005s26930.1"	237	"	"T/G"	"61,4/38,6"	"196/123"	319	stress_42	"POPTR_0005s26930.1"	237	"	"G/T"	"50,0/50,0"	"18/18"	36
controllo_3	"POPTR_0005s26930.1"	237	"	"T/G"	"61,4/38,6"	"196/123"	319	stress_45	"POPTR_0005s26930.1"	237	"	"G/T"	"63,6/36,4"	"21/12"	33
controllo_3	"POPTR_0004s03160.1"	141	"	"C/G"	"61,4/38,6"	"375/236"	611	stress_12bis	"POPTR_0004s03160.1"	141	"	"G/C"	"51,0/49,0"	"78/75"	153
controllo_3	"POPTR_0004s03160.1"	141	"	"C/G"	"61,4/38,6"	"375/236"	611	stress_42	"POPTR_0004s03160.1"	141	"	"G/C"	"61,5/38,5"	"8/5"	13
controllo_3	"POPTR_0004s03160.1"	141	"	"C/G"	"61,4/38,6"	"375/236"	611	stress_45	"POPTR_0004s03160.1"	141	"	"G/C"	"63,6/36,4"	"7/4"	11
controllo_3	"POPTR_0009s05240.1"	945	"	"G/A"	"61,4/38,6"	"454/285"	739	stress_12bis	"POPTR_0009s05240.1"	945	"	"A/G"	"52,0/48,0"	"103/95"	198
controllo_3	"POPTR_0009s05240.1"	945	"	"G/A"	"61,4/38,6"	"454/285"	739	stress_42	"POPTR_0009s05240.1"	945	"	"A/G"	"72,8/27,2"	"59/22"	81
controllo_3	"POPTR_0009s05240.1"	945	"	"G/A"	"61,4/38,6"	"454/285"	739	stress_45	"POPTR_0009s05240.1"	945	"	"A/G"	"58,8/41,2"	"50/35"	85
controllo_3	"POPTR_0001s36560.1"	573	"	"A/G"	"61,4/38,6"	"409/257"	666	stress_12bis	"POPTR_0001s36560.1"	573	"	"G/A"	"51,5/48,5"	"87/82"	169
controllo_3	"POPTR_0001s36560.1"	573	"	"A/G"	"61,4/38,6"	"409/257"	666	stress_42	"POPTR_0001s36560.1"	573	"	"A/G"	"53,1/46,9"	"17/15"	32
controllo_3	"POPTR_0001s36560.1"	573	"	"A/G"	"61,4/38,6"	"409/257"	666	stress_45	"POPTR_0001s36560.1"	573	"	"G/A"	"51,9/48,1"	"28/26"	54
controllo_3	"POPTR_0001s24450.1"	756	"	"C/T"	"61,4/38,6"	"102/64"	166	stress_12bis	"POPTR_0001s24450.1"	756	"	"T/C"	"54,5/45,5"	"24/20"	44
controllo_3	"POPTR_0001s24450.1"	756	"	"C/T"	"61,4/38,6"	"102/64"	166	stress_42	"POPTR_0001s24450.1"	756	"	"C/T"	"56,0/44,0"	"14/11"	25
controllo_3	"POPTR_0001s24450.1"	756	"	"C/T"	"61,4/38,6"	"102/64"	166	stress_45	"POPTR_0001s24450.1"	756	"	"T/C"	"56,2/43,8"	"18/14"	32
controllo_3	"POPTR_0001s26960.1"	882	"	"A/T"	"61,4/38,6"	"116/73"	189	stress_12bis	"POPTR_0001s26960.1"	882	"	"A/T"	"69,4/30,6"	"25/11"	36
controllo_3	"POPTR_0001s26960.1"	882	"	"A/T"	"61,4/38,6"	"116/73"	189	stress_42	"POPTR_0001s26960.1"	882	"	"A/T"	"58,3/41,7"	"7/5"	12
controllo_3	"POPTR_0001s26960.1"	882	"	"A/T"	"61,4/38,6"	"116/73"	189	stress_45	"POPTR_0001s26960.1"	882	"	"T/A"	"81,2/18,8"	"13/3"	16
controllo_3	"POPTR_0010s15250.1"	510	"	"G/A"	"61,4/38,6"	"97/61"	158	stress_12bis	"POPTR_0010s15250.1"	510	"	"G/A"	"51,7/48,3"	"31/29"	60
controllo_3	"POPTR_0010s15250.1"	510	"	"G/A"	"61,4/38,6"	"97/61"	158	stress_42	"POPTR_0010s15250.1"	510	"	"A/G"	"63,2/36,8"	"24/14"	38
controllo_3	"POPTR_0010s15250.1"	510	"	"G/A"	"61,4/38,6"	"97/61"	158	stress_45	"POPTR_0010s15250.1"	510	"	"A/G"	"68,1/31,9"	"32/15"	47
controllo_3	"POPTR_0008s19160.1"	1095	"	"G/A"	"61,4/38,6"	"175/110"	285	stress_12bis	"POPTR_0008s19160.1"	1095	"	"G/A"	"66,2/33,8"	"51/26"	77
controllo_3	"POPTR_0008s19160.1"	1095	"	"G/A"	"61,4/38,6"	"175/110"	285	stress_45	"POPTR_0008s19160.1"	1095	"	"G/A"	"57,1/42,9"	"8/6"	14
controllo_3	"POPTR_0008s09150.1"	59	"	"A/T"	"61,4/38,6"	"97/61"	158	stress_12bis	"POPTR_0008s09150.1"	59	"	"A/T"	"54,2/45,8"	"26/22"	48
controllo_3	"POPTR_0008s09150.1"	59	"	"A/T"	"61,4/38,6"	"97/61"	158	stress_42	"POPTR_0008s09150.1"	59	"	"A/T"	"54,8/45,2"	"51/42"	93
controllo_3	"POPTR_0008s09150.1"	59	"	"A/T"	"61,4/38,6"	"97/61"	158	stress_45	"POPTR_0008s09150.1"	59	"	"A/T"	"54,0/46,0"	"75/64"	139
controllo_3	"POPTR_0010s21560.1"	285	"	"T/C"	"61,5/37,4"	"110/67"	179	stress_12bis	"POPTR_0010s21560.1"	285	"	"T/C"	"54,2/45,8"	"39/33"	72
controllo_3	"POPTR_0010s21560.1"	285	"	"T/C"	"61,5/37,4"	"110/67"	179	stress_42	"POPTR_0010s21560.1"	285	"	"C/T"	"53,6/44,9"	"37/31"	69
controllo_3	"POPTR_0010s21560.1"	285	"	"T/C"	"61,5/37,4"	"110/67"	179	stress_45	"POPTR_0010s21560.1"	285	"	"C/T"	"50,0/46,6"	"29/27"	58
controllo_3	"POPTR_0001s13380.1"	583	"	"A/C"	"61,5/37,6"	"67/41"	109	stress_42	"POPTR_0001s13380.1"	583	"	"A/C"	"62,7/35,6"	"37/21"	59
controllo_3	"POPTR_0001s13380.1"	583	"	"A/C"	"61,5/37,6"	"67/41"	109	stress_45	"POPTR_0001s13380.1"	583	"	"C/A"	"56,9/38,5"	"37/25"	65
controllo_3	"POPTR_0017s11410.1"	795	"	"T/C"	"61,5/37,9"	"120/74"	195	stress_12bis	"POPTR_0017s11410.1"	795	"	"T/C"	"69,6/29,0"	"48/20"	69
controllo_3	"POPTR_0017s11410.1"	795	"	"T/C"	"61,5/37,9"	"120/74"	195	stress_42	"POPTR_0017s11410.1"	795	"	"T/C"	"66,7/30,3"	"22/10"	33
controllo_3	"POPTR_0017s11410.1"	795	"	"T/C"	"61,5/37,9"	"120/74"	195	stress_45	"POPTR_0017s11410.1"	795	"	"T/C"	"75,9/24,1"	"22/7"	29
controllo_3	"POPTR_0005s26610.1"	595	"	"A/G"	"61,5/38,5"	"67/42"	109	stress_12bis	"POPTR_0005s26610.1"	595	"	"A/G"	"55,7/44,3"	"34/27"	61
controllo_3	"POPTR_0005s26610.1"	595	"	"A/G"	"61,5/38,5"	"67/42"	109	stress_42	"POPTR_0005s26610.1"	595	"	"G/A"	"57,9/42,1"	"55/40"	95
controllo_3	"POPTR_0005s26610.1"	595	"	"A/G"	"61,5/38,5"	"67/42"	109	stress_45	"POPTR_0005s26610.1"	595	"	"A/G"	"55,8/44,2"	"53/42"	95
controllo_3	"POPTR_0005s26610.1"	783	"	"T/C"	"61,5/38,5"	"64/40"	104	stress_12bis	"POPTR_0005s26610.1"	783	"	"C/T"	"58,2/41,8"	"39/28"	67
controllo_3	"POPTR_0005s26610.1"	783	"	"T/C"	"61,5/38,5"	"64/40"	104	stress_42	"POPTR_0005s26610.1"	783	"	"C/T"	"62,5/37,5"	"75/45"	120
controllo_3	"POPTR_0005s26610.1"	783	"	"T/C"	"61,5/38,5"	"64/40"	104	stress_45	"POPTR_0005s26610.1"	783	"	"T/C"	"53,3/46,7"	"48/42"	90
controllo_3	"POPTR_0006s20090.1"	1419	"	"C/T"	"61,5/38,5"	"83/52"	135	stress_12bis	"POPTR_0006s20090.1"	1419	"	"C/T"	"50,0/50,0"	"25/25"	50
controllo_3	"POPTR_0006s20090.1"	1419	"	"C/T"	"61,5/38,5"	"83/52"	135	stress_42	"POPTR_0006s20090.1"	1419	"	"C/T"	"60,0/40,0"	"6/4"	10
controllo_3	"POPTR_0006s20090.1"	1419	"	"C/T"	"61,5/38,5"	"83/52"	135	stress_45	"POPTR_0006s20090.1"	1419	"	"T/C"	"75,0/25,0"	"12/4"	16
controllo_3	"POPTR_0006s03660.1"	3658	"	"C/A"	"61,5/38,5"	"91/57"	148	stress_12bis	"POPTR_0006s03660.1"	3658	"	"C/A"	"71,9/28,1"	"23/9"	32
controllo_3	"POPTR_0006s03660.1"	3658	"	"C/A"	"61,5/38,5"	"91/57"	148	stress_45	"POPTR_0006s03660.1"	3658	"	"C/A"	"69,2/30,8"	"27/12"	39
controllo_3	"POPTR_0003s18530.1"	936	"	"A/G"	"61,5/38,5"	"126/79"	205	stress_12bis	"POPTR_0003s18530.1"	936	"	"A/G"	"54,7/45,3"	"47/39"	86
controllo_3	"POPTR_0003s18530.1"	936	"	"A/G"	"61,5/38,5"	"126/79"	205	stress_42	"POPTR_0003s18530.1"	936	"	"A/G"	"50,7/49,3"	"36/35"	71
controllo_3	"POPTR_0003s18530.1"	936	"	"A/G"	"61,5/38,5"	"126/79"	205	stress_45	"POPTR_0003s18530.1"	936	"	"A/G"	"51,9/48,1"	"54/50"	104
controllo_3	"POPTR_0003s13230.1"	172	"	"A/G"	"61,5/38,5"	"64/40"	104	stress_12bis	"POPTR_0003s13230.1"	172	"	"G/A"	"77,3/22,7"	"17/5"	22
controllo_3	"POPTR_0003s13230.1"	172	"	"A/G"	"61,5/38,5"	"64/40"	104	stress_45	"POPTR_0003s13230.1"	172	"	"A/G"	"56,5/43,5"	"13/10"	23
controllo_3	"POPTR_0003s21190.1"	855	"	"T/C"	"61,5/38,5"	"64/40"	104	stress_12bis	"POPTR_0003s21190.1"	855	"	"T/C"	"51,2/48,8"	"22/21"	43
controllo_3	"POPTR_0019s14180.1"	1752	"	"G/A"	"61,5/38,5"	"67/42"	109	stress_12bis	"POPTR_0019s14180.1"	1752	"	"A/G"	"54,5/45,5"	"12/10"	22
controllo_3	"POPTR_0019s14180.1"	1752	"	"G/A"	"61,5/38,5"	"67/42"	109	stress_42	"POPTR_0019s14180.1"	1752	"	"G/A"	"52,6/47,4"	"10/9"	19
controllo_3	"POPTR_0019s14180.1"	1752	"	"G/A"	"61,5/38,5"	"67/42"	109	stress_45	"POPTR_0019s14180.1"	1752	"	"G/A"	"54,5/45,5"	"12/10"	22
controllo_3	"POPTR_0014s14200.1"	457	"	"T/C"	"61,5/38,5"	"166/104"	270	stress_12bis	"POPTR_0014s14200.1"	457	"	"C/T"	"52,6/47,4"	"10/9"	19
controllo_3	"POPTR_0014s14200.1"	457	"	"T/C"	"61,5/38,5"	"166/104"	270	stress_42	"POPTR_0014s14200.1"	457	"	"T/C"	"63,3/36,7"	"19/11"	30
controllo_3	"POPTR_0014s14200.1"	457	"	"T/C"	"61,5/38,5"	"166/104"	270	stress_45	"POPTR_0014s14200.1"	457	"	"T/C"	"72,3/27,7"	"68/26"	94
controllo_3	"POPTR_0004s23490.1"	621	"	"G/A"	"61,5/38,5"	"107/67"	174	stress_12bis	"POPTR_0004s23490.1"	621	"	"G/A"	"70,8/29,2"	"34/14"	48
controllo_3	"POPTR_0004s23490.1"	621	"	"G/A"	"61,5/38,5"	"107/67"	174	stress_42	"POPTR_0004s23490.1"	621	"	"A/G"	"53,3/46,7"	"24/21"	45
controllo_3	"POPTR_0004s23490.1"	621	"	"G/A"	"61,5/38,5"	"107/67"	174	stress_45	"POPTR_0004s23490.1"	621	"	"G/A"	"51,9/48,1"	"55/51"	106
controllo_3	"POPTR_0004s01030.1"	489	"	"A/G"	"61,5/38,5"	"104/65"	169	stress_12bis	"POPTR_0004s01030.1"	489	"	"A/G"	"64,4/35,6"	"29/16"	45
controllo_3	"POPTR_0004s01030.1"	489	"	"A/G"	"61,5/38,5"	"104/65"	169	stress_42	"POPTR_0004s01030.1"	489	"	"A/G"	"50,0/50,0"	"9/9"	18
controllo_3	"POPTR_0004s01030.1"	489	"	"A/G"	"61,5/38,5"	"104/65"	169	stress_45	"POPTR_0004s01030.1"	489	"	"A/G"	"50,0/50,0"	"9/9"	18
controllo_3	"POPTR_0009s05720.1"	140	"	"A/G"	"61,5/38,5"	"636/398"	1034	stress_12bis	"POPTR_0009s05720.1"	140	"	"A/G"	"60,3/39,7"	"143/94"	237
controllo_3	"POPTR_0009s05720.1"	140	"	"A/G"	"61,5/38,5"	"636/398"	1034	stress_42	"POPTR_0009s05720.1"	140	"	"A/G"	"81,8/18,2"	"36/8"	44
controllo_3	"POPTR_0009s05720.1"	140	"	"A/G"	"61,5/38,5"	"636/398"	1034	stress_45	"POPTR_0009s05720.1"	140	"	"A/G"	"71,8/28,2"	"28/11"	39
controllo_3	"POPTR_0009s11480.1"	153	"	"T/C"	"61,5/38,5"	"209/131"	340	stress_12bis	"POPTR_0009s11480.1"	153	"	"T/C"	"51,6/48,4"	"83/78"	161
controllo_3	"POPTR_0009s11480.1"	153	"	"T/C"	"61,5/38,5"	"209/131"	340	stress_42	"POPTR_0009s11480.1"	153	"	"T/C"	"71,4/28,6"	"10/4"	14
controllo_3	"POPTR_0009s11480.1"	153	"	"T/C"	"61,5/38,5"	"209/131"	340	stress_45	"POPTR_0009s11480.1"	153	"	"T/C"	"65,2/34,8"	"43/23"	66
controllo_3	"POPTR_0009s01470.1"	417	"	"T/A"	"61,5/38,5"	"107/67"	174	stress_12bis	"POPTR_0009s01470.1"	417	"	"T/A"	"54,5/45,5"	"30/25"	55
controllo_3	"POPTR_0009s01470.1"	417	"	"T/A"	"61,5/38,5"	"107/67"	174	stress_42	"POPTR_0009s01470.1"	417	"	"T/A"	"56,2/43,8"	"9/7"	16
controllo_3	"POPTR_0009s01470.1"	417	"	"T/A"	"61,5/38,5"	"107/67"	174	stress_45	"POPTR_0009s01470.1"	417	"	"T/A"	"72,3/27,7"	"34/13"	47
controllo_3	"POPTR_0015s06230.1"	384	"	"G/T"	"61,5/38,5"	"115/72"	187	stress_12bis	"POPTR_0015s06230.1"	384	"	"G/T"	"65,1/34,9"	"28/15"	43
controllo_3	"POPTR_0001s37480.1"	585	"	"C/T"	"61,5/38,5"	"190/119"	309	stress_12bis	"POPTR_0001s37480.1"	585	"	"C/T"	"52,5/47,5"	"31/28"	59
controllo_3	"POPTR_0001s37480.1"	585	"	"C/T"	"61,5/38,5"	"190/119"	309	stress_42	"POPTR_0001s37480.1"	585	"	"C/T"	"70,9/29,1"	"39/16"	55
controllo_3	"POPTR_0001s37480.1"	585	"	"C/T"	"61,5/38,5"	"190/119"	309	stress_45	"POPTR_0001s37480.1"	585	"	"C/T"	"66,9/33,1"	"97/48"	145
controllo_3	"POPTR_0001s36050.1"	315	"	"G/A"	"61,5/38,5"	"72/45"	117	stress_12bis	"POPTR_0001s36050.1"	315	"	"A/G"	"57,1/42,9"	"20/15"	35
controllo_3	"POPTR_0001s36050.1"	315	"	"G/A"	"61,5/38,5"	"72/45"	117	stress_42	"POPTR_0001s36050.1"	315	"	"G/A"	"54,3/45,7"	"51/43"	94
controllo_3	"POPTR_0001s36050.1"	315	"	"G/A"	"61,5/38,5"	"72/45"	117	stress_45	"POPTR_0001s36050.1"	315	"	"G/A"	"51,5/48,5"	"53/50"	103
controllo_3	"POPTR_0001s38950.1"	771	"	"T/C"	"61,5/38,5"	"64/40"	104	stress_12bis	"POPTR_0001s38950.1"	771	"	"C/T"	"55,6/44,4"	"15/12"	27
controllo_3	"POPTR_0001s38950.1"	771	"	"T/C"	"61,5/38,5"	"64/40"	104	stress_45	"POPTR_0001s38950.1"	771	"	"C/T"	"68,8/31,2"	"11/5"	16
controllo_3	"POPTR_0010s20770.1"	118	"	"C/G"	"61,5/38,5"	"64/40"	104	stress_12bis	"POPTR_0010s20770.1"	118	"	"C/G"	"53,3/46,7"	"24/21"	45
controllo_3	"POPTR_0002s06680.1"	759	"	"T/C"	"61,5/38,5"	"56/35"	91	stress_45	"POPTR_0002s06680.1"	759	"	"C/T"	"51,3/48,7"	"58/55"	113
controllo_3	"POPTR_0002s09480.1"	585	"	"G/A"	"61,5/38,5"	"32/20"	52	stress_45	"POPTR_0002s09480.1"	585	"	"A/G"	"50,9/49,1"	"54/52"	106
controllo_3	"POPTR_0008s05470.1"	1599	"	"G/A"	"61,5/38,5"	"203/127"	330	stress_12bis	"POPTR_0008s05470.1"	1599	"	"G/A"	"74,6/23,7"	"44/14"	59
controllo_3	"POPTR_0008s05470.1"	1599	"	"G/A"	"61,5/38,5"	"203/127"	330	stress_42	"POPTR_0008s05470.1"	1599	"	"G/A"	"54,8/45,2"	"17/14"	31
controllo_3	"POPTR_0008s05470.1"	1599	"	"G/A"	"61,5/38,5"	"203/127"	330	stress_45	"POPTR_0008s05470.1"	1599	"	"G/A"	"64,0/36,0"	"55/31"	86
controllo_3	"POPTR_0008s11320.1"	147	"	"C/T"	"61,5/38,5"	"115/72"	187	stress_12bis	"POPTR_0008s11320.1"	147	"	"C/T"	"63,4/36,6"	"26/15"	41
controllo_3	"POPTR_0008s06960.1"	1240	"	"T/C"	"61,5/38,5"	"107/67"	174	stress_12bis	"POPTR_0008s06960.1"	1240	"	"C/T"	"64,3/35,7"	"9/5"	14
controllo_3	"POPTR_0008s06960.1"	1240	"	"T/C"	"61,5/38,5"	"107/67"	174	stress_42	"POPTR_0008s06960.1"	1240	"	"C/T"	"80,0/20,0"	"16/4"	20
controllo_3	"POPTR_0018s03110.1"	978	"	"C/T"	"61,6/38,4"	"106/66"	172	stress_12bis	"POPTR_0018s03110.1"	978	"	"C/T"	"50,8/49,2"	"32/31"	63
controllo_3	"POPTR_0018s03110.1"	978	"	"C/T"	"61,6/38,4"	"106/66"	172	stress_42	"POPTR_0018s03110.1"	978	"	"T/C"	"55,0/45,0"	"11/9"	20
controllo_3	"POPTR_0018s03110.1"	978	"	"C/T"	"61,6/38,4"	"106/66"	172	stress_45	"POPTR_0018s03110.1"	978	"	"C/T"	"57,1/42,9"	"24/18"	42
controllo_3	"POPTR_0013s14450.1"	441	"	"T/C"	"61,6/38,4"	"69/43"	112	stress_12bis	"POPTR_0013s14450.1"	441	"	"T/C"	"69,1/30,9"	"38/17"	55
controllo_3	"POPTR_0013s14450.1"	441	"	"T/C"	"61,6/38,4"	"69/43"	112	stress_42	"POPTR_0013s14450.1"	441	"	"T/C"	"63,3/36,7"	"19/11"	30
controllo_3	"POPTR_0013s14450.1"	441	"	"T/C"	"61,6/38,4"	"69/43"	112	stress_45	"POPTR_0013s14450.1"	441	"	"T/C"	"70,2/29,8"	"40/17"	57
controllo_3	"POPTR_0013s09550.1"	465	"	"C/A"	"61,6/38,4"	"69/43"	112	stress_12bis	"POPTR_0013s09550.1"	465	"	"C/A"	"52,9/47,1"	"18/16"	34
controllo_3	"POPTR_0013s09550.1"	465	"	"C/A"	"61,6/38,4"	"69/43"	112	stress_42	"POPTR_0013s09550.1"	465	"	"C/A"	"80,0/20,0"	"8/2"	10
controllo_3	"POPTR_0014s06380.1"	157	"	"T/A"	"61,6/38,4"	"188/117"	305	stress_12bis	"POPTR_0014s06380.1"	157	"	"T/A"	"58,3/41,7"	"63/45"	108
controllo_3	"POPTR_0014s06380.1"	157	"	"T/A"	"61,6/38,4"	"188/117"	305	stress_42	"POPTR_0014s06380.1"	157	"	"T/A"	"66,4/33,6"	"71/36"	107
controllo_3	"POPTR_0014s06380.1"	157	"	"T/A"	"61,6/38,4"	"188/117"	305	stress_45	"POPTR_0014s06380.1"	157	"	"T/A"	"66,7/33,3"	"88/44"	132
controllo_3	"POPTR_0009s12420.1"	219	"	"G/T"	"61,6/38,4"	"61/38"	99	stress_42	"POPTR_0009s12420.1"	219	"	"G/T"	"69,7/29,5"	"92/39"	132
controllo_3	"POPTR_0009s12420.1"	219	"	"G/T"	"61,6/38,4"	"61/38"	99	stress_45	"POPTR_0009s12420.1"	219	"	"G/T"	"60,6/39,4"	"94/61"	155
controllo_3	"POPTR_0009s01320.1"	1077	"	"T/G"	"61,6/38,4"	"143/89"	232	stress_12bis	"POPTR_0009s01320.1"	1077	"	"T/G"	"65,6/33,9"	"122/63"	186
controllo_3	"POPTR_0009s01320.1"	1077	"	"T/G"	"61,6/38,4"	"143/89"	232	stress_42	"POPTR_0009s01320.1"	1077	"	"T/G"	"64,1/35,9"	"143/80"	223
controllo_3	"POPTR_0009s01320.1"	1077	"	"T/G"	"61,6/38,4"	"143/89"	232	stress_45	"POPTR_0009s01320.1"	1077	"	"T/G"	"59,8/40,2"	"150/101"	251
controllo_3	"POPTR_0012s11410.1"	393	"	"C/T"	"61,6/38,4"	"130/81"	211	stress_12bis	"POPTR_0012s11410.1"	393	"	"C/T"	"69,8/30,2"	"37/16"	53
controllo_3	"POPTR_0012s11410.1"	393	"	"C/T"	"61,6/38,4"	"130/81"	211	stress_42	"POPTR_0012s11410.1"	393	"	"C/T"	"56,5/43,5"	"13/10"	23
controllo_3	"POPTR_0012s11410.1"	393	"	"C/T"	"61,6/38,4"	"130/81"	211	stress_45	"POPTR_0012s11410.1"	393	"	"C/T"	"63,6/34,1"	"28/15"	44
controllo_3	"POPTR_0001s36560.1"	279	"	"C/G"	"61,6/38,4"	"408/254"	662	stress_12bis	"POPTR_0001s36560.1"	279	"	"C/G"	"59,1/40,9"	"101/70"	171
controllo_3	"POPTR_0001s36560.1"	279	"	"C/G"	"61,6/38,4"	"408/254"	662	stress_42	"POPTR_0001s36560.1"	279	"	"G/C"	"52,6/47,4"	"10/9"	19
controllo_3	"POPTR_0001s36560.1"	279	"	"C/G"	"61,6/38,4"	"408/254"	662	stress_45	"POPTR_0001s36560.1"	279	"	"G/C"	"53,7/46,3"	"29/25"	54
controllo_3	"POPTR_0001s15230.1"	36	"	"A/T"	"61,6/38,4"	"69/43"	112	stress_12bis	"POPTR_0001s15230.1"	36	"	"A/T"	"55,2/44,8"	"16/13"	29
controllo_3	"POPTR_0001s15230.1"	36	"	"A/T"	"61,6/38,4"	"69/43"	112	stress_42	"POPTR_0001s15230.1"	36	"	"T/A"	"56,2/43,8"	"9/7"	16
controllo_3	"POPTR_0001s15230.1"	36	"	"A/T"	"61,6/38,4"	"69/43"	112	stress_45	"POPTR_0001s15230.1"	36	"	"T/A"	"58,3/41,7"	"7/5"	12
controllo_3	"POPTR_0001s35220.1"	831	"	"G/A"	"61,6/38,4"	"69/43"	112	stress_12bis	"POPTR_0001s35220.1"	831	"	"G/A"	"59,3/40,7"	"16/11"	27
controllo_3	"POPTR_0001s26960.1"	134	"	"G/C"	"61,6/38,4"	"180/112"	292	stress_12bis	"POPTR_0001s26960.1"	134	"	"G/C"	"56,9/43,1"	"33/25"	58
controllo_3	"POPTR_0001s26960.1"	134	"	"G/C"	"61,6/38,4"	"180/112"	292	stress_42	"POPTR_0001s26960.1"	134	"	"C/G"	"75,0/25,0"	"12/4"	16
controllo_3	"POPTR_0001s26960.1"	134	"	"G/C"	"61,6/38,4"	"180/112"	292	stress_45	"POPTR_0001s26960.1"	134	"	"C/G"	"57,1/42,9"	"20/15"	35
controllo_3	"POPTR_0010s19930.1"	480	"	"A/C"	"61,6/38,4"	"205/128"	333	stress_12bis	"POPTR_0010s19930.1"	480	"	"C/A"	"66,7/29,6"	"18/8"	27
controllo_3	"POPTR_0010s19930.1"	480	"	"A/C"	"61,6/38,4"	"205/128"	333	stress_42	"POPTR_0010s19930.1"	480	"	"C/A"	"69,9/30,1"	"114/49"	163
controllo_3	"POPTR_0010s19930.1"	480	"	"A/C"	"61,6/38,4"	"205/128"	333	stress_45	"POPTR_0010s19930.1"	480	"	"C/A"	"66,0/32,6"	"93/46"	141
controllo_3	"POPTR_0002s14730.1"	1088	"	"A/T"	"61,6/38,4"	"618/386"	1004	stress_12bis	"POPTR_0002s14730.1"	1088	"	"A/T"	"58,6/41,4"	"174/123"	297
controllo_3	"POPTR_0002s14730.1"	1088	"	"A/T"	"61,6/38,4"	"618/386"	1004	stress_42	"POPTR_0002s14730.1"	1088	"	"T/A"	"73,1/26,9"	"76/28"	104
controllo_3	"POPTR_0002s14730.1"	1088	"	"A/T"	"61,6/38,4"	"618/386"	1004	stress_45	"POPTR_0002s14730.1"	1088	"	"T/A"	"71,8/28,2"	"130/51"	181
controllo_3	"POPTR_0008s17090.1"	127	"	"G/A"	"61,6/38,4"	"125/78"	203	stress_12bis	"POPTR_0008s17090.1"	127	"	"G/A"	"50,8/49,2"	"33/32"	65
controllo_3	"POPTR_0008s17090.1"	127	"	"G/A"	"61,6/38,4"	"125/78"	203	stress_42	"POPTR_0008s17090.1"	127	"	"G/A"	"70,0/30,0"	"14/6"	20
controllo_3	"POPTR_0008s17090.1"	127	"	"G/A"	"61,6/38,4"	"125/78"	203	stress_45	"POPTR_0008s17090.1"	127	"	"G/A"	"73,5/26,5"	"25/9"	34
controllo_3	"POPTR_0016s11610.1"	993	"	"C/T"	"61,6/38,4"	"170/106"	276	stress_12bis	"POPTR_0016s11610.1"	993	"	"C/T"	"56,5/43,5"	"52/40"	92
controllo_3	"POPTR_0016s11610.1"	993	"	"C/T"	"61,6/38,4"	"170/106"	276	stress_42	"POPTR_0016s11610.1"	993	"	"C/T"	"66,7/33,3"	"26/13"	39
controllo_3	"POPTR_0016s11610.1"	993	"	"C/T"	"61,6/38,4"	"170/106"	276	stress_45	"POPTR_0016s11610.1"	993	"	"C/T"	"60,0/40,0"	"27/18"	45
controllo_3	"POPTR_0005s11500.1"	684	"	"A/G"	"61,7/38,3"	"429/266"	695	stress_12bis	"POPTR_0005s11500.1"	684	"	"A/G"	"63,3/36,7"	"136/79"	215
controllo_3	"POPTR_0005s11500.1"	684	"	"A/G"	"61,7/38,3"	"429/266"	695	stress_42	"POPTR_0005s11500.1"	684	"	"A/G"	"54,5/45,5"	"24/20"	44
controllo_3	"POPTR_0005s11500.1"	684	"	"A/G"	"61,7/38,3"	"429/266"	695	stress_45	"POPTR_0005s11500.1"	684	"	"A/G"	"60,3/39,7"	"44/29"	73
controllo_3	"POPTR_0003s20840.1"	448	"	"G/A"	"61,7/38,3"	"50/31"	81	stress_12bis	"POPTR_0003s20840.1"	448	"	"G/A"	"56,3/43,7"	"58/45"	103
controllo_3	"POPTR_0013s14450.1"	444	"	"A/G"	"61,7/38,3"	"71/44"	115	stress_12bis	"POPTR_0013s14450.1"	444	"	"A/G"	"70,2/29,8"	"40/17"	57
controllo_3	"POPTR_0013s14450.1"	444	"	"A/G"	"61,7/38,3"	"71/44"	115	stress_42	"POPTR_0013s14450.1"	444	"	"A/G"	"57,9/42,1"	"22/16"	38
controllo_3	"POPTR_0013s14450.1"	444	"	"A/G"	"61,7/38,3"	"71/44"	115	stress_45	"POPTR_0013s14450.1"	444	"	"A/G"	"71,7/28,3"	"43/17"	60
controllo_3	"POPTR_0013s15560.1"	192	"	"T/C"	"61,7/38,3"	"74/46"	120	stress_12bis	"POPTR_0013s15560.1"	192	"	"C/T"	"62,0/38,0"	"31/19"	50
controllo_3	"POPTR_0013s15560.1"	192	"	"T/C"	"61,7/38,3"	"74/46"	120	stress_42	"POPTR_0013s15560.1"	192	"	"T/C"	"54,5/45,5"	"91/76"	167
controllo_3	"POPTR_0013s15560.1"	192	"	"T/C"	"61,7/38,3"	"74/46"	120	stress_45	"POPTR_0013s15560.1"	192	"	"T/C"	"57,4/42,6"	"105/78"	183
controllo_3	"POPTR_0014s06380.1"	274	"	"A/T"	"61,7/38,3"	"203/126"	329	stress_12bis	"POPTR_0014s06380.1"	274	"	"T/A"	"50,9/49,1"	"57/55"	112
controllo_3	"POPTR_0014s06380.1"	274	"	"A/T"	"61,7/38,3"	"203/126"	329	stress_42	"POPTR_0014s06380.1"	274	"	"A/T"	"62,2/37,8"	"61/37"	98
controllo_3	"POPTR_0014s06380.1"	274	"	"A/T"	"61,7/38,3"	"203/126"	329	stress_45	"POPTR_0014s06380.1"	274	"	"A/T"	"61,6/38,4"	"77/48"	125
controllo_3	"POPTR_0004s18030.1"	417	"	"G/A"	"61,7/38,3"	"82/51"	133	stress_12bis	"POPTR_0004s18030.1"	417	"	"G/A"	"68,1/31,9"	"32/15"	47
controllo_3	"POPTR_0004s18030.1"	417	"	"G/A"	"61,7/38,3"	"82/51"	133	stress_42	"POPTR_0004s18030.1"	417	"	"G/A"	"51,6/48,4"	"16/15"	31
controllo_3	"POPTR_0004s18030.1"	417	"	"G/A"	"61,7/38,3"	"82/51"	133	stress_45	"POPTR_0004s18030.1"	417	"	"G/A"	"64,7/35,3"	"22/12"	34
controllo_3	"POPTR_0004s07280.1"	1159	"	"G/A"	"61,7/38,3"	"82/51"	133	stress_12bis	"POPTR_0004s07280.1"	1159	"	"G/A"	"66,1/33,9"	"41/21"	62
controllo_3	"POPTR_0004s07280.1"	1159	"	"G/A"	"61,7/38,3"	"82/51"	133	stress_42	"POPTR_0004s07280.1"	1159	"	"G/A"	"62,2/37,8"	"46/28"	74
controllo_3	"POPTR_0004s07280.1"	1159	"	"G/A"	"61,7/38,3"	"82/51"	133	stress_45	"POPTR_0004s07280.1"	1159	"	"A/G"	"55,1/44,9"	"27/22"	49
controllo_3	"POPTR_0004s01030.1"	54	"	"T/C"	"61,7/38,3"	"103/64"	167	stress_12bis	"POPTR_0004s01030.1"	54	"	"T/C"	"60,6/39,4"	"20/13"	33
controllo_3	"POPTR_0004s01030.1"	54	"	"T/C"	"61,7/38,3"	"103/64"	167	stress_42	"POPTR_0004s01030.1"	54	"	"T/C"	"81,8/18,2"	"9/2"	11
controllo_3	"POPTR_0004s01030.1"	54	"	"T/C"	"61,7/38,3"	"103/64"	167	stress_45	"POPTR_0004s01030.1"	54	"	"C/T"	"63,6/36,4"	"14/8"	22
controllo_3	"POPTR_0009s12790.1"	447	"	"A/T"	"61,7/38,3"	"71/44"	115	stress_12bis	"POPTR_0009s12790.1"	447	"	"A/T"	"72,2/27,8"	"13/5"	18
controllo_3	"POPTR_0009s12790.1"	447	"	"A/T"	"61,7/38,3"	"71/44"	115	stress_42	"POPTR_0009s12790.1"	447	"	"A/T"	"62,1/37,9"	"18/11"	29
controllo_3	"POPTR_0009s12790.1"	447	"	"A/T"	"61,7/38,3"	"71/44"	115	stress_45	"POPTR_0009s12790.1"	447	"	"A/T"	"84,6/15,4"	"22/4"	26
controllo_3	"POPTR_0012s00670.1"	324	"	"C/T"	"61,7/38,3"	"111/69"	180	stress_12bis	"POPTR_0012s00670.1"	324	"	"C/T"	"58,3/41,7"	"7/5"	12
controllo_3	"POPTR_0012s00670.1"	324	"	"C/T"	"61,7/38,3"	"111/69"	180	stress_42	"POPTR_0012s00670.1"	324	"	"T/C"	"56,2/41,7"	"27/20"	48
controllo_3	"POPTR_0012s00670.1"	324	"	"C/T"	"61,7/38,3"	"111/69"	180	stress_45	"POPTR_0012s00670.1"	324	"	"T/C"	"52,3/47,7"	"45/41"	86
controllo_3	"POPTR_0011s05670.1"	793	"	"A/C"	"61,7/38,3"	"240/149"	389	stress_12bis	"POPTR_0011s05670.1"	793	"	"A/C"	"65,2/34,8"	"90/48"	138
controllo_3	"POPTR_0011s05670.1"	793	"	"A/C"	"61,7/38,3"	"240/149"	389	stress_42	"POPTR_0011s05670.1"	793	"	"A/C"	"70,2/29,8"	"33/14"	47
controllo_3	"POPTR_0011s05670.1"	793	"	"A/C"	"61,7/38,3"	"240/149"	389	stress_45	"POPTR_0011s05670.1"	793	"	"A/C"	"72,2/27,8"	"52/20"	72
controllo_3	"POPTR_0015s09990.1"	74	"	"C/A"	"61,7/38,3"	"74/46"	120	stress_12bis	"POPTR_0015s09990.1"	74	"	"C/A"	"70,3/29,7"	"26/11"	37
controllo_3	"POPTR_0015s09990.1"	74	"	"C/A"	"61,7/38,3"	"74/46"	120	stress_42	"POPTR_0015s09990.1"	74	"	"C/A"	"70,0/30,0"	"7/3"	10
controllo_3	"POPTR_0001s14280.1"	1336	"	"A/G"	"61,7/38,3"	"87/54"	141	stress_12bis	"POPTR_0001s14280.1"	1336	"	"A/G"	"63,3/36,7"	"38/22"	60
controllo_3	"POPTR_0001s14280.1"	1336	"	"A/G"	"61,7/38,3"	"87/54"	141	stress_42	"POPTR_0001s14280.1"	1336	"	"G/A"	"50,4/49,6"	"126/124"	250
controllo_3	"POPTR_0001s14280.1"	1336	"	"A/G"	"61,7/38,3"	"87/54"	141	stress_45	"POPTR_0001s14280.1"	1336	"	"A/G"	"50,2/49,8"	"126/125"	251
controllo_3	"POPTR_0001s35220.1"	615	"	"G/A"	"61,7/38,3"	"82/51"	133	stress_12bis	"POPTR_0001s35220.1"	615	"	"A/G"	"50,0/50,0"	"13/13"	26
controllo_3	"POPTR_0010s07340.1"	1674	"	"C/T"	"61,7/38,3"	"79/49"	128	stress_12bis	"POPTR_0010s07340.1"	1674	"	"C/T"	"66,7/33,3"	"38/19"	57
controllo_3	"POPTR_0010s07340.1"	1674	"	"C/T"	"61,7/38,3"	"79/49"	128	stress_42	"POPTR_0010s07340.1"	1674	"	"C/T"	"52,7/47,3"	"88/79"	167
controllo_3	"POPTR_0010s07340.1"	1674	"	"C/T"	"61,7/38,3"	"79/49"	128	stress_45	"POPTR_0010s07340.1"	1674	"	"C/T"	"57,8/42,2"	"63/46"	109
controllo_3	"POPTR_0010s19860.1"	756	"	"G/A"	"61,7/38,3"	"79/49"	128	stress_12bis	"POPTR_0010s19860.1"	756	"	"A/G"	"51,2/48,8"	"22/21"	43
controllo_3	"POPTR_0010s19860.1"	756	"	"G/A"	"61,7/38,3"	"79/49"	128	stress_42	"POPTR_0010s19860.1"	756	"	"G/A"	"59,0/41,0"	"49/34"	83
controllo_3	"POPTR_0010s19860.1"	756	"	"G/A"	"61,7/38,3"	"79/49"	128	stress_45	"POPTR_0010s19860.1"	756	"	"G/A"	"56,0/44,0"	"75/59"	134
controllo_3	"POPTR_0016s09280.1"	1890	"	"C/T"	"61,7/38,3"	"87/54"	141	stress_12bis	"POPTR_0016s09280.1"	1890	"	"T/C"	"58,1/41,9"	"25/18"	43
controllo_3	"POPTR_0016s09280.1"	1890	"	"C/T"	"61,7/38,3"	"87/54"	141	stress_42	"POPTR_0016s09280.1"	1890	"	"C/T"	"68,1/31,9"	"32/15"	47
controllo_3	"POPTR_0016s09280.1"	1890	"	"C/T"	"61,7/38,3"	"87/54"	141	stress_45	"POPTR_0016s09280.1"	1890	"	"C/T"	"57,4/42,6"	"35/26"	61
controllo_3	"POPTR_0004s23310.1"	1986	"	"C/T"	"61,8/37,4"	"81/49"	131	stress_12bis	"POPTR_0004s23310.1"	1986	"	"C/T"	"84,4/15,6"	"38/7"	45
controllo_3	"POPTR_0004s23310.1"	1986	"	"C/T"	"61,8/37,4"	"81/49"	131	stress_42	"POPTR_0004s23310.1"	1986	"	"C/T"	"78,9/21,1"	"15/4"	19
controllo_3	"POPTR_0004s23310.1"	1986	"	"C/T"	"61,8/37,4"	"81/49"	131	stress_45	"POPTR_0004s23310.1"	1986	"	"C/T"	"58,1/41,9"	"25/18"	43
controllo_3	"POPTR_0016s12370.1"	690	"	"A/G"	"61,8/38,1"	"572/352"	925	stress_12bis	"POPTR_0016s12370.1"	690	"	"A/G"	"60,7/39,3"	"122/79"	201
controllo_3	"POPTR_0016s12370.1"	690	"	"A/G"	"61,8/38,1"	"572/352"	925	stress_42	"POPTR_0016s12370.1"	690	"	"A/G"	"64,3/35,7"	"83/46"	129
controllo_3	"POPTR_0016s12370.1"	690	"	"A/G"	"61,8/38,1"	"572/352"	925	stress_45	"POPTR_0016s12370.1"	690	"	"A/G"	"80,2/19,8"	"130/32"	162
controllo_3	"POPTR_0005s22830.1"	354	"	"T/C"	"61,8/38,2"	"183/113"	296	stress_12bis	"POPTR_0005s22830.1"	354	"	"T/C"	"55,5/44,5"	"91/73"	164
controllo_3	"POPTR_0005s22830.1"	354	"	"T/C"	"61,8/38,2"	"183/113"	296	stress_42	"POPTR_0005s22830.1"	354	"	"C/T"	"56,8/43,2"	"54/41"	95
controllo_3	"POPTR_0005s22830.1"	354	"	"T/C"	"61,8/38,2"	"183/113"	296	stress_45	"POPTR_0005s22830.1"	354	"	"T/C"	"56,9/43,1"	"41/31"	72
controllo_3	"POPTR_0006s23890.1"	107	"	"T/C"	"61,8/38,2"	"491/304"	795	stress_12bis	"POPTR_0006s23890.1"	107	"	"T/C"	"69,6/30,4"	"183/80"	263
controllo_3	"POPTR_0006s23890.1"	107	"	"T/C"	"61,8/38,2"	"491/304"	795	stress_42	"POPTR_0006s23890.1"	107	"	"T/C"	"63,2/35,9"	"74/42"	117
controllo_3	"POPTR_0006s23890.1"	107	"	"T/C"	"61,8/38,2"	"491/304"	795	stress_45	"POPTR_0006s23890.1"	107	"	"T/C"	"65,1/34,9"	"82/44"	126
controllo_3	"POPTR_0006s28350.1"	339	"	"T/C"	"61,8/38,2"	"89/55"	144	stress_12bis	"POPTR_0006s28350.1"	339	"	"C/T"	"52,9/47,1"	"9/8"	17
controllo_3	"POPTR_0006s28350.1"	339	"	"T/C"	"61,8/38,2"	"89/55"	144	stress_45	"POPTR_0006s28350.1"	339	"	"T/C"	"66,7/33,3"	"12/6"	18
controllo_3	"POPTR_0018s02230.1"	46	"	"T/A"	"61,8/38,2"	"63/39"	102	stress_12bis	"POPTR_0018s02230.1"	46	"	"T/A"	"57,6/42,4"	"34/25"	59
controllo_3	"POPTR_0018s02230.1"	46	"	"T/A"	"61,8/38,2"	"63/39"	102	stress_42	"POPTR_0018s02230.1"	46	"	"A/T"	"59,3/40,7"	"35/24"	59
controllo_3	"POPTR_0018s02230.1"	46	"	"T/A"	"61,8/38,2"	"63/39"	102	stress_45	"POPTR_0018s02230.1"	46	"	"T/A"	"50,6/49,4"	"44/43"	87
controllo_3	"POPTR_1545s00200.1"	93	"	"C/A"	"61,8/38,2"	"220/136"	356	stress_12bis	"POPTR_1545s00200.1"	93	"	"C/A"	"53,8/46,2"	"84/72"	156
controllo_3	"POPTR_1545s00200.1"	93	"	"C/A"	"61,8/38,2"	"220/136"	356	stress_42	"POPTR_1545s00200.1"	93	"	"A/C"	"66,8/32,9"	"191/94"	286
controllo_3	"POPTR_1545s00200.1"	93	"	"C/A"	"61,8/38,2"	"220/136"	356	stress_45	"POPTR_1545s00200.1"	93	"	"A/C"	"62,7/37,3"	"198/118"	316
controllo_3	"POPTR_0013s07150.1"	2058	"	"G/T"	"61,8/38,2"	"81/50"	131	stress_12bis	"POPTR_0013s07150.1"	2058	"	"G/T"	"58,1/41,9"	"18/13"	31
controllo_3	"POPTR_0013s07150.1"	2058	"	"G/T"	"61,8/38,2"	"81/50"	131	stress_42	"POPTR_0013s07150.1"	2058	"	"G/T"	"50,0/50,0"	"14/14"	28
controllo_3	"POPTR_0013s07150.1"	2058	"	"G/T"	"61,8/38,2"	"81/50"	131	stress_45	"POPTR_0013s07150.1"	2058	"	"G/T"	"52,0/48,0"	"13/12"	25
controllo_3	"POPTR_0009s01320.1"	1155	"	"A/G"	"61,8/38,2"	"134/83"	217	stress_12bis	"POPTR_0009s01320.1"	1155	"	"A/G"	"62,7/37,3"	"131/78"	209
controllo_3	"POPTR_0009s01320.1"	1155	"	"A/G"	"61,8/38,2"	"134/83"	217	stress_42	"POPTR_0009s01320.1"	1155	"	"A/G"	"61,9/38,1"	"117/72"	189
controllo_3	"POPTR_0009s01320.1"	1155	"	"A/G"	"61,8/38,2"	"134/83"	217	stress_45	"POPTR_0009s01320.1"	1155	"	"A/G"	"52,2/47,8"	"128/117"	245
controllo_3	"POPTR_0001s29420.1"	489	"	"G/A"	"61,8/38,2"	"68/42"	110	stress_45	"POPTR_0001s29420.1"	489	"	"G/A"	"75,0/25,0"	"9/3"	12
controllo_3	"POPTR_0001s32770.1"	123	"	"T/A"	"61,8/38,2"	"81/50"	131	stress_12bis	"POPTR_0001s32770.1"	123	"	"T/A"	"62,5/37,5"	"30/18"	48
controllo_3	"POPTR_0001s32770.1"	123	"	"T/A"	"61,8/38,2"	"81/50"	131	stress_42	"POPTR_0001s32770.1"	123	"	"A/T"	"69,2/30,8"	"9/4"	13
controllo_3	"POPTR_0001s32770.1"	123	"	"T/A"	"61,8/38,2"	"81/50"	131	stress_45	"POPTR_0001s32770.1"	123	"	"A/T"	"55,4/44,6"	"36/29"	65
controllo_3	"POPTR_0010s18770.1"	618	"	"G/A"	"61,8/38,2"	"183/113"	296	stress_12bis	"POPTR_0010s18770.1"	618	"	"G/A"	"50,7/49,3"	"38/37"	75
controllo_3	"POPTR_0010s18770.1"	618	"	"G/A"	"61,8/38,2"	"183/113"	296	stress_42	"POPTR_0010s18770.1"	618	"	"G/A"	"64,3/35,7"	"9/5"	14
controllo_3	"POPTR_0010s18770.1"	618	"	"G/A"	"61,8/38,2"	"183/113"	296	stress_45	"POPTR_0010s18770.1"	618	"	"G/A"	"66,7/33,3"	"12/6"	18
controllo_3	"POPTR_0010s13740.1"	227	"	"C/T"	"61,8/38,2"	"84/52"	136	stress_12bis	"POPTR_0010s13740.1"	227	"	"C/T"	"62,5/37,5"	"20/12"	32
controllo_3	"POPTR_0007s00300.1"	490	"	"C/A"	"61,8/38,2"	"89/55"	144	stress_12bis	"POPTR_0007s00300.1"	490	"	"C/A"	"58,7/41,3"	"37/26"	63
controllo_3	"POPTR_0007s00300.1"	490	"	"C/A"	"61,8/38,2"	"89/55"	144	stress_42	"POPTR_0007s00300.1"	490	"	"C/A"	"70,6/29,4"	"12/5"	17
controllo_3	"POPTR_0007s00300.1"	490	"	"C/A"	"61,8/38,2"	"89/55"	144	stress_45	"POPTR_0007s00300.1"	490	"	"C/A"	"54,3/45,7"	"25/21"	46
controllo_3	"POPTR_0017s06920.1"	537	"	"G/T"	"61,9/37,8"	"373/228"	603	stress_12bis	"POPTR_0017s06920.1"	537	"	"G/T"	"59,7/40,3"	"123/83"	206
controllo_3	"POPTR_0006s04230.1"	477	"	"T/C"	"61,9/38,1"	"91/56"	147	stress_12bis	"POPTR_0006s04230.1"	477	"	"T/C"	"51,1/48,9"	"46/44"	90
controllo_3	"POPTR_0006s04230.1"	477	"	"T/C"	"61,9/38,1"	"91/56"	147	stress_42	"POPTR_0006s04230.1"	477	"	"T/C"	"52,5/47,5"	"21/19"	40
controllo_3	"POPTR_0006s04230.1"	477	"	"T/C"	"61,9/38,1"	"91/56"	147	stress_45	"POPTR_0006s04230.1"	477	"	"T/C"	"50,7/49,3"	"36/35"	71
controllo_3	"POPTR_0006s08750.1"	91	"	"T/A"	"61,9/38,1"	"65/40"	105	stress_12bis	"POPTR_0006s08750.1"	91	"	"T/A"	"64,4/35,6"	"47/26"	73
controllo_3	"POPTR_0006s08750.1"	91	"	"T/A"	"61,9/38,1"	"65/40"	105	stress_42	"POPTR_0006s08750.1"	91	"	"A/T"	"51,6/48,4"	"16/15"	31
controllo_3	"POPTR_0006s08750.1"	91	"	"T/A"	"61,9/38,1"	"65/40"	105	stress_45	"POPTR_0006s08750.1"	91	"	"T/A"	"54,8/45,2"	"17/14"	31
controllo_3	"POPTR_0006s27170.1"	469	"	"C/T"	"61,9/38,1"	"852/525"	1377	stress_12bis	"POPTR_0006s27170.1"	469	"	"C/T"	"67,7/32,3"	"291/139"	430
controllo_3	"POPTR_0006s27170.1"	469	"	"C/T"	"61,9/38,1"	"852/525"	1377	stress_42	"POPTR_0006s27170.1"	469	"	"C/T"	"80,6/19,4"	"50/12"	62
controllo_3	"POPTR_0006s27170.1"	469	"	"C/T"	"61,9/38,1"	"852/525"	1377	stress_45	"POPTR_0006s27170.1"	469	"	"C/T"	"71,4/27,3"	"55/21"	77
controllo_3	"POPTR_0018s11820.1"	937	"	"G/T"	"61,9/38,1"	"198/122"	320	stress_12bis	"POPTR_0018s11820.1"	937	"	"G/T"	"55,1/44,9"	"54/44"	98
controllo_3	"POPTR_0018s11820.1"	937	"	"G/T"	"61,9/38,1"	"198/122"	320	stress_42	"POPTR_0018s11820.1"	937	"	"T/G"	"62,5/37,5"	"10/6"	16
controllo_3	"POPTR_0018s11820.1"	937	"	"G/T"	"61,9/38,1"	"198/122"	320	stress_45	"POPTR_0018s11820.1"	937	"	"G/T"	"79,3/20,7"	"23/6"	29
controllo_3	"POPTR_0003s21070.1"	36	"	"G/A"	"61,9/38,1"	"65/40"	105	stress_42	"POPTR_0003s21070.1"	36	"	"G/A"	"60,0/40,0"	"6/4"	10
controllo_3	"POPTR_0003s21070.1"	36	"	"G/A"	"61,9/38,1"	"65/40"	105	stress_45	"POPTR_0003s21070.1"	36	"	"G/A"	"54,5/45,5"	"6/5"	11
controllo_3	"POPTR_0019s10280.1"	678	"	"T/C"	"61,9/38,1"	"146/90"	236	stress_12bis	"POPTR_0019s10280.1"	678	"	"T/C"	"59,2/40,8"	"45/31"	76
controllo_3	"POPTR_0019s10280.1"	678	"	"T/C"	"61,9/38,1"	"146/90"	236	stress_42	"POPTR_0019s10280.1"	678	"	"T/C"	"63,2/36,8"	"24/14"	38
controllo_3	"POPTR_0019s10280.1"	678	"	"T/C"	"61,9/38,1"	"146/90"	236	stress_45	"POPTR_0019s10280.1"	678	"	"T/C"	"66,7/33,3"	"22/11"	33
controllo_3	"POPTR_0013s12130.1"	207	"	"A/G"	"61,9/38,1"	"65/40"	105	stress_12bis	"POPTR_0013s12130.1"	207	"	"A/G"	"66,7/33,3"	"14/7"	21
controllo_3	"POPTR_0013s12130.1"	207	"	"A/G"	"61,9/38,1"	"65/40"	105	stress_45	"POPTR_0013s12130.1"	207	"	"A/G"	"76,9/23,1"	"10/3"	13
controllo_3	"POPTR_0014s09180.1"	162	"	"A/G"	"61,9/38,1"	"135/83"	218	stress_12bis	"POPTR_0014s09180.1"	162	"	"A/G"	"71,4/28,6"	"45/18"	63
controllo_3	"POPTR_0014s09180.1"	162	"	"A/G"	"61,9/38,1"	"135/83"	218	stress_45	"POPTR_0014s09180.1"	162	"	"A/G"	"84,6/15,4"	"11/2"	13
controllo_3	"POPTR_0004s01990.1"	643	"	"A/G"	"61,9/38,1"	"167/103"	270	stress_12bis	"POPTR_0004s01990.1"	643	"	"A/G"	"51,2/48,8"	"22/21"	43
controllo_3	"POPTR_0015s08540.1"	336	"	"G/A"	"61,9/38,1"	"112/69"	181	stress_12bis	"POPTR_0015s08540.1"	336	"	"G/A"	"52,3/47,7"	"34/31"	65
controllo_3	"POPTR_0015s08540.1"	336	"	"G/A"	"61,9/38,1"	"112/69"	181	stress_42	"POPTR_0015s08540.1"	336	"	"G/A"	"56,2/43,8"	"9/7"	16
controllo_3	"POPTR_0015s08540.1"	336	"	"G/A"	"61,9/38,1"	"112/69"	181	stress_45	"POPTR_0015s08540.1"	336	"	"A/G"	"50,0/50,0"	"9/9"	18
controllo_3	"POPTR_0015s08540.1"	614	"	"A/T"	"61,9/38,1"	"78/48"	126	stress_12bis	"POPTR_0015s08540.1"	614	"	"A/T"	"78,8/21,2"	"41/11"	52
controllo_3	"POPTR_0015s08540.1"	614	"	"A/T"	"61,9/38,1"	"78/48"	126	stress_42	"POPTR_0015s08540.1"	614	"	"A/T"	"76,5/23,5"	"13/4"	17
controllo_3	"POPTR_0015s08540.1"	614	"	"A/T"	"61,9/38,1"	"78/48"	126	stress_45	"POPTR_0015s08540.1"	614	"	"A/T"	"81,8/18,2"	"9/2"	11
controllo_3	"POPTR_0001s41080.1"	198	"	"T/C"	"61,9/38,1"	"1027/632"	1659	stress_12bis	"POPTR_0001s41080.1"	198	"	"T/C"	"66,7/33,3"	"375/187"	562
controllo_3	"POPTR_0001s41080.1"	198	"	"T/C"	"61,9/38,1"	"1027/632"	1659	stress_42	"POPTR_0001s41080.1"	198	"	"T/C"	"52,9/47,1"	"347/309"	656
controllo_3	"POPTR_0001s41080.1"	198	"	"T/C"	"61,9/38,1"	"1027/632"	1659	stress_45	"POPTR_0001s41080.1"	198	"	"T/C"	"53,7/46,3"	"316/272"	588
controllo_3	"POPTR_0001s34410.1"	506	"	"C/A"	"61,9/38,1"	"125/77"	202	stress_12bis	"POPTR_0001s34410.1"	506	"	"C/A"	"68,6/31,4"	"24/11"	35
controllo_3	"POPTR_0001s34410.1"	506	"	"C/A"	"61,9/38,1"	"125/77"	202	stress_42	"POPTR_0001s34410.1"	506	"	"C/A"	"59,0/41,0"	"23/16"	39
controllo_3	"POPTR_0001s34410.1"	506	"	"C/A"	"61,9/38,1"	"125/77"	202	stress_45	"POPTR_0001s34410.1"	506	"	"C/A"	"70,8/29,2"	"34/14"	48
controllo_3	"POPTR_0001s32140.1"	282	"	"T/A"	"61,9/38,1"	"70/43"	113	stress_12bis	"POPTR_0001s32140.1"	282	"	"T/A"	"62,1/37,9"	"18/11"	29
controllo_3	"POPTR_0001s32140.1"	282	"	"T/A"	"61,9/38,1"	"70/43"	113	stress_42	"POPTR_0001s32140.1"	282	"	"A/T"	"50,0/50,0"	"19/19"	38
controllo_3	"POPTR_0001s32140.1"	282	"	"T/A"	"61,9/38,1"	"70/43"	113	stress_45	"POPTR_0001s32140.1"	282	"	"T/A"	"59,3/40,7"	"32/22"	54
controllo_3	"POPTR_0010s20060.1"	1092	"	"C/T"	"61,9/38,1"	"151/93"	244	stress_12bis	"POPTR_0010s20060.1"	1092	"	"C/T"	"64,8/35,2"	"46/25"	71
controllo_3	"POPTR_0010s20060.1"	1092	"	"C/T"	"61,9/38,1"	"151/93"	244	stress_42	"POPTR_0010s20060.1"	1092	"	"C/T"	"66,7/33,3"	"16/8"	24
controllo_3	"POPTR_0010s20060.1"	1092	"	"C/T"	"61,9/38,1"	"151/93"	244	stress_45	"POPTR_0010s20060.1"	1092	"	"C/T"	"55,9/44,1"	"19/15"	34
controllo_3	"POPTR_0010s08290.1"	452	"	"T/A"	"61,9/38,1"	"13/8"	21	stress_42	"POPTR_0010s08290.1"	452	"	"T/A"	"84,5/15,5"	"98/18"	116
controllo_3	"POPTR_0007s12770.1"	41	"	"A/T"	"61,9/38,1"	"86/53"	139	stress_12bis	"POPTR_0007s12770.1"	41	"	"A/T"	"57,7/42,3"	"15/11"	26
controllo_3	"POPTR_0007s12770.1"	41	"	"A/T"	"61,9/38,1"	"86/53"	139	stress_45	"POPTR_0007s12770.1"	41	"	"A/T"	"75,0/25,0"	"15/5"	20
controllo_3	"POPTR_0008s20950.1"	112	"	"T/C"	"61,9/38,1"	"91/56"	147	stress_12bis	"POPTR_0008s20950.1"	112	"	"T/C"	"75,0/25,0"	"36/12"	48
controllo_3	"POPTR_0008s20950.1"	112	"	"T/C"	"61,9/38,1"	"91/56"	147	stress_42	"POPTR_0008s20950.1"	112	"	"T/C"	"84,6/15,4"	"11/2"	13
controllo_3	"POPTR_0008s20950.1"	112	"	"T/C"	"61,9/38,1"	"91/56"	147	stress_45	"POPTR_0008s20950.1"	112	"	"T/C"	"75,0/25,0"	"12/4"	16
controllo_3	"POPTR_0008s19960.1"	321	"	"A/T"	"61,9/38,1"	"86/53"	139	stress_12bis	"POPTR_0008s19960.1"	321	"	"T/A"	"64,3/35,7"	"9/5"	14
controllo_3	"POPTR_0016s05530.1"	717	"	"G/T"	"61,9/38,1"	"65/40"	105	stress_12bis	"POPTR_0016s05530.1"	717	"	"G/T"	"55,0/45,0"	"22/18"	40
controllo_3	"POPTR_0016s05530.1"	717	"	"G/T"	"61,9/38,1"	"65/40"	105	stress_42	"POPTR_0016s05530.1"	717	"	"G/T"	"56,4/43,6"	"53/41"	94
controllo_3	"POPTR_0016s05530.1"	717	"	"G/T"	"61,9/38,1"	"65/40"	105	stress_45	"POPTR_0016s05530.1"	717	"	"T/G"	"51,3/48,7"	"79/75"	154
controllo_3	"POPTR_0003s20870.1"	642	"	"A/G"	"62,0/36,7"	"98/58"	158	stress_12bis	"POPTR_0003s20870.1"	642	"	"G/A"	"53,3/43,3"	"16/13"	30
controllo_3	"POPTR_0003s20870.1"	642	"	"A/G"	"62,0/36,7"	"98/58"	158	stress_42	"POPTR_0003s20870.1"	642	"	"G/A"	"63,6/36,4"	"7/4"	11
controllo_3	"POPTR_0003s20870.1"	642	"	"A/G"	"62,0/36,7"	"98/58"	158	stress_45	"POPTR_0003s20870.1"	642	"	"A/G"	"50,0/50,0"	"16/16"	32
controllo_3	"POPTR_0005s25540.1"	183	"	"T/C"	"62,0/37,8"	"282/172"	455	stress_12bis	"POPTR_0005s25540.1"	183	"	"T/C"	"62,5/37,5"	"30/18"	48
controllo_3	"POPTR_0006s00780.1"	600	"	"C/T"	"62,0/38,0"	"67/41"	108	stress_12bis	"POPTR_0006s00780.1"	600	"	"C/T"	"57,1/42,9"	"8/6"	14
controllo_3	"POPTR_0006s00780.1"	600	"	"C/T"	"62,0/38,0"	"67/41"	108	stress_45	"POPTR_0006s00780.1"	600	"	"C/T"	"72,7/27,3"	"8/3"	11
controllo_3	"POPTR_0003s18530.1"	821	"	"G/A"	"62,0/38,0"	"119/73"	192	stress_12bis	"POPTR_0003s18530.1"	821	"	"G/A"	"60,5/39,5"	"46/30"	76
controllo_3	"POPTR_0003s18530.1"	821	"	"G/A"	"62,0/38,0"	"119/73"	192	stress_42	"POPTR_0003s18530.1"	821	"	"G/A"	"57,4/42,6"	"39/29"	68
controllo_3	"POPTR_0003s18530.1"	821	"	"G/A"	"62,0/38,0"	"119/73"	192	stress_45	"POPTR_0003s18530.1"	821	"	"G/A"	"52,0/48,0"	"52/48"	100
controllo_3	"POPTR_0003s18530.1"	903	"	"A/T"	"62,0/38,0"	"155/95"	250	stress_12bis	"POPTR_0003s18530.1"	903	"	"A/T"	"56,2/43,8"	"54/42"	96
controllo_3	"POPTR_0003s18530.1"	903	"	"A/T"	"62,0/38,0"	"155/95"	250	stress_42	"POPTR_0003s18530.1"	903	"	"A/T"	"56,6/43,4"	"47/36"	83
controllo_3	"POPTR_0003s18530.1"	903	"	"A/T"	"62,0/38,0"	"155/95"	250	stress_45	"POPTR_0003s18530.1"	903	"	"A/T"	"52,1/47,9"	"63/58"	121
controllo_3	"POPTR_0019s04750.1"	522	"	"C/T"	"62,0/38,0"	"93/57"	150	stress_12bis	"POPTR_0019s04750.1"	522	"	"C/T"	"63,2/36,8"	"74/43"	117
controllo_3	"POPTR_0019s04750.1"	522	"	"C/T"	"62,0/38,0"	"93/57"	150	stress_42	"POPTR_0019s04750.1"	522	"	"C/T"	"76,0/24,0"	"73/23"	96
controllo_3	"POPTR_0019s04750.1"	522	"	"C/T"	"62,0/38,0"	"93/57"	150	stress_45	"POPTR_0019s04750.1"	522	"	"C/T"	"67,9/32,1"	"57/27"	84
controllo_3	"POPTR_0009s02070.1"	550	"	"A/C"	"62,0/38,0"	"237/145"	382	stress_12bis	"POPTR_0009s02070.1"	550	"	"C/A"	"51,4/48,6"	"38/36"	74
controllo_3	"POPTR_0009s02070.1"	550	"	"A/C"	"62,0/38,0"	"237/145"	382	stress_42	"POPTR_0009s02070.1"	550	"	"A/C"	"55,0/45,0"	"44/36"	80
controllo_3	"POPTR_0009s02070.1"	550	"	"A/C"	"62,0/38,0"	"237/145"	382	stress_45	"POPTR_0009s02070.1"	550	"	"A/C"	"53,2/46,8"	"42/37"	79
controllo_3	"POPTR_0009s05790.1"	274	"	"G/T"	"62,0/38,0"	"67/41"	108	stress_12bis	"POPTR_0009s05790.1"	274	"	"G/T"	"80,0/20,0"	"20/5"	25
controllo_3	"POPTR_0012s14230.1"	84	"	"A/G"	"62,0/38,0"	"75/46"	121	stress_12bis	"POPTR_0012s14230.1"	84	"	"G/A"	"63,6/36,4"	"21/12"	33
controllo_3	"POPTR_0012s14230.1"	84	"	"A/G"	"62,0/38,0"	"75/46"	121	stress_42	"POPTR_0012s14230.1"	84	"	"A/G"	"66,7/33,3"	"8/4"	12
controllo_3	"POPTR_0012s14230.1"	84	"	"A/G"	"62,0/38,0"	"75/46"	121	stress_45	"POPTR_0012s14230.1"	84	"	"G/A"	"61,9/38,1"	"13/8"	21
controllo_3	"POPTR_0012s04220.1"	294	"	"T/C"	"62,0/38,0"	"98/60"	158	stress_12bis	"POPTR_0012s04220.1"	294	"	"T/C"	"60,9/39,1"	"14/9"	23
controllo_3	"POPTR_0012s04220.1"	294	"	"T/C"	"62,0/38,0"	"98/60"	158	stress_42	"POPTR_0012s04220.1"	294	"	"T/C"	"84,6/15,4"	"11/2"	13
controllo_3	"POPTR_0012s04220.1"	294	"	"T/C"	"62,0/38,0"	"98/60"	158	stress_45	"POPTR_0012s04220.1"	294	"	"T/C"	"53,3/46,7"	"8/7"	15
controllo_3	"POPTR_0015s08340.1"	258	"	"T/C"	"62,0/38,0"	"67/41"	108	stress_12bis	"POPTR_0015s08340.1"	258	"	"T/C"	"71,9/28,1"	"23/9"	32
controllo_3	"POPTR_0015s08340.1"	258	"	"T/C"	"62,0/38,0"	"67/41"	108	stress_42	"POPTR_0015s08340.1"	258	"	"T/C"	"66,7/33,3"	"12/6"	18
controllo_3	"POPTR_0015s08340.1"	258	"	"T/C"	"62,0/38,0"	"67/41"	108	stress_45	"POPTR_0015s08340.1"	258	"	"T/C"	"84,2/15,8"	"16/3"	19
controllo_3	"POPTR_0001s30460.1"	63	"	"G/T"	"62,0/38,0"	"75/46"	121	stress_12bis	"POPTR_0001s30460.1"	63	"	"G/T"	"62,1/37,9"	"18/11"	29
controllo_3	"POPTR_0001s30460.1"	63	"	"G/T"	"62,0/38,0"	"75/46"	121	stress_42	"POPTR_0001s30460.1"	63	"	"G/T"	"61,5/38,5"	"8/5"	13
controllo_3	"POPTR_0001s30460.1"	63	"	"G/T"	"62,0/38,0"	"75/46"	121	stress_45	"POPTR_0001s30460.1"	63	"	"T/G"	"52,0/48,0"	"13/12"	25
controllo_3	"POPTR_0001s07870.1"	2031	"	"C/T"	"62,0/38,0"	"88/54"	142	stress_12bis	"POPTR_0001s07870.1"	2031	"	"T/C"	"77,8/22,2"	"14/4"	18
controllo_3	"POPTR_0001s07870.1"	2031	"	"C/T"	"62,0/38,0"	"88/54"	142	stress_42	"POPTR_0001s07870.1"	2031	"	"T/C"	"60,6/36,4"	"20/12"	33
controllo_3	"POPTR_0001s07870.1"	2031	"	"C/T"	"62,0/38,0"	"88/54"	142	stress_45	"POPTR_0001s07870.1"	2031	"	"T/C"	"58,7/39,1"	"27/18"	46
controllo_3	"POPTR_0010s14190.1"	133	"	"C/G"	"62,0/38,0"	"145/89"	234	stress_12bis	"POPTR_0010s14190.1"	133	"	"C/G"	"70,2/29,8"	"33/14"	47
controllo_3	"POPTR_0010s14190.1"	133	"	"C/G"	"62,0/38,0"	"145/89"	234	stress_42	"POPTR_0010s14190.1"	133	"	"C/G"	"68,8/31,2"	"11/5"	16
controllo_3	"POPTR_0002s13330.1"	297	"	"T/C"	"62,0/38,0"	"67/41"	108	stress_12bis	"POPTR_0002s13330.1"	297	"	"T/C"	"54,5/45,5"	"18/15"	33
controllo_3	"POPTR_0002s13330.1"	297	"	"T/C"	"62,0/38,0"	"67/41"	108	stress_42	"POPTR_0002s13330.1"	297	"	"C/T"	"66,7/33,3"	"8/4"	12
controllo_3	"POPTR_0002s13330.1"	297	"	"T/C"	"62,0/38,0"	"67/41"	108	stress_45	"POPTR_0002s13330.1"	297	"	"T/C"	"52,2/47,8"	"12/11"	23
controllo_3	"POPTR_0016s07230.1"	379	"	"C/A"	"62,0/38,0"	"67/41"	108	stress_12bis	"POPTR_0016s07230.1"	379	"	"A/C"	"66,7/33,3"	"36/18"	54
controllo_3	"POPTR_0016s07230.1"	379	"	"C/A"	"62,0/38,0"	"67/41"	108	stress_42	"POPTR_0016s07230.1"	379	"	"A/C"	"52,9/47,1"	"9/8"	17
controllo_3	"POPTR_0016s07230.1"	379	"	"C/A"	"62,0/38,0"	"67/41"	108	stress_45	"POPTR_0016s07230.1"	379	"	"A/C"	"62,9/37,1"	"22/13"	35
controllo_3	"POPTR_0006s08750.1"	334	"	"A/C"	"62,1/36,9"	"64/38"	103	stress_12bis	"POPTR_0006s08750.1"	334	"	"C/A"	"59,3/40,7"	"32/22"	54
controllo_3	"POPTR_0006s08750.1"	334	"	"A/C"	"62,1/36,9"	"64/38"	103	stress_42	"POPTR_0006s08750.1"	334	"	"C/A"	"69,6/30,4"	"16/7"	23
controllo_3	"POPTR_0006s08750.1"	334	"	"A/C"	"62,1/36,9"	"64/38"	103	stress_45	"POPTR_0006s08750.1"	334	"	"C/A"	"54,2/45,8"	"13/11"	24
controllo_3	"POPTR_0019s10280.1"	30	"	"T/C"	"62,1/37,4"	"113/68"	182	stress_12bis	"POPTR_0019s10280.1"	30	"	"T/C"	"56,1/43,9"	"37/29"	66
controllo_3	"POPTR_0019s10280.1"	30	"	"T/C"	"62,1/37,4"	"113/68"	182	stress_42	"POPTR_0019s10280.1"	30	"	"T/C"	"82,4/17,6"	"14/3"	17
controllo_3	"POPTR_0019s10280.1"	30	"	"T/C"	"62,1/37,4"	"113/68"	182	stress_45	"POPTR_0019s10280.1"	30	"	"C/T"	"50,0/50,0"	"10/10"	20
controllo_3	"POPTR_0013s03700.1"	273	"	"A/G"	"62,1/37,4"	"133/80"	214	stress_12bis	"POPTR_0013s03700.1"	273	"	"A/G"	"52,2/47,8"	"24/22"	46
controllo_3	"POPTR_0013s03700.1"	273	"	"A/G"	"62,1/37,4"	"133/80"	214	stress_42	"POPTR_0013s03700.1"	273	"	"A/G"	"65,5/34,5"	"19/10"	29
controllo_3	"POPTR_0013s03700.1"	273	"	"A/G"	"62,1/37,4"	"133/80"	214	stress_45	"POPTR_0013s03700.1"	273	"	"G/A"	"52,3/47,7"	"23/21"	44
controllo_3	"POPTR_0017s14470.1"	534	"	"T/A"	"62,1/37,9"	"36/22"	58	stress_45	"POPTR_0017s14470.1"	534	"	"T/A"	"66,9/32,5"	"105/51"	157
controllo_3	"POPTR_0006s11920.1"	1005	"	"C/T"	"62,1/37,9"	"64/39"	103	stress_12bis	"POPTR_0006s11920.1"	1005	"	"T/C"	"60,0/40,0"	"9/6"	15
controllo_3	"POPTR_0006s11920.1"	1005	"	"C/T"	"62,1/37,9"	"64/39"	103	stress_42	"POPTR_0006s11920.1"	1005	"	"T/C"	"75,0/25,0"	"21/7"	28
controllo_3	"POPTR_0006s11920.1"	1005	"	"C/T"	"62,1/37,9"	"64/39"	103	stress_45	"POPTR_0006s11920.1"	1005	"	"T/C"	"61,9/38,1"	"26/16"	42
controllo_3	"POPTR_0009s07030.1"	499	"	"C/A"	"62,1/37,9"	"87/53"	140	stress_12bis	"POPTR_0009s07030.1"	499	"	"C/A"	"67,5/32,5"	"52/25"	77
controllo_3	"POPTR_0009s07030.1"	499	"	"C/A"	"62,1/37,9"	"87/53"	140	stress_42	"POPTR_0009s07030.1"	499	"	"C/A"	"68,8/31,2"	"11/5"	16
controllo_3	"POPTR_0009s07030.1"	499	"	"C/A"	"62,1/37,9"	"87/53"	140	stress_45	"POPTR_0009s07030.1"	499	"	"C/A"	"61,9/38,1"	"13/8"	21
controllo_3	"POPTR_0015s06950.1"	499	"	"T/G"	"62,1/37,9"	"77/47"	124	stress_12bis	"POPTR_0015s06950.1"	499	"	"T/G"	"52,0/48,0"	"13/12"	25
controllo_3	"POPTR_0015s06950.1"	499	"	"T/G"	"62,1/37,9"	"77/47"	124	stress_45	"POPTR_0015s06950.1"	499	"	"G/T"	"50,0/50,0"	"5/5"	10
controllo_3	"POPTR_0015s11940.1"	50	"	"C/T"	"62,1/37,9"	"110/67"	177	stress_12bis	"POPTR_0015s11940.1"	50	"	"T/C"	"51,1/48,9"	"24/23"	47
controllo_3	"POPTR_0015s11940.1"	50	"	"C/T"	"62,1/37,9"	"110/67"	177	stress_42	"POPTR_0015s11940.1"	50	"	"C/T"	"73,7/26,3"	"14/5"	19
controllo_3	"POPTR_0015s11940.1"	50	"	"C/T"	"62,1/37,9"	"110/67"	177	stress_45	"POPTR_0015s11940.1"	50	"	"C/T"	"71,4/28,6"	"15/6"	21
controllo_3	"POPTR_0001s25760.1"	900	"	"T/A"	"62,1/37,9"	"118/72"	190	stress_12bis	"POPTR_0001s25760.1"	900	"	"T/A"	"71,1/28,9"	"32/13"	45
controllo_3	"POPTR_0001s25760.1"	900	"	"T/A"	"62,1/37,9"	"118/72"	190	stress_42	"POPTR_0001s25760.1"	900	"	"T/A"	"57,7/42,3"	"15/11"	26
controllo_3	"POPTR_0001s25760.1"	900	"	"T/A"	"62,1/37,9"	"118/72"	190	stress_45	"POPTR_0001s25760.1"	900	"	"T/A"	"67,9/32,1"	"38/18"	56
controllo_3	"POPTR_0010s15250.1"	735	"	"T/C"	"62,1/37,9"	"95/58"	153	stress_12bis	"POPTR_0010s15250.1"	735	"	"T/C"	"57,4/42,6"	"35/26"	61
controllo_3	"POPTR_0010s15250.1"	735	"	"T/C"	"62,1/37,9"	"95/58"	153	stress_42	"POPTR_0010s15250.1"	735	"	"C/T"	"57,1/42,9"	"16/12"	28
controllo_3	"POPTR_0010s15250.1"	735	"	"T/C"	"62,1/37,9"	"95/58"	153	stress_45	"POPTR_0010s15250.1"	735	"	"T/C"	"64,9/35,1"	"24/13"	37
controllo_3	"POPTR_0007s09630.1"	584	"	"G/A"	"62,1/37,9"	"290/177"	467	stress_12bis	"POPTR_0007s09630.1"	584	"	"G/A"	"54,5/45,5"	"72/60"	132
controllo_3	"POPTR_0007s09630.1"	584	"	"G/A"	"62,1/37,9"	"290/177"	467	stress_42	"POPTR_0007s09630.1"	584	"	"G/A"	"75,0/25,0"	"12/4"	16
controllo_3	"POPTR_0007s09630.1"	584	"	"G/A"	"62,1/37,9"	"290/177"	467	stress_45	"POPTR_0007s09630.1"	584	"	"G/A"	"59,3/40,7"	"16/11"	27
controllo_3	"POPTR_0002s05650.1"	108	"	"A/C"	"62,1/37,9"	"72/44"	116	stress_12bis	"POPTR_0002s05650.1"	108	"	"A/C"	"66,7/33,3"	"16/8"	24
controllo_3	"POPTR_0002s05650.1"	108	"	"A/C"	"62,1/37,9"	"72/44"	116	stress_42	"POPTR_0002s05650.1"	108	"	"C/A"	"60,0/40,0"	"12/8"	20
controllo_3	"POPTR_0002s05650.1"	108	"	"A/C"	"62,1/37,9"	"72/44"	116	stress_45	"POPTR_0002s05650.1"	108	"	"C/A"	"61,5/38,5"	"16/10"	26
controllo_3	"POPTR_0002s14730.1"	922	"	"G/T"	"62,1/37,9"	"438/267"	705	stress_12bis	"POPTR_0002s14730.1"	922	"	"G/T"	"64,4/35,6"	"141/78"	219
controllo_3	"POPTR_0002s14730.1"	922	"	"G/T"	"62,1/37,9"	"438/267"	705	stress_42	"POPTR_0002s14730.1"	922	"	"G/T"	"65,4/34,6"	"34/18"	52
controllo_3	"POPTR_0002s14730.1"	922	"	"G/T"	"62,1/37,9"	"438/267"	705	stress_45	"POPTR_0002s14730.1"	922	"	"G/T"	"68,1/31,9"	"49/23"	72
controllo_3	"POPTR_0008s03280.1"	1122	"	"C/T"	"62,1/37,9"	"64/39"	103	stress_12bis	"POPTR_0008s03280.1"	1122	"	"C/T"	"80,0/20,0"	"20/5"	25
controllo_3	"POPTR_0008s03280.1"	1122	"	"C/T"	"62,1/37,9"	"64/39"	103	stress_42	"POPTR_0008s03280.1"	1122	"	"C/T"	"64,3/35,7"	"9/5"	14
controllo_3	"POPTR_0008s03280.1"	1122	"	"C/T"	"62,1/37,9"	"64/39"	103	stress_45	"POPTR_0008s03280.1"	1122	"	"T/C"	"52,6/47,4"	"10/9"	19
controllo_3	"POPTR_0002s06680.1"	762	"	"T/C"	"62,2/36,7"	"56/33"	90	stress_45	"POPTR_0002s06680.1"	762	"	"C/T"	"51,3/48,7"	"58/55"	113
controllo_3	"POPTR_0014s09800.1"	446	"	"T/C"	"62,2/37,3"	"120/72"	193	stress_12bis	"POPTR_0014s09800.1"	446	"	"T/C"	"55,9/44,1"	"38/30"	68
controllo_3	"POPTR_0013s03320.1"	333	"	"A/T"	"62,2/37,5"	"184/111"	296	stress_12bis	"POPTR_0013s03320.1"	333	"	"A/T"	"76,0/24,0"	"38/12"	50
controllo_3	"POPTR_0013s03320.1"	333	"	"A/T"	"62,2/37,5"	"184/111"	296	stress_42	"POPTR_0013s03320.1"	333	"	"A/T"	"84,8/15,2"	"89/16"	105
controllo_3	"POPTR_0013s03320.1"	333	"	"A/T"	"62,2/37,5"	"184/111"	296	stress_45	"POPTR_0013s03320.1"	333	"	"A/T"	"77,1/22,9"	"91/27"	118
controllo_3	"POPTR_0005s22200.1"	843	"	"C/T"	"62,2/37,8"	"74/45"	119	stress_12bis	"POPTR_0005s22200.1"	843	"	"C/T"	"73,0/27,0"	"27/10"	37
controllo_3	"POPTR_0005s22200.1"	843	"	"C/T"	"62,2/37,8"	"74/45"	119	stress_42	"POPTR_0005s22200.1"	843	"	"T/C"	"55,0/45,0"	"11/9"	20
controllo_3	"POPTR_0005s22200.1"	843	"	"C/T"	"62,2/37,8"	"74/45"	119	stress_45	"POPTR_0005s22200.1"	843	"	"T/C"	"65,0/35,0"	"13/7"	20
controllo_3	"POPTR_0017s14470.1"	1245	"	"A/T"	"62,2/37,8"	"28/17"	45	stress_45	"POPTR_0017s14470.1"	1245	"	"A/T"	"64,0/36,0"	"73/41"	114
controllo_3	"POPTR_0006s16030.1"	466	"	"G/T"	"62,2/37,8"	"102/62"	164	stress_12bis	"POPTR_0006s16030.1"	466	"	"G/T"	"60,0/40,0"	"9/6"	15
controllo_3	"POPTR_0006s16030.1"	466	"	"G/T"	"62,2/37,8"	"102/62"	164	stress_42	"POPTR_0006s16030.1"	466	"	"G/T"	"61,5/38,5"	"8/5"	13
controllo_3	"POPTR_0006s16030.1"	466	"	"G/T"	"62,2/37,8"	"102/62"	164	stress_45	"POPTR_0006s16030.1"	466	"	"G/T"	"80,0/20,0"	"8/2"	10
controllo_3	"POPTR_0019s14860.1"	629	"	"C/T"	"62,2/37,8"	"69/42"	111	stress_12bis	"POPTR_0019s14860.1"	629	"	"C/T"	"70,8/29,2"	"34/14"	48
controllo_3	"POPTR_0019s14860.1"	629	"	"C/T"	"62,2/37,8"	"69/42"	111	stress_42	"POPTR_0019s14860.1"	629	"	"C/T"	"82,4/17,6"	"14/3"	17
controllo_3	"POPTR_0019s14860.1"	629	"	"C/T"	"62,2/37,8"	"69/42"	111	stress_45	"POPTR_0019s14860.1"	629	"	"C/T"	"70,0/30,0"	"14/6"	20
controllo_3	"POPTR_0004s10660.1"	447	"	"A/T"	"62,2/37,8"	"293/178"	471	stress_12bis	"POPTR_0004s10660.1"	447	"	"A/T"	"50,9/49,1"	"58/56"	114
controllo_3	"POPTR_0004s10660.1"	447	"	"A/T"	"62,2/37,8"	"293/178"	471	stress_42	"POPTR_0004s10660.1"	447	"	"T/A"	"60,3/38,2"	"82/52"	136
controllo_3	"POPTR_0004s10660.1"	447	"	"A/T"	"62,2/37,8"	"293/178"	471	stress_45	"POPTR_0004s10660.1"	447	"	"T/A"	"56,7/43,3"	"106/81"	187
controllo_3	"POPTR_0012s04220.1"	295	"	"A/T"	"62,2/37,8"	"92/56"	148	stress_12bis	"POPTR_0012s04220.1"	295	"	"A/T"	"63,6/36,4"	"14/8"	22
controllo_3	"POPTR_0012s04220.1"	295	"	"A/T"	"62,2/37,8"	"92/56"	148	stress_42	"POPTR_0012s04220.1"	295	"	"A/T"	"81,8/18,2"	"9/2"	11
controllo_3	"POPTR_0012s04220.1"	295	"	"A/T"	"62,2/37,8"	"92/56"	148	stress_45	"POPTR_0012s04220.1"	295	"	"A/T"	"53,3/46,7"	"8/7"	15
controllo_3	"POPTR_0011s12440.1"	276	"	"G/T"	"62,2/37,8"	"140/85"	225	stress_12bis	"POPTR_0011s12440.1"	276	"	"G/T"	"62,1/37,9"	"72/44"	116
controllo_3	"POPTR_0011s12440.1"	276	"	"G/T"	"62,2/37,8"	"140/85"	225	stress_45	"POPTR_0011s12440.1"	276	"	"G/T"	"68,8/31,2"	"22/10"	32
controllo_3	"POPTR_0001s07850.1"	1406	"	"G/A"	"62,2/37,8"	"115/70"	185	stress_12bis	"POPTR_0001s07850.1"	1406	"	"G/A"	"69,0/31,0"	"20/9"	29
controllo_3	"POPTR_0001s07850.1"	1406	"	"G/A"	"62,2/37,8"	"115/70"	185	stress_42	"POPTR_0001s07850.1"	1406	"	"G/A"	"60,0/40,0"	"30/20"	50
controllo_3	"POPTR_0001s07850.1"	1406	"	"G/A"	"62,2/37,8"	"115/70"	185	stress_45	"POPTR_0001s07850.1"	1406	"	"G/A"	"54,3/45,7"	"25/21"	46
controllo_3	"POPTR_0002s08010.1"	744	"	"C/T"	"62,2/37,8"	"84/51"	135	stress_12bis	"POPTR_0002s08010.1"	744	"	"C/T"	"63,0/37,0"	"17/10"	27
controllo_3	"POPTR_0002s08010.1"	744	"	"C/T"	"62,2/37,8"	"84/51"	135	stress_45	"POPTR_0002s08010.1"	744	"	"C/T"	"68,2/31,8"	"15/7"	22
controllo_3	"POPTR_0008s04060.1"	447	"	"T/C"	"62,2/37,8"	"92/56"	148	stress_12bis	"POPTR_0008s04060.1"	447	"	"T/C"	"72,7/27,3"	"24/9"	33
controllo_3	"POPTR_0008s04060.1"	447	"	"T/C"	"62,2/37,8"	"92/56"	148	stress_45	"POPTR_0008s04060.1"	447	"	"T/C"	"83,3/16,7"	"10/2"	12
controllo_3	"POPTR_0016s14310.1"	30	"	"C/T"	"62,2/37,8"	"120/73"	193	stress_12bis	"POPTR_0016s14310.1"	30	"	"C/T"	"64,8/35,2"	"59/32"	91
controllo_3	"POPTR_0008s17390.1"	1044	"	"C/A"	"62,3/37,0"	"86/51"	138	stress_12bis	"POPTR_0008s17390.1"	1044	"	"C/A"	"69,6/30,4"	"16/7"	23
controllo_3	"POPTR_0005s26610.1"	465	"	"G/A"	"62,3/37,7"	"86/52"	138	stress_12bis	"POPTR_0005s26610.1"	465	"	"G/A"	"56,9/43,1"	"37/28"	65
controllo_3	"POPTR_0005s26610.1"	465	"	"G/A"	"62,3/37,7"	"86/52"	138	stress_42	"POPTR_0005s26610.1"	465	"	"G/A"	"51,6/48,4"	"64/60"	124
controllo_3	"POPTR_0005s26610.1"	465	"	"G/A"	"62,3/37,7"	"86/52"	138	stress_45	"POPTR_0005s26610.1"	465	"	"G/A"	"50,9/49,1"	"59/57"	116
controllo_3	"POPTR_0018s09380.1"	766	"	"C/A"	"62,3/37,7"	"66/40"	106	stress_12bis	"POPTR_0018s09380.1"	766	"	"C/A"	"67,9/32,1"	"19/9"	28
controllo_3	"POPTR_0018s09380.1"	766	"	"C/A"	"62,3/37,7"	"66/40"	106	stress_42	"POPTR_0018s09380.1"	766	"	"C/A"	"61,3/38,7"	"19/12"	31
controllo_3	"POPTR_0018s09380.1"	766	"	"C/A"	"62,3/37,7"	"66/40"	106	stress_45	"POPTR_0018s09380.1"	766	"	"C/A"	"60,0/40,0"	"48/32"	80
controllo_3	"POPTR_0004s23490.1"	501	"	"A/T"	"62,3/37,7"	"76/46"	122	stress_12bis	"POPTR_0004s23490.1"	501	"	"A/T"	"51,2/48,8"	"22/21"	43
controllo_3	"POPTR_0004s23490.1"	501	"	"A/T"	"62,3/37,7"	"76/46"	122	stress_42	"POPTR_0004s23490.1"	501	"	"A/T"	"53,6/46,4"	"15/13"	28
controllo_3	"POPTR_0004s23490.1"	501	"	"A/T"	"62,3/37,7"	"76/46"	122	stress_45	"POPTR_0004s23490.1"	501	"	"A/T"	"54,5/45,5"	"36/30"	66
controllo_3	"POPTR_0009s09240.1"	1104	"	"G/A"	"62,3/37,7"	"114/69"	183	stress_12bis	"POPTR_0009s09240.1"	1104	"	"G/A"	"57,3/42,7"	"51/38"	89
controllo_3	"POPTR_0009s09240.1"	1104	"	"G/A"	"62,3/37,7"	"114/69"	183	stress_42	"POPTR_0009s09240.1"	1104	"	"G/A"	"61,8/38,2"	"21/13"	34
controllo_3	"POPTR_0009s09240.1"	1104	"	"G/A"	"62,3/37,7"	"114/69"	183	stress_45	"POPTR_0009s09240.1"	1104	"	"G/A"	"51,2/48,8"	"21/20"	41
controllo_3	"POPTR_0012s03610.1"	57	"	"T/G"	"62,3/37,7"	"76/46"	122	stress_12bis	"POPTR_0012s03610.1"	57	"	"T/G"	"59,5/40,5"	"25/17"	42
controllo_3	"POPTR_0012s03610.1"	57	"	"T/G"	"62,3/37,7"	"76/46"	122	stress_42	"POPTR_0012s03610.1"	57	"	"T/G"	"72,7/27,3"	"8/3"	11
controllo_3	"POPTR_0011s09370.1"	4638	"	"G/A"	"62,3/37,7"	"76/46"	122	stress_12bis	"POPTR_0011s09370.1"	4638	"	"G/A"	"65,6/34,4"	"21/11"	32
controllo_3	"POPTR_0011s09370.1"	4638	"	"G/A"	"62,3/37,7"	"76/46"	122	stress_42	"POPTR_0011s09370.1"	4638	"	"G/A"	"81,0/19,0"	"17/4"	21
controllo_3	"POPTR_0011s09370.1"	4638	"	"G/A"	"62,3/37,7"	"76/46"	122	stress_45	"POPTR_0011s09370.1"	4638	"	"G/A"	"66,7/33,3"	"26/13"	39
controllo_3	"POPTR_0001s40250.1"	2542	"	"G/C"	"62,3/37,7"	"38/23"	61	stress_45	"POPTR_0001s40250.1"	2542	"	"C/G"	"65,7/34,3"	"94/49"	143
controllo_3	"POPTR_0001s40700.1"	456	"	"A/G"	"62,3/37,7"	"149/90"	239	stress_12bis	"POPTR_0001s40700.1"	456	"	"A/G"	"80,0/20,0"	"56/14"	70
controllo_3	"POPTR_0001s40700.1"	456	"	"A/G"	"62,3/37,7"	"149/90"	239	stress_42	"POPTR_0001s40700.1"	456	"	"A/G"	"70,0/30,0"	"35/15"	50
controllo_3	"POPTR_0001s40700.1"	456	"	"A/G"	"62,3/37,7"	"149/90"	239	stress_45	"POPTR_0001s40700.1"	456	"	"A/G"	"76,8/23,2"	"53/16"	69
controllo_3	"POPTR_0001s44870.1"	666	"	"G/A"	"62,3/37,7"	"109/66"	175	stress_12bis	"POPTR_0001s44870.1"	666	"	"G/A"	"54,1/45,9"	"20/17"	37
controllo_3	"POPTR_0001s44870.1"	666	"	"G/A"	"62,3/37,7"	"109/66"	175	stress_42	"POPTR_0001s44870.1"	666	"	"G/A"	"62,1/37,9"	"18/11"	29
controllo_3	"POPTR_0001s44870.1"	666	"	"G/A"	"62,3/37,7"	"109/66"	175	stress_45	"POPTR_0001s44870.1"	666	"	"A/G"	"52,9/47,1"	"18/16"	34
controllo_3	"POPTR_0001s06910.1"	964	"	"T/A"	"62,3/37,7"	"71/43"	114	stress_12bis	"POPTR_0001s06910.1"	964	"	"T/A"	"60,6/39,4"	"20/13"	33
controllo_3	"POPTR_0001s06910.1"	964	"	"T/A"	"62,3/37,7"	"71/43"	114	stress_42	"POPTR_0001s06910.1"	964	"	"T/A"	"53,8/46,2"	"21/18"	39
controllo_3	"POPTR_0001s06910.1"	964	"	"T/A"	"62,3/37,7"	"71/43"	114	stress_45	"POPTR_0001s06910.1"	964	"	"T/A"	"60,0/40,0"	"30/20"	50
controllo_3	"POPTR_0010s11780.1"	647	"	"C/A"	"62,3/37,7"	"76/46"	122	stress_12bis	"POPTR_0010s11780.1"	647	"	"C/A"	"53,3/46,7"	"24/21"	45
controllo_3	"POPTR_0010s11780.1"	647	"	"C/A"	"62,3/37,7"	"76/46"	122	stress_42	"POPTR_0010s11780.1"	647	"	"C/A"	"51,0/49,0"	"50/48"	98
controllo_3	"POPTR_0010s11780.1"	647	"	"C/A"	"62,3/37,7"	"76/46"	122	stress_45	"POPTR_0010s11780.1"	647	"	"C/A"	"63,9/36,1"	"92/52"	144
controllo_3	"POPTR_0008s12890.1"	1149	"	"A/G"	"62,3/37,7"	"76/46"	122	stress_12bis	"POPTR_0008s12890.1"	1149	"	"A/G"	"50,0/50,0"	"8/8"	16
controllo_3	"POPTR_0009s07030.1"	573	"	"A/G"	"62,4/36,6"	"63/37"	101	stress_12bis	"POPTR_0009s07030.1"	573	"	"A/G"	"58,7/41,3"	"27/19"	46
controllo_3	"POPTR_0009s07030.1"	573	"	"A/G"	"62,4/36,6"	"63/37"	101	stress_42	"POPTR_0009s07030.1"	573	"	"A/G"	"71,4/28,6"	"10/4"	14
controllo_3	"POPTR_0009s07030.1"	573	"	"A/G"	"62,4/36,6"	"63/37"	101	stress_45	"POPTR_0009s07030.1"	573	"	"A/G"	"53,8/46,2"	"7/6"	13
controllo_3	"POPTR_0011s05250.1"	1602	"	"G/T"	"62,4/36,6"	"58/34"	93	stress_45	"POPTR_0011s05250.1"	1602	"	"G/T"	"53,4/46,6"	"79/69"	148
controllo_3	"POPTR_0002s08010.1"	306	"	"C/T"	"62,4/37,0"	"103/61"	165	stress_12bis	"POPTR_0002s08010.1"	306	"	"T/C"	"51,5/48,5"	"17/16"	33
controllo_3	"POPTR_0012s11410.1"	110	"	"T/C"	"62,4/37,1"	"111/66"	178	stress_12bis	"POPTR_0012s11410.1"	110	"	"T/C"	"51,1/48,9"	"24/23"	47
controllo_3	"POPTR_0012s11410.1"	110	"	"T/C"	"62,4/37,1"	"111/66"	178	stress_42	"POPTR_0012s11410.1"	110	"	"T/C"	"71,4/23,8"	"15/5"	21
controllo_3	"POPTR_0012s11410.1"	110	"	"T/C"	"62,4/37,1"	"111/66"	178	stress_45	"POPTR_0012s11410.1"	110	"	"C/T"	"52,6/47,4"	"20/18"	38
controllo_3	"POPTR_0005s25540.1"	750	"	"C/G"	"62,4/37,6"	"349/210"	559	stress_12bis	"POPTR_0005s25540.1"	750	"	"C/G"	"77,3/22,7"	"51/15"	66
controllo_3	"POPTR_0006s16370.1"	528	"	"A/G"	"62,4/37,6"	"63/38"	101	stress_12bis	"POPTR_0006s16370.1"	528	"	"A/G"	"62,9/37,1"	"22/13"	35
controllo_3	"POPTR_0006s16370.1"	528	"	"A/G"	"62,4/37,6"	"63/38"	101	stress_42	"POPTR_0006s16370.1"	528	"	"A/G"	"70,0/30,0"	"7/3"	10
controllo_3	"POPTR_0006s16370.1"	528	"	"A/G"	"62,4/37,6"	"63/38"	101	stress_45	"POPTR_0006s16370.1"	528	"	"A/G"	"69,2/30,8"	"9/4"	13
controllo_3	"POPTR_0014s09180.1"	1383	"	"C/A"	"62,4/37,6"	"118/71"	189	stress_12bis	"POPTR_0014s09180.1"	1383	"	"C/A"	"68,5/31,5"	"37/17"	54
controllo_3	"POPTR_0004s04860.1"	489	"	"T/C"	"62,4/37,6"	"281/169"	450	stress_12bis	"POPTR_0004s04860.1"	489	"	"T/C"	"57,0/43,0"	"61/46"	107
controllo_3	"POPTR_0004s04860.1"	489	"	"T/C"	"62,4/37,6"	"281/169"	450	stress_42	"POPTR_0004s04860.1"	489	"	"T/C"	"75,0/25,0"	"27/9"	36
controllo_3	"POPTR_0004s04860.1"	489	"	"T/C"	"62,4/37,6"	"281/169"	450	stress_45	"POPTR_0004s04860.1"	489	"	"T/C"	"72,5/27,5"	"37/14"	51
controllo_3	"POPTR_0009s01320.1"	426	"	"T/C"	"62,4/37,6"	"128/77"	205	stress_12bis	"POPTR_0009s01320.1"	426	"	"T/C"	"66,8/33,2"	"141/70"	211
controllo_3	"POPTR_0009s01320.1"	426	"	"T/C"	"62,4/37,6"	"128/77"	205	stress_42	"POPTR_0009s01320.1"	426	"	"T/C"	"62,4/37,6"	"111/67"	178
controllo_3	"POPTR_0009s01320.1"	426	"	"T/C"	"62,4/37,6"	"128/77"	205	stress_45	"POPTR_0009s01320.1"	426	"	"T/C"	"61,8/38,2"	"157/97"	254
controllo_3	"POPTR_0011s05670.1"	324	"	"C/T"	"62,4/37,6"	"108/65"	173	stress_12bis	"POPTR_0011s05670.1"	324	"	"C/T"	"67,7/32,3"	"44/21"	65
controllo_3	"POPTR_0011s05670.1"	324	"	"C/T"	"62,4/37,6"	"108/65"	173	stress_45	"POPTR_0011s05670.1"	324	"	"C/T"	"69,4/30,6"	"25/11"	36
controllo_3	"POPTR_0001s32950.1"	124	"	"T/A"	"62,4/37,6"	"68/41"	109	stress_12bis	"POPTR_0001s32950.1"	124	"	"T/A"	"55,9/44,1"	"19/15"	34
controllo_3	"POPTR_0001s32950.1"	124	"	"T/A"	"62,4/37,6"	"68/41"	109	stress_42	"POPTR_0001s32950.1"	124	"	"T/A"	"69,1/29,1"	"38/16"	55
controllo_3	"POPTR_0001s32950.1"	124	"	"T/A"	"62,4/37,6"	"68/41"	109	stress_45	"POPTR_0001s32950.1"	124	"	"A/T"	"50,4/49,6"	"60/59"	119
controllo_3	"POPTR_0001s14280.1"	768	"	"A/G"	"62,4/37,6"	"58/35"	93	stress_42	"POPTR_0001s14280.1"	768	"	"A/G"	"51,5/48,5"	"84/79"	163
controllo_3	"POPTR_0001s14280.1"	768	"	"A/G"	"62,4/37,6"	"58/35"	93	stress_45	"POPTR_0001s14280.1"	768	"	"A/G"	"55,1/44,9"	"97/79"	176
controllo_3	"POPTR_0007s02530.1"	45	"	"T/C"	"62,4/37,6"	"128/77"	205	stress_12bis	"POPTR_0007s02530.1"	45	"	"T/C"	"61,3/38,7"	"19/12"	31
controllo_3	"POPTR_0007s02530.1"	45	"	"T/C"	"62,4/37,6"	"128/77"	205	stress_42	"POPTR_0007s02530.1"	45	"	"T/C"	"62,1/37,9"	"18/11"	29
controllo_3	"POPTR_0007s02530.1"	45	"	"T/C"	"62,4/37,6"	"128/77"	205	stress_45	"POPTR_0007s02530.1"	45	"	"C/T"	"70,0/30,0"	"28/12"	40
controllo_3	"POPTR_0007s02460.1"	351	"	"A/G"	"62,4/37,6"	"68/41"	109	stress_12bis	"POPTR_0007s02460.1"	351	"	"A/G"	"62,9/37,1"	"22/13"	35
controllo_3	"POPTR_0007s02460.1"	351	"	"A/G"	"62,4/37,6"	"68/41"	109	stress_42	"POPTR_0007s02460.1"	351	"	"G/A"	"52,9/47,1"	"18/16"	34
controllo_3	"POPTR_0007s02460.1"	351	"	"A/G"	"62,4/37,6"	"68/41"	109	stress_45	"POPTR_0007s02460.1"	351	"	"G/A"	"54,8/45,2"	"23/19"	42
controllo_3	"POPTR_0002s10870.1"	1566	"	"C/T"	"62,4/37,6"	"136/82"	218	stress_12bis	"POPTR_0002s10870.1"	1566	"	"C/T"	"63,3/36,7"	"31/18"	49
controllo_3	"POPTR_0002s10870.1"	1566	"	"C/T"	"62,4/37,6"	"136/82"	218	stress_42	"POPTR_0002s10870.1"	1566	"	"T/C"	"61,1/38,9"	"22/14"	36
controllo_3	"POPTR_0002s10870.1"	1566	"	"C/T"	"62,4/37,6"	"136/82"	218	stress_45	"POPTR_0002s10870.1"	1566	"	"C/T"	"51,2/48,8"	"21/20"	41
controllo_3	"POPTR_0008s12890.1"	1425	"	"A/C"	"62,4/37,6"	"63/38"	101	stress_12bis	"POPTR_0008s12890.1"	1425	"	"A/C"	"64,7/35,3"	"11/6"	17
controllo_3	"POPTR_0016s06540.1"	362	"	"T/A"	"62,4/37,6"	"88/53"	141	stress_12bis	"POPTR_0016s06540.1"	362	"	"T/A"	"57,1/42,9"	"8/6"	14
controllo_3	"POPTR_0014s00250.1"	198	"	"G/A"	"62,5/36,7"	"75/44"	120	stress_12bis	"POPTR_0014s00250.1"	198	"	"G/A"	"69,4/30,6"	"25/11"	36
controllo_3	"POPTR_0014s00250.1"	198	"	"G/A"	"62,5/36,7"	"75/44"	120	stress_45	"POPTR_0014s00250.1"	198	"	"G/A"	"58,3/41,7"	"7/5"	12
controllo_3	"POPTR_0019s10280.1"	510	"	"C/T"	"62,5/37,0"	"135/80"	216	stress_12bis	"POPTR_0019s10280.1"	510	"	"C/T"	"55,3/44,7"	"47/38"	85
controllo_3	"POPTR_0019s10280.1"	510	"	"C/T"	"62,5/37,0"	"135/80"	216	stress_42	"POPTR_0019s10280.1"	510	"	"C/T"	"65,0/35,0"	"13/7"	20
controllo_3	"POPTR_0019s10280.1"	510	"	"C/T"	"62,5/37,0"	"135/80"	216	stress_45	"POPTR_0019s10280.1"	510	"	"C/T"	"67,9/32,1"	"19/9"	28
controllo_3	"POPTR_0008s06580.1"	241	"	"A/C"	"62,5/37,3"	"510/304"	816	stress_12bis	"POPTR_0008s06580.1"	241	"	"C/A"	"61,4/38,6"	"62/39"	101
controllo_3	"POPTR_0008s06580.1"	241	"	"A/C"	"62,5/37,3"	"510/304"	816	stress_42	"POPTR_0008s06580.1"	241	"	"A/C"	"58,5/40,9"	"283/198"	484
controllo_3	"POPTR_0008s06580.1"	241	"	"A/C"	"62,5/37,3"	"510/304"	816	stress_45	"POPTR_0008s06580.1"	241	"	"A/C"	"54,0/46,0"	"354/302"	656
controllo_3	"POPTR_0005s26220.1"	429	"	"T/A"	"62,5/37,5"	"35/21"	56	stress_42	"POPTR_0005s26220.1"	429	"	"T/A"	"61,4/38,6"	"108/68"	176
controllo_3	"POPTR_0005s23590.1"	602	"	"A/C"	"62,5/37,5"	"10/6"	16	stress_42	"POPTR_0005s23590.1"	602	"	"C/A"	"61,9/38,1"	"70/43"	113
controllo_3	"POPTR_0017s07800.1"	321	"	"T/A"	"62,5/37,5"	"85/51"	136	stress_12bis	"POPTR_0017s07800.1"	321	"	"A/T"	"63,4/36,6"	"26/15"	41
controllo_3	"POPTR_0006s05160.1"	546	"	"T/C"	"62,5/37,5"	"125/75"	200	stress_12bis	"POPTR_0006s05160.1"	546	"	"T/C"	"54,8/45,2"	"34/28"	62
controllo_3	"POPTR_0006s05160.1"	546	"	"T/C"	"62,5/37,5"	"125/75"	200	stress_42	"POPTR_0006s05160.1"	546	"	"T/C"	"54,5/45,5"	"6/5"	11
controllo_3	"POPTR_0006s05160.1"	546	"	"T/C"	"62,5/37,5"	"125/75"	200	stress_45	"POPTR_0006s05160.1"	546	"	"C/T"	"57,8/42,2"	"26/19"	45
controllo_3	"POPTR_0014s13560.1"	1092	"	"T/C"	"62,5/37,5"	"263/158"	421	stress_12bis	"POPTR_0014s13560.1"	1092	"	"T/C"	"66,3/33,7"	"114/58"	172
controllo_3	"POPTR_0014s13560.1"	1092	"	"T/C"	"62,5/37,5"	"263/158"	421	stress_42	"POPTR_0014s13560.1"	1092	"	"T/C"	"70,5/29,5"	"55/23"	78
controllo_3	"POPTR_0014s13560.1"	1092	"	"T/C"	"62,5/37,5"	"263/158"	421	stress_45	"POPTR_0014s13560.1"	1092	"	"T/C"	"62,1/37,9"	"64/39"	103
controllo_3	"POPTR_0009s01320.1"	1113	"	"C/T"	"62,5/37,5"	"135/81"	216	stress_12bis	"POPTR_0009s01320.1"	1113	"	"C/T"	"69,0/31,0"	"140/63"	203
controllo_3	"POPTR_0009s01320.1"	1113	"	"C/T"	"62,5/37,5"	"135/81"	216	stress_42	"POPTR_0009s01320.1"	1113	"	"C/T"	"63,8/36,2"	"134/76"	210
controllo_3	"POPTR_0009s01320.1"	1113	"	"C/T"	"62,5/37,5"	"135/81"	216	stress_45	"POPTR_0009s01320.1"	1113	"	"C/T"	"62,4/37,2"	"156/93"	250
controllo_3	"POPTR_0009s05790.1"	262	"	"A/G"	"62,5/37,5"	"75/45"	120	stress_12bis	"POPTR_0009s05790.1"	262	"	"A/G"	"66,7/33,3"	"18/9"	27
controllo_3	"POPTR_0011s03570.1"	396	"	"C/T"	"62,5/37,5"	"15/9"	24	stress_42	"POPTR_0011s03570.1"	396	"	"C/T"	"68,8/31,2"	"174/79"	253
controllo_3	"POPTR_0011s03570.1"	396	"	"C/T"	"62,5/37,5"	"15/9"	24	stress_45	"POPTR_0011s03570.1"	396	"	"C/T"	"66,4/33,6"	"101/51"	152
controllo_3	"POPTR_0001s31220.1"	609	"	"A/G"	"62,5/37,5"	"45/27"	72	stress_42	"POPTR_0001s31220.1"	609	"	"A/G"	"58,8/41,2"	"70/49"	119
controllo_3	"POPTR_0001s07870.1"	819	"	"C/T"	"62,5/37,5"	"75/45"	120	stress_12bis	"POPTR_0001s07870.1"	819	"	"C/T"	"65,2/34,8"	"15/8"	23
controllo_3	"POPTR_0001s07870.1"	819	"	"C/T"	"62,5/37,5"	"75/45"	120	stress_45	"POPTR_0001s07870.1"	819	"	"C/T"	"66,7/33,3"	"16/8"	24
controllo_3	"POPTR_0010s11780.1"	783	"	"C/T"	"62,5/37,5"	"65/39"	104	stress_12bis	"POPTR_0010s11780.1"	783	"	"C/T"	"65,2/34,8"	"15/8"	23
controllo_3	"POPTR_0010s11780.1"	783	"	"C/T"	"62,5/37,5"	"65/39"	104	stress_42	"POPTR_0010s11780.1"	783	"	"C/T"	"54,1/45,9"	"33/28"	61
controllo_3	"POPTR_0010s11780.1"	783	"	"C/T"	"62,5/37,5"	"65/39"	104	stress_45	"POPTR_0010s11780.1"	783	"	"C/T"	"60,0/40,0"	"54/36"	90
controllo_3	"POPTR_0002s22560.1"	113	"	"G/A"	"62,5/37,5"	"437/262"	699	stress_12bis	"POPTR_0002s22560.1"	113	"	"G/A"	"58,6/41,4"	"157/111"	268
controllo_3	"POPTR_0002s22560.1"	113	"	"G/A"	"62,5/37,5"	"437/262"	699	stress_42	"POPTR_0002s22560.1"	113	"	"G/A"	"74,1/25,9"	"40/14"	54
controllo_3	"POPTR_0002s22560.1"	113	"	"G/A"	"62,5/37,5"	"437/262"	699	stress_45	"POPTR_0002s22560.1"	113	"	"G/A"	"53,1/46,9"	"52/46"	98
controllo_3	"POPTR_0008s20950.1"	421	"	"A/G"	"62,5/37,5"	"85/51"	136	stress_12bis	"POPTR_0008s20950.1"	421	"	"A/G"	"66,7/33,3"	"26/13"	39
controllo_3	"POPTR_0008s20950.1"	421	"	"A/G"	"62,5/37,5"	"85/51"	136	stress_42	"POPTR_0008s20950.1"	421	"	"A/G"	"80,0/20,0"	"12/3"	15
controllo_3	"POPTR_0008s20950.1"	421	"	"A/G"	"62,5/37,5"	"85/51"	136	stress_45	"POPTR_0008s20950.1"	421	"	"G/A"	"58,1/41,9"	"18/13"	31
controllo_3	"POPTR_0013s15560.1"	558	"	"C/A"	"62,6/36,4"	"67/39"	107	stress_12bis	"POPTR_0013s15560.1"	558	"	"C/A"	"50,9/49,1"	"27/26"	53
controllo_3	"POPTR_0013s15560.1"	558	"	"C/A"	"62,6/36,4"	"67/39"	107	stress_42	"POPTR_0013s15560.1"	558	"	"C/A"	"53,3/46,7"	"81/71"	152
controllo_3	"POPTR_0013s15560.1"	558	"	"C/A"	"62,6/36,4"	"67/39"	107	stress_45	"POPTR_0013s15560.1"	558	"	"C/A"	"55,7/44,3"	"112/89"	201
controllo_3	"POPTR_0008s15760.1"	369	"	"C/G"	"62,6/37,2"	"337/200"	538	stress_12bis	"POPTR_0008s15760.1"	369	"	"C/G"	"74,7/25,0"	"218/73"	292
controllo_3	"POPTR_0008s15760.1"	369	"	"C/G"	"62,6/37,2"	"337/200"	538	stress_42	"POPTR_0008s15760.1"	369	"	"G/C"	"51,5/48,5"	"86/81"	167
controllo_3	"POPTR_0008s15760.1"	369	"	"C/G"	"62,6/37,2"	"337/200"	538	stress_45	"POPTR_0008s15760.1"	369	"	"C/G"	"64,9/35,1"	"137/74"	211
controllo_3	"POPTR_0005s11860.1"	532	"	"A/G"	"62,6/37,4"	"72/43"	115	stress_12bis	"POPTR_0005s11860.1"	532	"	"A/G"	"64,3/35,7"	"27/15"	42
controllo_3	"POPTR_0005s11860.1"	532	"	"A/G"	"62,6/37,4"	"72/43"	115	stress_42	"POPTR_0005s11860.1"	532	"	"G/A"	"73,3/26,7"	"11/4"	15
controllo_3	"POPTR_0005s11860.1"	532	"	"A/G"	"62,6/37,4"	"72/43"	115	stress_45	"POPTR_0005s11860.1"	532	"	"G/A"	"61,9/38,1"	"13/8"	21
controllo_3	"POPTR_0005s26930.1"	438	"	"C/T"	"62,6/37,4"	"218/130"	348	stress_12bis	"POPTR_0005s26930.1"	438	"	"T/C"	"51,2/48,8"	"41/39"	80
controllo_3	"POPTR_0005s26930.1"	438	"	"C/T"	"62,6/37,4"	"218/130"	348	stress_42	"POPTR_0005s26930.1"	438	"	"T/C"	"57,9/42,1"	"22/16"	38
controllo_3	"POPTR_0005s26930.1"	438	"	"C/T"	"62,6/37,4"	"218/130"	348	stress_45	"POPTR_0005s26930.1"	438	"	"T/C"	"64,5/35,5"	"20/11"	31
controllo_3	"POPTR_0004s01950.1"	471	"	"G/A"	"62,6/37,4"	"201/120"	321	stress_12bis	"POPTR_0004s01950.1"	471	"	"G/A"	"61,5/38,5"	"8/5"	13
controllo_3	"POPTR_0001s36870.1"	2142	"	"A/G"	"62,6/37,4"	"67/40"	107	stress_12bis	"POPTR_0001s36870.1"	2142	"	"A/G"	"73,0/27,0"	"27/10"	37
controllo_3	"POPTR_0001s36870.1"	2142	"	"A/G"	"62,6/37,4"	"67/40"	107	stress_42	"POPTR_0001s36870.1"	2142	"	"A/G"	"53,7/46,3"	"22/19"	41
controllo_3	"POPTR_0001s36870.1"	2142	"	"A/G"	"62,6/37,4"	"67/40"	107	stress_45	"POPTR_0001s36870.1"	2142	"	"A/G"	"55,2/44,8"	"16/13"	29
controllo_3	"POPTR_0001s30460.1"	88	"	"C/T"	"62,6/37,4"	"82/49"	131	stress_12bis	"POPTR_0001s30460.1"	88	"	"C/T"	"62,8/37,2"	"27/16"	43
controllo_3	"POPTR_0001s30460.1"	88	"	"C/T"	"62,6/37,4"	"82/49"	131	stress_42	"POPTR_0001s30460.1"	88	"	"C/T"	"50,0/50,0"	"6/6"	12
controllo_3	"POPTR_0001s30460.1"	88	"	"C/T"	"62,6/37,4"	"82/49"	131	stress_45	"POPTR_0001s30460.1"	88	"	"C/T"	"50,0/50,0"	"14/14"	28
controllo_3	"POPTR_0001s21740.1"	194	"	"G/A"	"62,6/37,4"	"201/120"	321	stress_12bis	"POPTR_0001s21740.1"	194	"	"G/A"	"53,5/46,5"	"61/53"	114
controllo_3	"POPTR_0001s21740.1"	194	"	"G/A"	"62,6/37,4"	"201/120"	321	stress_42	"POPTR_0001s21740.1"	194	"	"A/G"	"50,0/50,0"	"19/19"	38
controllo_3	"POPTR_0001s21740.1"	194	"	"G/A"	"62,6/37,4"	"201/120"	321	stress_45	"POPTR_0001s21740.1"	194	"	"G/A"	"55,8/44,2"	"43/34"	77
controllo_3	"POPTR_0001s30840.1"	69	"	"A/T"	"62,6/37,4"	"92/55"	147	stress_12bis	"POPTR_0001s30840.1"	69	"	"A/T"	"66,1/33,9"	"41/21"	62
controllo_3	"POPTR_0001s30840.1"	69	"	"A/T"	"62,6/37,4"	"92/55"	147	stress_42	"POPTR_0001s30840.1"	69	"	"A/T"	"73,7/26,3"	"14/5"	19
controllo_3	"POPTR_0001s30840.1"	69	"	"A/T"	"62,6/37,4"	"92/55"	147	stress_45	"POPTR_0001s30840.1"	69	"	"A/T"	"57,7/42,3"	"15/11"	26
controllo_3	"POPTR_0002s08920.1"	258	"	"C/T"	"62,6/37,4"	"82/49"	131	stress_12bis	"POPTR_0002s08920.1"	258	"	"C/T"	"58,3/41,7"	"14/10"	24
controllo_3	"POPTR_0008s13780.1"	140	"	"G/A"	"62,6/37,4"	"129/77"	206	stress_12bis	"POPTR_0008s13780.1"	140	"	"A/G"	"65,5/34,5"	"19/10"	29
controllo_3	"POPTR_0008s13780.1"	140	"	"G/A"	"62,6/37,4"	"129/77"	206	stress_42	"POPTR_0008s13780.1"	140	"	"G/A"	"58,3/41,7"	"7/5"	12
controllo_3	"POPTR_0008s13780.1"	140	"	"G/A"	"62,6/37,4"	"129/77"	206	stress_45	"POPTR_0008s13780.1"	140	"	"G/A"	"58,8/41,2"	"10/7"	17
controllo_3	"POPTR_0008s13780.1"	783	"	"A/G"	"62,6/37,4"	"142/85"	227	stress_12bis	"POPTR_0008s13780.1"	783	"	"A/G"	"62,5/37,5"	"25/15"	40
controllo_3	"POPTR_0008s13780.1"	783	"	"A/G"	"62,6/37,4"	"142/85"	227	stress_42	"POPTR_0008s13780.1"	783	"	"A/G"	"50,0/50,0"	"10/10"	20
controllo_3	"POPTR_0008s13780.1"	783	"	"A/G"	"62,6/37,4"	"142/85"	227	stress_45	"POPTR_0008s13780.1"	783	"	"A/G"	"57,1/42,9"	"12/9"	21
controllo_3	"POPTR_0016s11670.1"	561	"	"C/T"	"62,6/37,4"	"87/52"	139	stress_12bis	"POPTR_0016s11670.1"	561	"	"C/T"	"69,4/30,6"	"34/15"	49
controllo_3	"POPTR_0016s11670.1"	561	"	"C/T"	"62,6/37,4"	"87/52"	139	stress_42	"POPTR_0016s11670.1"	561	"	"C/T"	"68,9/30,2"	"73/32"	106
controllo_3	"POPTR_0016s11670.1"	561	"	"C/T"	"62,6/37,4"	"87/52"	139	stress_45	"POPTR_0016s11670.1"	561	"	"C/T"	"58,8/41,2"	"47/33"	80
controllo_3	"POPTR_0005s11710.1"	133	"	"C/A"	"62,7/36,6"	"84/49"	134	stress_12bis	"POPTR_0005s11710.1"	133	"	"A/C"	"59,4/40,6"	"19/13"	32
controllo_3	"POPTR_0005s11710.1"	133	"	"C/A"	"62,7/36,6"	"84/49"	134	stress_42	"POPTR_0005s11710.1"	133	"	"C/A"	"81,2/18,8"	"26/6"	32
controllo_3	"POPTR_0005s11710.1"	133	"	"C/A"	"62,7/36,6"	"84/49"	134	stress_45	"POPTR_0005s11710.1"	133	"	"C/A"	"77,4/22,6"	"24/7"	31
controllo_3	"POPTR_0006s13310.1"	618	"	"A/C"	"62,7/36,6"	"252/147"	402	stress_12bis	"POPTR_0006s13310.1"	618	"	"A/C"	"74,6/25,4"	"258/88"	346
controllo_3	"POPTR_0006s13310.1"	618	"	"A/C"	"62,7/36,6"	"252/147"	402	stress_42	"POPTR_0006s13310.1"	618	"	"A/C"	"65,3/34,3"	"141/74"	216
controllo_3	"POPTR_0006s13310.1"	618	"	"A/C"	"62,7/36,6"	"252/147"	402	stress_45	"POPTR_0006s13310.1"	618	"	"A/C"	"63,5/36,2"	"230/131"	362
controllo_3	"POPTR_0018s08790.1"	113	"	"T/C"	"62,7/37,3"	"74/44"	118	stress_12bis	"POPTR_0018s08790.1"	113	"	"T/C"	"71,4/28,6"	"25/10"	35
controllo_3	"POPTR_0018s08790.1"	113	"	"T/C"	"62,7/37,3"	"74/44"	118	stress_42	"POPTR_0018s08790.1"	113	"	"T/C"	"60,0/40,0"	"12/8"	20
controllo_3	"POPTR_0018s08790.1"	113	"	"T/C"	"62,7/37,3"	"74/44"	118	stress_45	"POPTR_0018s08790.1"	113	"	"T/C"	"68,8/31,2"	"22/10"	32
controllo_3	"POPTR_0003s08180.1"	346	"	"G/C"	"62,7/37,3"	"89/53"	142	stress_12bis	"POPTR_0003s08180.1"	346	"	"G/C"	"73,0/27,0"	"27/10"	37
controllo_3	"POPTR_0003s08180.1"	346	"	"G/C"	"62,7/37,3"	"89/53"	142	stress_42	"POPTR_0003s08180.1"	346	"	"C/G"	"70,6/29,4"	"12/5"	17
controllo_3	"POPTR_0003s08180.1"	346	"	"G/C"	"62,7/37,3"	"89/53"	142	stress_45	"POPTR_0003s08180.1"	346	"	"G/C"	"63,0/37,0"	"17/10"	27
controllo_3	"POPTR_0013s12130.1"	204	"	"A/G"	"62,7/37,3"	"69/41"	110	stress_12bis	"POPTR_0013s12130.1"	204	"	"A/G"	"66,7/33,3"	"14/7"	21
controllo_3	"POPTR_0013s12130.1"	204	"	"A/G"	"62,7/37,3"	"69/41"	110	stress_45	"POPTR_0013s12130.1"	204	"	"A/G"	"75,0/25,0"	"9/3"	12
controllo_3	"POPTR_0009s13460.1"	207	"	"C/A"	"62,7/37,3"	"74/44"	118	stress_12bis	"POPTR_0009s13460.1"	207	"	"C/A"	"61,3/38,7"	"19/12"	31
controllo_3	"POPTR_0009s13460.1"	207	"	"C/A"	"62,7/37,3"	"74/44"	118	stress_42	"POPTR_0009s13460.1"	207	"	"C/A"	"71,1/28,9"	"27/11"	38
controllo_3	"POPTR_0009s13460.1"	207	"	"C/A"	"62,7/37,3"	"74/44"	118	stress_45	"POPTR_0009s13460.1"	207	"	"C/A"	"53,8/46,2"	"49/42"	91
controllo_3	"POPTR_0015s09990.1"	78	"	"A/C"	"62,7/37,3"	"79/47"	126	stress_12bis	"POPTR_0015s09990.1"	78	"	"A/C"	"69,2/30,8"	"27/12"	39
controllo_3	"POPTR_0001s21340.1"	1762	"	"C/G"	"62,7/37,3"	"79/47"	126	stress_12bis	"POPTR_0001s21340.1"	1762	"	"C/G"	"54,3/45,7"	"25/21"	46
controllo_3	"POPTR_0001s21340.1"	1762	"	"C/G"	"62,7/37,3"	"79/47"	126	stress_42	"POPTR_0001s21340.1"	1762	"	"C/G"	"50,0/50,0"	"14/14"	28
controllo_3	"POPTR_0001s21340.1"	1762	"	"C/G"	"62,7/37,3"	"79/47"	126	stress_45	"POPTR_0001s21340.1"	1762	"	"C/G"	"55,6/44,4"	"10/8"	18
controllo_3	"POPTR_0010s21280.1"	312	"	"G/A"	"62,7/37,3"	"158/94"	252	stress_12bis	"POPTR_0010s21280.1"	312	"	"G/A"	"69,1/30,9"	"56/25"	81
controllo_3	"POPTR_0010s21280.1"	312	"	"G/A"	"62,7/37,3"	"158/94"	252	stress_42	"POPTR_0010s21280.1"	312	"	"G/A"	"68,6/31,4"	"24/11"	35
controllo_3	"POPTR_0010s21280.1"	312	"	"G/A"	"62,7/37,3"	"158/94"	252	stress_45	"POPTR_0010s21280.1"	312	"	"G/A"	"68,1/31,9"	"47/22"	69
controllo_3	"POPTR_0016s03630.1"	3372	"	"G/A"	"62,7/37,3"	"143/85"	228	stress_12bis	"POPTR_0016s03630.1"	3372	"	"G/A"	"52,4/47,6"	"22/20"	42
controllo_3	"POPTR_0016s03630.1"	3372	"	"G/A"	"62,7/37,3"	"143/85"	228	stress_45	"POPTR_0016s03630.1"	3372	"	"G/A"	"80,0/20,0"	"8/2"	10
controllo_3	"POPTR_0016s06670.1"	123	"	"G/T"	"62,7/37,3"	"64/38"	102	stress_12bis	"POPTR_0016s06670.1"	123	"	"G/T"	"62,2/37,8"	"28/17"	45
controllo_3	"POPTR_0016s06670.1"	123	"	"G/T"	"62,7/37,3"	"64/38"	102	stress_42	"POPTR_0016s06670.1"	123	"	"G/T"	"50,0/50,0"	"7/7"	14
controllo_3	"POPTR_0016s06670.1"	123	"	"G/T"	"62,7/37,3"	"64/38"	102	stress_45	"POPTR_0016s06670.1"	123	"	"G/T"	"83,3/16,7"	"15/3"	18
controllo_3	"POPTR_0003s20870.1"	1302	"	"T/C"	"62,8/36,7"	"113/66"	180	stress_12bis	"POPTR_0003s20870.1"	1302	"	"T/C"	"51,4/45,9"	"19/17"	37
controllo_3	"POPTR_0003s20870.1"	1302	"	"T/C"	"62,8/36,7"	"113/66"	180	stress_42	"POPTR_0003s20870.1"	1302	"	"T/C"	"69,2/30,8"	"9/4"	13
controllo_3	"POPTR_0003s20870.1"	1302	"	"T/C"	"62,8/36,7"	"113/66"	180	stress_45	"POPTR_0003s20870.1"	1302	"	"T/C"	"59,1/40,9"	"26/18"	44
controllo_3	"POPTR_0014s09800.1"	435	"	"C/T"	"62,8/36,7"	"113/66"	180	stress_12bis	"POPTR_0014s09800.1"	435	"	"C/T"	"60,3/39,7"	"38/25"	63
controllo_3	"POPTR_0014s09800.1"	435	"	"C/T"	"62,8/36,7"	"113/66"	180	stress_42	"POPTR_0014s09800.1"	435	"	"C/T"	"50,0/50,0"	"5/5"	10
controllo_3	"POPTR_0005s23110.1"	1056	"	"G/A"	"62,8/37,2"	"204/121"	325	stress_12bis	"POPTR_0005s23110.1"	1056	"	"G/A"	"64,9/35,1"	"63/34"	97
controllo_3	"POPTR_0005s23110.1"	1056	"	"G/A"	"62,8/37,2"	"204/121"	325	stress_42	"POPTR_0005s23110.1"	1056	"	"G/A"	"81,8/18,2"	"27/6"	33
controllo_3	"POPTR_0005s23110.1"	1056	"	"G/A"	"62,8/37,2"	"204/121"	325	stress_45	"POPTR_0005s23110.1"	1056	"	"G/A"	"72,2/27,8"	"13/5"	18
controllo_3	"POPTR_0005s26170.1"	92	"	"G/A"	"62,8/37,2"	"174/103"	277	stress_12bis	"POPTR_0005s26170.1"	92	"	"G/A"	"65,4/34,6"	"51/27"	78
controllo_3	"POPTR_0005s26170.1"	92	"	"G/A"	"62,8/37,2"	"174/103"	277	stress_42	"POPTR_0005s26170.1"	92	"	"G/A"	"65,5/34,5"	"38/20"	58
controllo_3	"POPTR_0005s26170.1"	92	"	"G/A"	"62,8/37,2"	"174/103"	277	stress_45	"POPTR_0005s26170.1"	92	"	"G/A"	"71,2/28,8"	"52/21"	73
controllo_3	"POPTR_0017s06920.1"	339	"	"T/C"	"62,8/37,2"	"631/373"	1004	stress_12bis	"POPTR_0017s06920.1"	339	"	"T/C"	"55,9/44,1"	"161/127"	288
controllo_3	"POPTR_0017s06920.1"	339	"	"T/C"	"62,8/37,2"	"631/373"	1004	stress_42	"POPTR_0017s06920.1"	339	"	"T/C"	"66,7/33,3"	"8/4"	12
controllo_3	"POPTR_0018s02960.1"	214	"	"A/G"	"62,8/37,2"	"71/42"	113	stress_45	"POPTR_0018s02960.1"	214	"	"A/G"	"83,3/16,7"	"10/2"	12
controllo_3	"POPTR_0014s06370.1"	288	"	"C/T"	"62,8/37,2"	"118/70"	188	stress_12bis	"POPTR_0014s06370.1"	288	"	"C/T"	"54,7/45,3"	"29/24"	53
controllo_3	"POPTR_0014s06370.1"	288	"	"C/T"	"62,8/37,2"	"118/70"	188	stress_42	"POPTR_0014s06370.1"	288	"	"C/T"	"51,9/48,1"	"14/13"	27
controllo_3	"POPTR_0014s06370.1"	288	"	"C/T"	"62,8/37,2"	"118/70"	188	stress_45	"POPTR_0014s06370.1"	288	"	"C/T"	"52,5/47,5"	"31/28"	59
controllo_3	"POPTR_0001s10650.1"	394	"	"C/T"	"62,8/37,2"	"71/42"	113	stress_12bis	"POPTR_0001s10650.1"	394	"	"C/T"	"50,0/50,0"	"30/30"	60
controllo_3	"POPTR_0001s10650.1"	394	"	"C/T"	"62,8/37,2"	"71/42"	113	stress_42	"POPTR_0001s10650.1"	394	"	"T/C"	"72,4/27,6"	"21/8"	29
controllo_3	"POPTR_0001s10650.1"	394	"	"C/T"	"62,8/37,2"	"71/42"	113	stress_45	"POPTR_0001s10650.1"	394	"	"T/C"	"63,0/37,0"	"17/10"	27
controllo_3	"POPTR_0001s45350.1"	278	"	"T/G"	"62,8/37,2"	"235/139"	374	stress_12bis	"POPTR_0001s45350.1"	278	"	"T/G"	"56,2/43,8"	"9/7"	16
controllo_3	"POPTR_0001s34690.1"	91	"	"G/A"	"62,8/37,2"	"159/94"	253	stress_12bis	"POPTR_0001s34690.1"	91	"	"G/A"	"65,6/34,4"	"40/21"	61
controllo_3	"POPTR_0001s34690.1"	91	"	"G/A"	"62,8/37,2"	"159/94"	253	stress_42	"POPTR_0001s34690.1"	91	"	"G/A"	"58,3/41,7"	"7/5"	12
controllo_3	"POPTR_0001s34690.1"	91	"	"G/A"	"62,8/37,2"	"159/94"	253	stress_45	"POPTR_0001s34690.1"	91	"	"A/G"	"60,0/40,0"	"6/4"	10
controllo_3	"POPTR_0007s14960.1"	1945	"	"C/G"	"62,8/37,2"	"76/45"	121	stress_12bis	"POPTR_0007s14960.1"	1945	"	"C/G"	"76,7/23,3"	"23/7"	30
controllo_3	"POPTR_0007s14960.1"	1945	"	"C/G"	"62,8/37,2"	"76/45"	121	stress_42	"POPTR_0007s14960.1"	1945	"	"C/G"	"68,0/32,0"	"34/16"	50
controllo_3	"POPTR_0007s14960.1"	1945	"	"C/G"	"62,8/37,2"	"76/45"	121	stress_45	"POPTR_0007s14960.1"	1945	"	"C/G"	"73,4/26,6"	"47/17"	64
controllo_3	"POPTR_0008s19370.1"	866	"	"A/C"	"62,8/37,2"	"1031/611"	1643	stress_12bis	"POPTR_0008s19370.1"	866	"	"A/C"	"63,8/36,2"	"593/337"	930
controllo_3	"POPTR_0008s19370.1"	866	"	"A/C"	"62,8/37,2"	"1031/611"	1643	stress_42	"POPTR_0008s19370.1"	866	"	"A/C"	"73,3/26,7"	"55/20"	75
controllo_3	"POPTR_0008s19370.1"	866	"	"A/C"	"62,8/37,2"	"1031/611"	1643	stress_45	"POPTR_0008s19370.1"	866	"	"A/C"	"69,4/30,6"	"34/15"	49
controllo_3	"POPTR_0016s12370.1"	828	"	"T/C"	"62,8/37,2"	"597/353"	950	stress_12bis	"POPTR_0016s12370.1"	828	"	"T/C"	"63,6/36,4"	"140/80"	220
controllo_3	"POPTR_0016s12370.1"	828	"	"T/C"	"62,8/37,2"	"597/353"	950	stress_42	"POPTR_0016s12370.1"	828	"	"T/C"	"82,1/17,9"	"110/24"	134
controllo_3	"POPTR_0016s12370.1"	828	"	"T/C"	"62,8/37,2"	"597/353"	950	stress_45	"POPTR_0016s12370.1"	828	"	"T/C"	"69,7/30,3"	"101/44"	145
controllo_3	"POPTR_0012s06320.1"	2241	"	"T/C"	"62,9/36,2"	"66/38"	105	stress_12bis	"POPTR_0012s06320.1"	2241	"	"T/C"	"72,7/24,2"	"24/8"	33
controllo_3	"POPTR_0012s06320.1"	2241	"	"T/C"	"62,9/36,2"	"66/38"	105	stress_42	"POPTR_0012s06320.1"	2241	"	"T/C"	"66,7/33,3"	"20/10"	30
controllo_3	"POPTR_0012s06320.1"	2241	"	"T/C"	"62,9/36,2"	"66/38"	105	stress_45	"POPTR_0012s06320.1"	2241	"	"T/C"	"69,1/30,9"	"38/17"	55
controllo_3	"POPTR_0004s08500.1"	249	"	"C/T"	"62,9/37,0"	"658/387"	1046	stress_12bis	"POPTR_0004s08500.1"	249	"	"T/C"	"50,6/49,4"	"228/223"	451
controllo_3	"POPTR_0004s08500.1"	249	"	"C/T"	"62,9/37,0"	"658/387"	1046	stress_42	"POPTR_0004s08500.1"	249	"	"T/C"	"60,3/39,7"	"526/347"	873
controllo_3	"POPTR_0004s08500.1"	249	"	"C/T"	"62,9/37,0"	"658/387"	1046	stress_45	"POPTR_0004s08500.1"	249	"	"T/C"	"61,2/38,8"	"567/359"	926
controllo_3	"POPTR_0006s24570.1"	2700	"	"C/T"	"62,9/37,1"	"1300/766"	2066	stress_12bis	"POPTR_0006s24570.1"	2700	"	"C/T"	"59,5/40,5"	"382/260"	642
controllo_3	"POPTR_0006s24570.1"	2700	"	"C/T"	"62,9/37,1"	"1300/766"	2066	stress_42	"POPTR_0006s24570.1"	2700	"	"C/T"	"57,5/42,5"	"42/31"	73
controllo_3	"POPTR_0006s24570.1"	2700	"	"C/T"	"62,9/37,1"	"1300/766"	2066	stress_45	"POPTR_0006s24570.1"	2700	"	"C/T"	"65,8/34,2"	"48/25"	73
controllo_3	"POPTR_0006s08530.1"	310	"	"G/A"	"62,9/37,1"	"2929/1727"	4658	stress_12bis	"POPTR_0006s08530.1"	310	"	"G/A"	"62,5/37,4"	"1863/1114"	2982
controllo_3	"POPTR_0006s08530.1"	310	"	"G/A"	"62,9/37,1"	"2929/1727"	4658	stress_42	"POPTR_0006s08530.1"	310	"	"A/G"	"55,2/44,6"	"1711/1382"	3100
controllo_3	"POPTR_0006s08530.1"	310	"	"G/A"	"62,9/37,1"	"2929/1727"	4658	stress_45	"POPTR_0006s08530.1"	310	"	"G/A"	"50,6/49,3"	"1607/1567"	3176
controllo_3	"POPTR_0019s15250.1"	216	"	"C/T"	"62,9/37,1"	"95/56"	151	stress_12bis	"POPTR_0019s15250.1"	216	"	"C/T"	"64,6/35,4"	"42/23"	65
controllo_3	"POPTR_0019s15250.1"	216	"	"C/T"	"62,9/37,1"	"95/56"	151	stress_42	"POPTR_0019s15250.1"	216	"	"C/T"	"65,1/34,9"	"54/29"	83
controllo_3	"POPTR_0019s15250.1"	216	"	"C/T"	"62,9/37,1"	"95/56"	151	stress_45	"POPTR_0019s15250.1"	216	"	"C/T"	"63,4/36,6"	"64/37"	101
controllo_3	"POPTR_0013s03700.1"	750	"	"G/T"	"62,9/37,1"	"95/56"	151	stress_12bis	"POPTR_0013s03700.1"	750	"	"G/T"	"64,1/33,3"	"25/13"	39
controllo_3	"POPTR_0013s03700.1"	750	"	"G/T"	"62,9/37,1"	"95/56"	151	stress_42	"POPTR_0013s03700.1"	750	"	"T/G"	"60,0/40,0"	"6/4"	10
controllo_3	"POPTR_0013s03700.1"	750	"	"G/T"	"62,9/37,1"	"95/56"	151	stress_45	"POPTR_0013s03700.1"	750	"	"G/T"	"50,0/44,4"	"9/8"	18
controllo_3	"POPTR_0014s13560.1"	1407	"	"T/C"	"62,9/37,1"	"110/65"	175	stress_12bis	"POPTR_0014s13560.1"	1407	"	"T/C"	"58,0/42,0"	"29/21"	50
controllo_3	"POPTR_0014s13560.1"	1407	"	"T/C"	"62,9/37,1"	"110/65"	175	stress_42	"POPTR_0014s13560.1"	1407	"	"T/C"	"61,9/38,1"	"26/16"	42
controllo_3	"POPTR_0014s13560.1"	1407	"	"T/C"	"62,9/37,1"	"110/65"	175	stress_45	"POPTR_0014s13560.1"	1407	"	"T/C"	"72,9/27,1"	"35/13"	48
controllo_3	"POPTR_0004s01950.1"	193	"	"G/A"	"62,9/37,1"	"171/101"	272	stress_12bis	"POPTR_0004s01950.1"	193	"	"G/A"	"75,0/25,0"	"9/3"	12
controllo_3	"POPTR_0012s07270.1"	177	"	"A/G"	"62,9/37,1"	"183/108"	291	stress_12bis	"POPTR_0012s07270.1"	177	"	"G/A"	"57,7/42,3"	"45/33"	78
controllo_3	"POPTR_0012s07270.1"	177	"	"A/G"	"62,9/37,1"	"183/108"	291	stress_42	"POPTR_0012s07270.1"	177	"	"G/A"	"62,0/38,0"	"44/27"	71
controllo_3	"POPTR_0012s07270.1"	177	"	"A/G"	"62,9/37,1"	"183/108"	291	stress_45	"POPTR_0012s07270.1"	177	"	"A/G"	"63,3/35,6"	"57/32"	90
controllo_3	"POPTR_0015s07630.1"	102	"	"G/C"	"62,9/37,1"	"78/46"	124	stress_12bis	"POPTR_0015s07630.1"	102	"	"G/C"	"60,5/39,5"	"23/15"	38
controllo_3	"POPTR_0015s07630.1"	102	"	"G/C"	"62,9/37,1"	"78/46"	124	stress_42	"POPTR_0015s07630.1"	102	"	"G/C"	"58,6/41,4"	"17/12"	29
controllo_3	"POPTR_0015s07630.1"	102	"	"G/C"	"62,9/37,1"	"78/46"	124	stress_45	"POPTR_0015s07630.1"	102	"	"G/C"	"52,6/47,4"	"20/18"	38
controllo_3	"POPTR_0015s15500.1"	161	"	"C/A"	"62,9/37,1"	"66/39"	105	stress_42	"POPTR_0015s15500.1"	161	"	"C/A"	"74,5/25,5"	"35/12"	47
controllo_3	"POPTR_0015s15500.1"	161	"	"C/A"	"62,9/37,1"	"66/39"	105	stress_45	"POPTR_0015s15500.1"	161	"	"C/A"	"58,0/42,0"	"40/29"	69
controllo_3	"POPTR_0007s00300.1"	579	"	"T/C"	"62,9/37,1"	"78/46"	124	stress_12bis	"POPTR_0007s00300.1"	579	"	"T/C"	"54,0/46,0"	"27/23"	50
controllo_3	"POPTR_0007s00300.1"	579	"	"T/C"	"62,9/37,1"	"78/46"	124	stress_42	"POPTR_0007s00300.1"	579	"	"T/C"	"52,4/47,6"	"11/10"	21
controllo_3	"POPTR_0007s00300.1"	579	"	"T/C"	"62,9/37,1"	"78/46"	124	stress_45	"POPTR_0007s00300.1"	579	"	"C/T"	"50,0/50,0"	"17/17"	34
controllo_3	"POPTR_0002s24310.1"	587	"	"A/G"	"62,9/37,1"	"100/59"	159	stress_12bis	"POPTR_0002s24310.1"	587	"	"A/G"	"64,1/35,9"	"25/14"	39
controllo_3	"POPTR_0002s24310.1"	587	"	"A/G"	"62,9/37,1"	"100/59"	159	stress_42	"POPTR_0002s24310.1"	587	"	"A/G"	"55,9/44,1"	"19/15"	34
controllo_3	"POPTR_0002s24310.1"	587	"	"A/G"	"62,9/37,1"	"100/59"	159	stress_45	"POPTR_0002s24310.1"	587	"	"A/G"	"80,8/19,2"	"21/5"	26
controllo_3	"POPTR_0013s07050.1"	863	"	"C/A"	"63,0/36,2"	"87/50"	138	stress_12bis	"POPTR_0013s07050.1"	863	"	"C/A"	"64,7/35,3"	"22/12"	34
controllo_3	"POPTR_0013s07050.1"	863	"	"C/A"	"63,0/36,2"	"87/50"	138	stress_42	"POPTR_0013s07050.1"	863	"	"C/A"	"78,2/21,8"	"43/12"	55
controllo_3	"POPTR_0013s07050.1"	863	"	"C/A"	"63,0/36,2"	"87/50"	138	stress_45	"POPTR_0013s07050.1"	863	"	"C/A"	"67,1/32,9"	"47/23"	70
controllo_3	"POPTR_0004s03160.1"	145	"	"G/A"	"63,0/36,8"	"358/209"	568	stress_12bis	"POPTR_0004s03160.1"	145	"	"A/G"	"50,7/49,3"	"73/71"	144
controllo_3	"POPTR_0004s03160.1"	145	"	"G/A"	"63,0/36,8"	"358/209"	568	stress_42	"POPTR_0004s03160.1"	145	"	"A/G"	"54,5/45,5"	"6/5"	11
controllo_3	"POPTR_0004s03160.1"	145	"	"G/A"	"63,0/36,8"	"358/209"	568	stress_45	"POPTR_0004s03160.1"	145	"	"A/G"	"63,6/36,4"	"7/4"	11
controllo_3	"POPTR_0005s25540.1"	412	"	"G/A"	"63,0/37,0"	"345/203"	548	stress_12bis	"POPTR_0005s25540.1"	412	"	"G/A"	"62,7/37,3"	"52/31"	83
controllo_3	"POPTR_0006s13240.1"	177	"	"C/A"	"63,0/37,0"	"131/77"	208	stress_12bis	"POPTR_0006s13240.1"	177	"	"C/A"	"64,7/35,3"	"75/41"	116
controllo_3	"POPTR_0006s13240.1"	177	"	"C/A"	"63,0/37,0"	"131/77"	208	stress_45	"POPTR_0006s13240.1"	177	"	"C/A"	"59,6/40,4"	"34/23"	57
controllo_3	"POPTR_0003s08360.1"	618	"	"C/T"	"63,0/37,0"	"68/40"	108	stress_12bis	"POPTR_0003s08360.1"	618	"	"T/C"	"81,2/18,8"	"13/3"	16
controllo_3	"POPTR_0003s09870.1"	798	"	"A/C"	"63,0/37,0"	"68/40"	108	stress_12bis	"POPTR_0003s09870.1"	798	"	"A/C"	"53,8/46,2"	"7/6"	13
controllo_3	"POPTR_0003s09870.1"	798	"	"A/C"	"63,0/37,0"	"68/40"	108	stress_45	"POPTR_0003s09870.1"	798	"	"A/C"	"60,0/40,0"	"6/4"	10
controllo_3	"POPTR_0014s13560.1"	321	"	"G/C"	"63,0/37,0"	"179/105"	284	stress_12bis	"POPTR_0014s13560.1"	321	"	"G/C"	"65,7/34,3"	"67/35"	102
controllo_3	"POPTR_0014s13560.1"	321	"	"G/C"	"63,0/37,0"	"179/105"	284	stress_42	"POPTR_0014s13560.1"	321	"	"G/C"	"80,9/19,1"	"38/9"	47
controllo_3	"POPTR_0014s13560.1"	321	"	"G/C"	"63,0/37,0"	"179/105"	284	stress_45	"POPTR_0014s13560.1"	321	"	"C/G"	"50,7/49,3"	"34/33"	67
controllo_3	"POPTR_0014s08150.1"	630	"	"G/A"	"63,0/37,0"	"85/50"	135	stress_12bis	"POPTR_0014s08150.1"	630	"	"A/G"	"52,3/47,7"	"23/21"	44
controllo_3	"POPTR_0014s08150.1"	630	"	"G/A"	"63,0/37,0"	"85/50"	135	stress_42	"POPTR_0014s08150.1"	630	"	"G/A"	"70,0/30,0"	"7/3"	10
controllo_3	"POPTR_0004s10660.1"	350	"	"C/G"	"63,0/37,0"	"273/160"	433	stress_12bis	"POPTR_0004s10660.1"	350	"	"C/G"	"53,2/46,8"	"50/44"	94
controllo_3	"POPTR_0004s10660.1"	350	"	"C/G"	"63,0/37,0"	"273/160"	433	stress_42	"POPTR_0004s10660.1"	350	"	"G/C"	"63,0/37,0"	"87/51"	138
controllo_3	"POPTR_0004s10660.1"	350	"	"C/G"	"63,0/37,0"	"273/160"	433	stress_45	"POPTR_0004s10660.1"	350	"	"G/C"	"57,8/42,2"	"100/73"	173
controllo_3	"POPTR_0004s10660.1"	363	"	"C/T"	"63,0/37,0"	"303/178"	481	stress_12bis	"POPTR_0004s10660.1"	363	"	"C/T"	"63,6/36,4"	"75/43"	118
controllo_3	"POPTR_0004s10660.1"	363	"	"C/T"	"63,0/37,0"	"303/178"	481	stress_42	"POPTR_0004s10660.1"	363	"	"T/C"	"56,0/44,0"	"94/74"	168
controllo_3	"POPTR_0004s10660.1"	363	"	"C/T"	"63,0/37,0"	"303/178"	481	stress_45	"POPTR_0004s10660.1"	363	"	"T/C"	"53,8/46,2"	"100/86"	186
controllo_3	"POPTR_0004s10660.1"	459	"	"G/T"	"63,0/37,0"	"311/183"	494	stress_12bis	"POPTR_0004s10660.1"	459	"	"T/G"	"50,4/49,6"	"60/59"	119
controllo_3	"POPTR_0004s10660.1"	459	"	"G/T"	"63,0/37,0"	"311/183"	494	stress_42	"POPTR_0004s10660.1"	459	"	"T/G"	"58,5/41,5"	"79/56"	135
controllo_3	"POPTR_0004s10660.1"	459	"	"G/T"	"63,0/37,0"	"311/183"	494	stress_45	"POPTR_0004s10660.1"	459	"	"T/G"	"57,1/42,9"	"101/76"	177
controllo_3	"POPTR_0012s08330.1"	342	"	"G/A"	"63,0/37,0"	"226/133"	359	stress_12bis	"POPTR_0012s08330.1"	342	"	"A/G"	"55,1/44,9"	"70/57"	127
controllo_3	"POPTR_0012s08330.1"	342	"	"G/A"	"63,0/37,0"	"226/133"	359	stress_42	"POPTR_0012s08330.1"	342	"	"G/A"	"64,5/34,6"	"69/37"	107
controllo_3	"POPTR_0012s08330.1"	342	"	"G/A"	"63,0/37,0"	"226/133"	359	stress_45	"POPTR_0012s08330.1"	342	"	"G/A"	"54,4/45,6"	"62/52"	114
controllo_3	"POPTR_0012s08330.1"	461	"	"C/T"	"63,0/37,0"	"150/88"	238	stress_12bis	"POPTR_0012s08330.1"	461	"	"C/T"	"53,8/46,2"	"49/42"	91
controllo_3	"POPTR_0012s08330.1"	461	"	"C/T"	"63,0/37,0"	"150/88"	238	stress_42	"POPTR_0012s08330.1"	461	"	"C/T"	"58,1/41,9"	"25/18"	43
controllo_3	"POPTR_0012s08330.1"	461	"	"C/T"	"63,0/37,0"	"150/88"	238	stress_45	"POPTR_0012s08330.1"	461	"	"C/T"	"63,3/36,7"	"38/22"	60
controllo_3	"POPTR_0011s07530.1"	323	"	"T/A"	"63,0/37,0"	"97/57"	154	stress_12bis	"POPTR_0011s07530.1"	323	"	"T/A"	"58,5/41,5"	"24/17"	41
controllo_3	"POPTR_0011s07530.1"	323	"	"T/A"	"63,0/37,0"	"97/57"	154	stress_42	"POPTR_0011s07530.1"	323	"	"T/A"	"78,9/15,8"	"15/3"	19
controllo_3	"POPTR_0011s07530.1"	323	"	"T/A"	"63,0/37,0"	"97/57"	154	stress_45	"POPTR_0011s07530.1"	323	"	"T/A"	"72,7/27,3"	"8/3"	11
controllo_3	"POPTR_0010s21280.1"	564	"	"C/T"	"63,0/37,0"	"277/163"	440	stress_12bis	"POPTR_0010s21280.1"	564	"	"C/T"	"56,6/43,4"	"90/69"	159
controllo_3	"POPTR_0010s21280.1"	564	"	"C/T"	"63,0/37,0"	"277/163"	440	stress_42	"POPTR_0010s21280.1"	564	"	"C/T"	"57,4/42,6"	"31/23"	54
controllo_3	"POPTR_0010s21280.1"	564	"	"C/T"	"63,0/37,0"	"277/163"	440	stress_45	"POPTR_0010s21280.1"	564	"	"C/T"	"52,8/46,5"	"67/59"	127
controllo_3	"POPTR_0007s14960.1"	1854	"	"C/T"	"63,0/37,0"	"68/40"	108	stress_12bis	"POPTR_0007s14960.1"	1854	"	"C/T"	"69,2/30,8"	"18/8"	26
controllo_3	"POPTR_0007s14960.1"	1854	"	"C/T"	"63,0/37,0"	"68/40"	108	stress_42	"POPTR_0007s14960.1"	1854	"	"C/T"	"79,3/20,7"	"23/6"	29
controllo_3	"POPTR_0007s14960.1"	1854	"	"C/T"	"63,0/37,0"	"68/40"	108	stress_45	"POPTR_0007s14960.1"	1854	"	"C/T"	"80,0/20,0"	"32/8"	40
controllo_3	"POPTR_0002s15840.1"	239	"	"A/T"	"63,0/37,0"	"92/54"	146	stress_12bis	"POPTR_0002s15840.1"	239	"	"A/T"	"76,8/23,2"	"53/16"	69
controllo_3	"POPTR_0002s15840.1"	239	"	"A/T"	"63,0/37,0"	"92/54"	146	stress_42	"POPTR_0002s15840.1"	239	"	"A/T"	"78,6/21,4"	"11/3"	14
controllo_3	"POPTR_0005s06460.1"	177	"	"A/T"	"63,1/36,9"	"94/55"	149	stress_12bis	"POPTR_0005s06460.1"	177	"	"T/A"	"51,9/48,1"	"14/13"	27
controllo_3	"POPTR_0005s06460.1"	177	"	"A/T"	"63,1/36,9"	"94/55"	149	stress_42	"POPTR_0005s06460.1"	177	"	"A/T"	"76,9/23,1"	"20/6"	26
controllo_3	"POPTR_0005s06460.1"	177	"	"A/T"	"63,1/36,9"	"94/55"	149	stress_45	"POPTR_0005s06460.1"	177	"	"A/T"	"76,7/23,3"	"23/7"	30
controllo_3	"POPTR_0005s26170.1"	481	"	"C/A"	"63,1/36,9"	"212/124"	336	stress_12bis	"POPTR_0005s26170.1"	481	"	"C/A"	"75,7/24,3"	"78/25"	103
controllo_3	"POPTR_0005s26170.1"	481	"	"C/A"	"63,1/36,9"	"212/124"	336	stress_42	"POPTR_0005s26170.1"	481	"	"C/A"	"77,1/22,9"	"91/27"	118
controllo_3	"POPTR_0005s26170.1"	481	"	"C/A"	"63,1/36,9"	"212/124"	336	stress_45	"POPTR_0005s26170.1"	481	"	"C/A"	"66,7/33,3"	"66/33"	99
controllo_3	"POPTR_0005s26610.1"	480	"	"G/C"	"63,1/36,9"	"70/41"	111	stress_12bis	"POPTR_0005s26610.1"	480	"	"G/C"	"56,5/43,5"	"35/27"	62
controllo_3	"POPTR_0005s26610.1"	480	"	"G/C"	"63,1/36,9"	"70/41"	111	stress_42	"POPTR_0005s26610.1"	480	"	"C/G"	"54,8/45,2"	"57/47"	104
controllo_3	"POPTR_0005s26610.1"	480	"	"G/C"	"63,1/36,9"	"70/41"	111	stress_45	"POPTR_0005s26610.1"	480	"	"C/G"	"50,5/49,5"	"53/52"	105
controllo_3	"POPTR_0017s05700.1"	589	"	"C/T"	"63,1/36,9"	"221/129"	350	stress_12bis	"POPTR_0017s05700.1"	589	"	"C/T"	"58,2/41,8"	"57/41"	98
controllo_3	"POPTR_0017s05700.1"	589	"	"C/T"	"63,1/36,9"	"221/129"	350	stress_42	"POPTR_0017s05700.1"	589	"	"C/T"	"57,1/42,9"	"36/27"	63
controllo_3	"POPTR_0017s05700.1"	589	"	"C/T"	"63,1/36,9"	"221/129"	350	stress_45	"POPTR_0017s05700.1"	589	"	"C/T"	"72,0/28,0"	"59/23"	82
controllo_3	"POPTR_0009s06530.1"	282	"	"T/A"	"63,1/36,9"	"70/41"	111	stress_12bis	"POPTR_0009s06530.1"	282	"	"T/A"	"57,6/42,4"	"19/14"	33
controllo_3	"POPTR_0009s06530.1"	282	"	"T/A"	"63,1/36,9"	"70/41"	111	stress_45	"POPTR_0009s06530.1"	282	"	"T/A"	"58,3/41,7"	"7/5"	12
controllo_3	"POPTR_0001s30840.1"	87	"	"A/C"	"63,1/36,9"	"130/76"	206	stress_12bis	"POPTR_0001s30840.1"	87	"	"A/C"	"53,9/46,1"	"41/35"	76
controllo_3	"POPTR_0001s30840.1"	87	"	"A/C"	"63,1/36,9"	"130/76"	206	stress_42	"POPTR_0001s30840.1"	87	"	"A/C"	"70,4/29,6"	"19/8"	27
controllo_3	"POPTR_0001s30840.1"	87	"	"A/C"	"63,1/36,9"	"130/76"	206	stress_45	"POPTR_0001s30840.1"	87	"	"A/C"	"53,6/46,4"	"15/13"	28
controllo_3	"POPTR_0001s12630.1"	423	"	"G/T"	"63,1/36,9"	"111/65"	176	stress_12bis	"POPTR_0001s12630.1"	423	"	"G/T"	"57,4/42,6"	"54/40"	94
controllo_3	"POPTR_0001s12630.1"	423	"	"G/T"	"63,1/36,9"	"111/65"	176	stress_42	"POPTR_0001s12630.1"	423	"	"G/T"	"59,7/40,3"	"80/54"	134
controllo_3	"POPTR_0001s12630.1"	423	"	"G/T"	"63,1/36,9"	"111/65"	176	stress_45	"POPTR_0001s12630.1"	423	"	"G/T"	"64,4/35,6"	"76/42"	118
controllo_3	"POPTR_0010s19720.1"	96	"	"T/A"	"63,1/36,9"	"65/38"	103	stress_12bis	"POPTR_0010s19720.1"	96	"	"T/A"	"70,8/29,2"	"17/7"	24
controllo_3	"POPTR_0010s07560.1"	990	"	"G/A"	"63,1/36,9"	"70/41"	111	stress_12bis	"POPTR_0010s07560.1"	990	"	"G/A"	"60,7/39,3"	"37/24"	61
controllo_3	"POPTR_0010s07560.1"	990	"	"G/A"	"63,1/36,9"	"70/41"	111	stress_42	"POPTR_0010s07560.1"	990	"	"G/A"	"58,1/41,9"	"18/13"	31
controllo_3	"POPTR_0010s07560.1"	990	"	"G/A"	"63,1/36,9"	"70/41"	111	stress_45	"POPTR_0010s07560.1"	990	"	"G/A"	"61,5/38,5"	"24/15"	39
controllo_3	"POPTR_0016s03630.1"	3726	"	"C/T"	"63,1/36,9"	"123/72"	195	stress_12bis	"POPTR_0016s03630.1"	3726	"	"C/T"	"59,5/40,5"	"22/15"	37
controllo_3	"POPTR_0005s25540.1"	446	"	"G/A"	"63,2/36,8"	"312/182"	494	stress_12bis	"POPTR_0005s25540.1"	446	"	"G/A"	"69,6/30,4"	"48/21"	69
controllo_3	"POPTR_0018s02890.1"	153	"	"C/T"	"63,2/36,8"	"67/39"	106	stress_12bis	"POPTR_0018s02890.1"	153	"	"T/C"	"52,2/47,8"	"12/11"	23
controllo_3	"POPTR_0018s02960.1"	862	"	"G/C"	"63,2/36,8"	"67/39"	106	stress_12bis	"POPTR_0018s02960.1"	862	"	"G/C"	"82,4/17,6"	"14/3"	17
controllo_3	"POPTR_0018s02960.1"	862	"	"G/C"	"63,2/36,8"	"67/39"	106	stress_42	"POPTR_0018s02960.1"	862	"	"G/C"	"58,3/41,7"	"7/5"	12
controllo_3	"POPTR_0018s02960.1"	862	"	"G/C"	"63,2/36,8"	"67/39"	106	stress_45	"POPTR_0018s02960.1"	862	"	"C/G"	"53,8/46,2"	"7/6"	13
controllo_3	"POPTR_0019s08450.1"	1032	"	"C/T"	"63,2/36,8"	"12/7"	19	stress_45	"POPTR_0019s08450.1"	1032	"	"C/T"	"78,1/21,9"	"89/25"	114
controllo_3	"POPTR_0013s01790.1"	840	"	"C/T"	"63,2/36,8"	"91/53"	144	stress_12bis	"POPTR_0013s01790.1"	840	"	"C/T"	"56,9/43,1"	"29/22"	51
controllo_3	"POPTR_0013s01790.1"	840	"	"C/T"	"63,2/36,8"	"91/53"	144	stress_42	"POPTR_0013s01790.1"	840	"	"C/T"	"65,2/34,8"	"15/8"	23
controllo_3	"POPTR_0013s01790.1"	840	"	"C/T"	"63,2/36,8"	"91/53"	144	stress_45	"POPTR_0013s01790.1"	840	"	"C/T"	"67,7/32,3"	"21/10"	31
controllo_3	"POPTR_0014s13560.1"	1989	"	"C/G"	"63,2/36,8"	"251/146"	397	stress_12bis	"POPTR_0014s13560.1"	1989	"	"C/G"	"59,7/40,3"	"74/50"	124
controllo_3	"POPTR_0014s13560.1"	1989	"	"C/G"	"63,2/36,8"	"251/146"	397	stress_42	"POPTR_0014s13560.1"	1989	"	"C/G"	"67,7/32,3"	"65/31"	96
controllo_3	"POPTR_0014s13560.1"	1989	"	"C/G"	"63,2/36,8"	"251/146"	397	stress_45	"POPTR_0014s13560.1"	1989	"	"C/G"	"70,2/29,8"	"73/31"	104
controllo_3	"POPTR_0004s07280.1"	1371	"	"G/T"	"63,2/36,8"	"91/53"	144	stress_12bis	"POPTR_0004s07280.1"	1371	"	"G/T"	"63,9/36,1"	"23/13"	36
controllo_3	"POPTR_0004s07280.1"	1371	"	"G/T"	"63,2/36,8"	"91/53"	144	stress_42	"POPTR_0004s07280.1"	1371	"	"G/T"	"55,0/45,0"	"33/27"	60
controllo_3	"POPTR_0004s07280.1"	1371	"	"G/T"	"63,2/36,8"	"91/53"	144	stress_45	"POPTR_0004s07280.1"	1371	"	"G/T"	"72,3/27,7"	"34/13"	47
controllo_3	"POPTR_0009s01320.1"	550	"	"T/C"	"63,2/36,8"	"110/64"	174	stress_12bis	"POPTR_0009s01320.1"	550	"	"T/C"	"70,4/29,6"	"143/60"	203
controllo_3	"POPTR_0009s01320.1"	550	"	"T/C"	"63,2/36,8"	"110/64"	174	stress_42	"POPTR_0009s01320.1"	550	"	"T/C"	"61,9/37,5"	"104/63"	168
controllo_3	"POPTR_0009s01320.1"	550	"	"T/C"	"63,2/36,8"	"110/64"	174	stress_45	"POPTR_0009s01320.1"	550	"	"T/C"	"63,2/36,8"	"129/75"	204
controllo_3	"POPTR_0012s04560.1"	609	"	"C/A"	"63,2/36,8"	"115/67"	182	stress_12bis	"POPTR_0012s04560.1"	609	"	"C/A"	"61,4/38,6"	"27/17"	44
controllo_3	"POPTR_0012s04560.1"	609	"	"C/A"	"63,2/36,8"	"115/67"	182	stress_42	"POPTR_0012s04560.1"	609	"	"C/A"	"58,3/41,7"	"14/10"	24
controllo_3	"POPTR_0012s04560.1"	609	"	"C/A"	"63,2/36,8"	"115/67"	182	stress_45	"POPTR_0012s04560.1"	609	"	"C/A"	"58,3/41,7"	"14/10"	24
controllo_3	"POPTR_0011s09370.1"	4126	"	"C/T"	"63,2/36,8"	"67/39"	106	stress_12bis	"POPTR_0011s09370.1"	4126	"	"C/T"	"71,4/28,6"	"20/8"	28
controllo_3	"POPTR_0011s09370.1"	4126	"	"C/T"	"63,2/36,8"	"67/39"	106	stress_42	"POPTR_0011s09370.1"	4126	"	"C/T"	"60,0/40,0"	"9/6"	15
controllo_3	"POPTR_0011s09370.1"	4126	"	"C/T"	"63,2/36,8"	"67/39"	106	stress_45	"POPTR_0011s09370.1"	4126	"	"C/T"	"60,0/40,0"	"15/10"	25
controllo_3	"POPTR_0001s32950.1"	138	"	"T/G"	"63,2/36,8"	"67/39"	106	stress_12bis	"POPTR_0001s32950.1"	138	"	"G/T"	"51,4/48,6"	"18/17"	35
controllo_3	"POPTR_0001s32950.1"	138	"	"T/G"	"63,2/36,8"	"67/39"	106	stress_42	"POPTR_0001s32950.1"	138	"	"T/G"	"56,9/43,1"	"41/31"	72
controllo_3	"POPTR_0001s32950.1"	138	"	"T/G"	"63,2/36,8"	"67/39"	106	stress_45	"POPTR_0001s32950.1"	138	"	"T/G"	"51,5/48,5"	"68/64"	132
controllo_3	"POPTR_0001s15140.1"	138	"	"C/A"	"63,2/36,8"	"72/42"	114	stress_12bis	"POPTR_0001s15140.1"	138	"	"A/C"	"50,0/50,0"	"10/10"	20
controllo_3	"POPTR_0001s15140.1"	138	"	"C/A"	"63,2/36,8"	"72/42"	114	stress_42	"POPTR_0001s15140.1"	138	"	"C/A"	"78,6/21,4"	"11/3"	14
controllo_3	"POPTR_0001s15140.1"	138	"	"C/A"	"63,2/36,8"	"72/42"	114	stress_45	"POPTR_0001s15140.1"	138	"	"C/A"	"73,7/26,3"	"14/5"	19
controllo_3	"POPTR_0007s14280.1"	1321	"	"C/A"	"63,2/36,8"	"79/46"	125	stress_12bis	"POPTR_0007s14280.1"	1321	"	"C/A"	"51,9/48,1"	"14/13"	27
controllo_3	"POPTR_0007s14280.1"	1321	"	"C/A"	"63,2/36,8"	"79/46"	125	stress_42	"POPTR_0007s14280.1"	1321	"	"A/C"	"55,9/44,1"	"19/15"	34
controllo_3	"POPTR_0007s14280.1"	1321	"	"C/A"	"63,2/36,8"	"79/46"	125	stress_45	"POPTR_0007s14280.1"	1321	"	"C/A"	"53,1/46,9"	"26/23"	49
controllo_3	"POPTR_0002s05910.1"	253	"	"C/T"	"63,2/36,8"	"110/64"	174	stress_12bis	"POPTR_0002s05910.1"	253	"	"C/T"	"56,9/43,1"	"29/22"	51
controllo_3	"POPTR_0002s05910.1"	253	"	"C/T"	"63,2/36,8"	"110/64"	174	stress_42	"POPTR_0002s05910.1"	253	"	"T/C"	"58,8/41,2"	"10/7"	17
controllo_3	"POPTR_0002s05910.1"	253	"	"C/T"	"63,2/36,8"	"110/64"	174	stress_45	"POPTR_0002s05910.1"	253	"	"C/T"	"69,2/30,8"	"9/4"	13
controllo_3	"POPTR_0016s12370.1"	838	"	"T/C"	"63,2/36,8"	"640/372"	1012	stress_12bis	"POPTR_0016s12370.1"	838	"	"T/C"	"62,3/37,7"	"147/89"	236
controllo_3	"POPTR_0016s12370.1"	838	"	"T/C"	"63,2/36,8"	"640/372"	1012	stress_42	"POPTR_0016s12370.1"	838	"	"T/C"	"83,8/16,2"	"119/23"	142
controllo_3	"POPTR_0016s12370.1"	838	"	"T/C"	"63,2/36,8"	"640/372"	1012	stress_45	"POPTR_0016s12370.1"	838	"	"T/C"	"68,9/31,1"	"104/47"	151
controllo_3	"POPTR_0017s01760.1"	24	"	"C/T"	"63,3/36,7"	"69/40"	109	stress_12bis	"POPTR_0017s01760.1"	24	"	"C/T"	"52,4/47,6"	"11/10"	21
controllo_3	"POPTR_0017s01760.1"	24	"	"C/T"	"63,3/36,7"	"69/40"	109	stress_42	"POPTR_0017s01760.1"	24	"	"C/T"	"52,0/48,0"	"13/12"	25
controllo_3	"POPTR_0017s01760.1"	24	"	"C/T"	"63,3/36,7"	"69/40"	109	stress_45	"POPTR_0017s01760.1"	24	"	"T/C"	"52,3/47,7"	"23/21"	44
controllo_3	"POPTR_0006s05160.1"	241	"	"A/T"	"63,3/36,7"	"138/80"	218	stress_12bis	"POPTR_0006s05160.1"	241	"	"A/T"	"62,9/37,1"	"56/33"	89
controllo_3	"POPTR_0006s05160.1"	241	"	"A/T"	"63,3/36,7"	"138/80"	218	stress_42	"POPTR_0006s05160.1"	241	"	"A/T"	"72,2/27,8"	"13/5"	18
controllo_3	"POPTR_0006s05160.1"	241	"	"A/T"	"63,3/36,7"	"138/80"	218	stress_45	"POPTR_0006s05160.1"	241	"	"A/T"	"66,7/33,3"	"32/16"	48
controllo_3	"POPTR_0003s12870.1"	276	"	"C/T"	"63,3/36,7"	"195/113"	308	stress_12bis	"POPTR_0003s12870.1"	276	"	"C/T"	"60,0/40,0"	"42/28"	70
controllo_3	"POPTR_0003s12870.1"	276	"	"C/T"	"63,3/36,7"	"195/113"	308	stress_42	"POPTR_0003s12870.1"	276	"	"C/T"	"60,5/39,5"	"23/15"	38
controllo_3	"POPTR_0003s12870.1"	276	"	"C/T"	"63,3/36,7"	"195/113"	308	stress_45	"POPTR_0003s12870.1"	276	"	"T/C"	"56,2/42,2"	"36/27"	64
controllo_3	"POPTR_0014s17100.1"	181	"	"C/G"	"63,3/36,7"	"112/65"	177	stress_12bis	"POPTR_0014s17100.1"	181	"	"G/C"	"51,4/48,6"	"18/17"	35
controllo_3	"POPTR_0014s17100.1"	181	"	"C/G"	"63,3/36,7"	"112/65"	177	stress_45	"POPTR_0014s17100.1"	181	"	"C/G"	"69,2/30,8"	"9/4"	13
controllo_3	"POPTR_0007s09630.1"	597	"	"A/T"	"63,3/36,7"	"267/155"	422	stress_12bis	"POPTR_0007s09630.1"	597	"	"A/T"	"56,5/43,5"	"65/50"	115
controllo_3	"POPTR_0007s09630.1"	597	"	"A/T"	"63,3/36,7"	"267/155"	422	stress_42	"POPTR_0007s09630.1"	597	"	"A/T"	"68,8/31,2"	"11/5"	16
controllo_3	"POPTR_0007s09630.1"	597	"	"A/T"	"63,3/36,7"	"267/155"	422	stress_45	"POPTR_0007s09630.1"	597	"	"A/T"	"63,0/37,0"	"17/10"	27
controllo_3	"POPTR_0008s12890.1"	1411	"	"A/T"	"63,3/36,7"	"95/55"	150	stress_12bis	"POPTR_0008s12890.1"	1411	"	"A/T"	"73,9/26,1"	"17/6"	23
controllo_3	"POPTR_0008s17390.1"	1298	"	"T/G"	"63,3/36,7"	"76/44"	120	stress_12bis	"POPTR_0008s17390.1"	1298	"	"G/T"	"60,0/40,0"	"9/6"	15
controllo_3	"POPTR_0016s09330.1"	144	"	"C/T"	"63,3/36,7"	"76/44"	120	stress_12bis	"POPTR_0016s09330.1"	144	"	"C/T"	"53,3/46,7"	"8/7"	15
controllo_3	"POPTR_0016s09330.1"	144	"	"C/T"	"63,3/36,7"	"76/44"	120	stress_42	"POPTR_0016s09330.1"	144	"	"C/T"	"76,0/24,0"	"19/6"	25
controllo_3	"POPTR_0016s09330.1"	144	"	"C/T"	"63,3/36,7"	"76/44"	120	stress_45	"POPTR_0016s09330.1"	144	"	"C/T"	"65,0/35,0"	"13/7"	20
controllo_3	"POPTR_0016s06540.1"	624	"	"G/C"	"63,3/36,7"	"107/62"	169	stress_12bis	"POPTR_0016s06540.1"	624	"	"C/G"	"65,4/34,6"	"17/9"	26
controllo_3	"POPTR_0009s06640.1"	693	"	"T/A"	"63,4/35,6"	"64/36"	101	stress_12bis	"POPTR_0009s06640.1"	693	"	"T/A"	"59,3/40,7"	"16/11"	27
controllo_3	"POPTR_0009s06640.1"	693	"	"T/A"	"63,4/35,6"	"64/36"	101	stress_42	"POPTR_0009s06640.1"	693	"	"T/A"	"53,2/46,8"	"25/22"	47
controllo_3	"POPTR_0009s06640.1"	693	"	"T/A"	"63,4/35,6"	"64/36"	101	stress_45	"POPTR_0009s06640.1"	693	"	"A/T"	"56,9/43,1"	"33/25"	58
controllo_3	"POPTR_0014s00810.1"	34	"	"T/A"	"63,4/36,2"	"163/93"	257	stress_12bis	"POPTR_0014s00810.1"	34	"	"T/A"	"63,9/36,1"	"99/56"	155
controllo_3	"POPTR_0014s00810.1"	34	"	"T/A"	"63,4/36,2"	"163/93"	257	stress_42	"POPTR_0014s00810.1"	34	"	"T/A"	"84,7/15,3"	"171/31"	202
controllo_3	"POPTR_0014s00810.1"	34	"	"T/A"	"63,4/36,2"	"163/93"	257	stress_45	"POPTR_0014s00810.1"	34	"	"T/A"	"81,5/18,5"	"101/23"	124
controllo_3	"POPTR_0017s06920.1"	1311	"	"A/C"	"63,4/36,6"	"619/357"	976	stress_12bis	"POPTR_0017s06920.1"	1311	"	"A/C"	"62,7/37,3"	"197/117"	314
controllo_3	"POPTR_0017s06920.1"	1311	"	"A/C"	"63,4/36,6"	"619/357"	976	stress_42	"POPTR_0017s06920.1"	1311	"	"A/C"	"75,0/25,0"	"9/3"	12
controllo_3	"POPTR_0017s06920.1"	1311	"	"A/C"	"63,4/36,6"	"619/357"	976	stress_45	"POPTR_0017s06920.1"	1311	"	"A/C"	"72,7/27,3"	"8/3"	11
controllo_3	"POPTR_0017s06920.1"	1731	"	"C/A"	"63,4/36,6"	"741/428"	1169	stress_12bis	"POPTR_0017s06920.1"	1731	"	"C/A"	"62,7/37,3"	"212/126"	338
controllo_3	"POPTR_0017s06920.1"	1731	"	"C/A"	"63,4/36,6"	"741/428"	1169	stress_42	"POPTR_0017s06920.1"	1731	"	"C/A"	"72,2/27,8"	"13/5"	18
controllo_3	"POPTR_0017s06920.1"	1731	"	"C/A"	"63,4/36,6"	"741/428"	1169	stress_45	"POPTR_0017s06920.1"	1731	"	"C/A"	"81,2/18,8"	"13/3"	16
controllo_3	"POPTR_0018s08790.1"	1405	"	"C/A"	"63,4/36,6"	"85/49"	134	stress_12bis	"POPTR_0018s08790.1"	1405	"	"C/A"	"53,7/46,3"	"22/19"	41
controllo_3	"POPTR_0018s08790.1"	1405	"	"C/A"	"63,4/36,6"	"85/49"	134	stress_42	"POPTR_0018s08790.1"	1405	"	"A/C"	"58,1/41,9"	"25/18"	43
controllo_3	"POPTR_0018s08790.1"	1405	"	"C/A"	"63,4/36,6"	"85/49"	134	stress_45	"POPTR_0018s08790.1"	1405	"	"A/C"	"52,8/47,2"	"28/25"	53
controllo_3	"POPTR_0014s16990.1"	1503	"	"C/T"	"63,4/36,6"	"111/64"	175	stress_12bis	"POPTR_0014s16990.1"	1503	"	"C/T"	"63,5/36,5"	"33/19"	52
controllo_3	"POPTR_0014s16990.1"	1503	"	"C/T"	"63,4/36,6"	"111/64"	175	stress_45	"POPTR_0014s16990.1"	1503	"	"C/T"	"50,0/50,0"	"6/6"	12
controllo_3	"POPTR_0014s01240.1"	412	"	"A/G"	"63,4/36,6"	"64/37"	101	stress_12bis	"POPTR_0014s01240.1"	412	"	"A/G"	"58,1/41,9"	"25/18"	43
controllo_3	"POPTR_0014s01240.1"	412	"	"A/G"	"63,4/36,6"	"64/37"	101	stress_42	"POPTR_0014s01240.1"	412	"	"A/G"	"50,0/50,0"	"10/10"	20
controllo_3	"POPTR_0014s01240.1"	412	"	"A/G"	"63,4/36,6"	"64/37"	101	stress_45	"POPTR_0014s01240.1"	412	"	"A/G"	"61,3/38,7"	"19/12"	31
controllo_3	"POPTR_0004s09150.1"	864	"	"A/G"	"63,4/36,6"	"83/48"	131	stress_12bis	"POPTR_0004s09150.1"	864	"	"A/G"	"73,7/26,3"	"14/5"	19
controllo_3	"POPTR_0001s30840.1"	82	"	"C/A"	"63,4/36,6"	"109/63"	172	stress_12bis	"POPTR_0001s30840.1"	82	"	"C/A"	"60,3/39,7"	"38/25"	63
controllo_3	"POPTR_0001s30840.1"	82	"	"C/A"	"63,4/36,6"	"109/63"	172	stress_42	"POPTR_0001s30840.1"	82	"	"C/A"	"71,4/28,6"	"15/6"	21
controllo_3	"POPTR_0001s30840.1"	82	"	"C/A"	"63,4/36,6"	"109/63"	172	stress_45	"POPTR_0001s30840.1"	82	"	"A/C"	"50,0/50,0"	"13/13"	26
controllo_3	"POPTR_0001s35220.1"	858	"	"A/G"	"63,4/36,6"	"64/37"	101	stress_12bis	"POPTR_0001s35220.1"	858	"	"A/G"	"69,2/30,8"	"18/8"	26
controllo_3	"POPTR_0001s35220.1"	1230	"	"C/A"	"63,4/36,6"	"71/41"	112	stress_12bis	"POPTR_0001s35220.1"	1230	"	"A/C"	"50,0/50,0"	"16/16"	32
controllo_3	"POPTR_0001s35220.1"	1230	"	"C/A"	"63,4/36,6"	"71/41"	112	stress_42	"POPTR_0001s35220.1"	1230	"	"C/A"	"66,7/33,3"	"8/4"	12
controllo_3	"POPTR_0010s14080.1"	2175	"	"C/T"	"63,4/36,6"	"123/71"	194	stress_12bis	"POPTR_0010s14080.1"	2175	"	"C/T"	"64,1/35,9"	"59/33"	92
controllo_3	"POPTR_0010s14080.1"	2175	"	"C/T"	"63,4/36,6"	"123/71"	194	stress_42	"POPTR_0010s14080.1"	2175	"	"C/T"	"82,1/17,9"	"23/5"	28
controllo_3	"POPTR_0010s14080.1"	2175	"	"C/T"	"63,4/36,6"	"123/71"	194	stress_45	"POPTR_0010s14080.1"	2175	"	"C/T"	"68,2/31,8"	"30/14"	44
controllo_3	"POPTR_0010s20060.1"	966	"	"A/G"	"63,4/36,6"	"180/104"	284	stress_12bis	"POPTR_0010s20060.1"	966	"	"A/G"	"64,9/35,1"	"61/33"	94
controllo_3	"POPTR_0010s20060.1"	966	"	"A/G"	"63,4/36,6"	"180/104"	284	stress_42	"POPTR_0010s20060.1"	966	"	"A/G"	"62,5/37,5"	"15/9"	24
controllo_3	"POPTR_0010s20060.1"	966	"	"A/G"	"63,4/36,6"	"180/104"	284	stress_45	"POPTR_0010s20060.1"	966	"	"A/G"	"58,6/41,4"	"17/12"	29
controllo_3	"POPTR_0002s18510.1"	644	"	"C/T"	"63,4/36,6"	"71/41"	112	stress_12bis	"POPTR_0002s18510.1"	644	"	"C/T"	"55,6/44,4"	"35/28"	63
controllo_3	"POPTR_0002s18510.1"	644	"	"C/T"	"63,4/36,6"	"71/41"	112	stress_42	"POPTR_0002s18510.1"	644	"	"C/T"	"62,8/37,2"	"27/16"	43
controllo_3	"POPTR_0002s18510.1"	644	"	"C/T"	"63,4/36,6"	"71/41"	112	stress_45	"POPTR_0002s18510.1"	644	"	"C/T"	"57,4/42,6"	"27/20"	47
controllo_3	"POPTR_0002s08010.1"	322	"	"G/A"	"63,4/36,6"	"116/67"	183	stress_12bis	"POPTR_0002s08010.1"	322	"	"G/A"	"59,0/41,0"	"23/16"	39
controllo_3	"POPTR_0002s08010.1"	322	"	"G/A"	"63,4/36,6"	"116/67"	183	stress_42	"POPTR_0002s08010.1"	322	"	"G/A"	"54,5/45,5"	"6/5"	11
controllo_3	"POPTR_0002s08010.1"	322	"	"G/A"	"63,4/36,6"	"116/67"	183	stress_45	"POPTR_0002s08010.1"	322	"	"G/A"	"73,3/26,7"	"11/4"	15
controllo_3	"POPTR_0016s07220.1"	441	"	"A/G"	"63,4/36,6"	"109/63"	172	stress_12bis	"POPTR_0016s07220.1"	441	"	"A/G"	"56,5/43,5"	"26/20"	46
controllo_3	"POPTR_0016s07220.1"	441	"	"A/G"	"63,4/36,6"	"109/63"	172	stress_42	"POPTR_0016s07220.1"	441	"	"A/G"	"50,0/50,0"	"11/11"	22
controllo_3	"POPTR_0016s07220.1"	441	"	"A/G"	"63,4/36,6"	"109/63"	172	stress_45	"POPTR_0016s07220.1"	441	"	"A/G"	"68,0/32,0"	"17/8"	25
controllo_3	"POPTR_0002s05840.1"	627	"	"T/G"	"63,5/36,1"	"158/90"	249	stress_12bis	"POPTR_0002s05840.1"	627	"	"T/G"	"64,3/35,7"	"54/30"	84
controllo_3	"POPTR_0002s05840.1"	627	"	"T/G"	"63,5/36,1"	"158/90"	249	stress_42	"POPTR_0002s05840.1"	627	"	"T/G"	"59,8/40,2"	"98/66"	164
controllo_3	"POPTR_0002s05840.1"	627	"	"T/G"	"63,5/36,1"	"158/90"	249	stress_45	"POPTR_0002s05840.1"	627	"	"T/G"	"65,4/34,6"	"117/62"	179
controllo_3	"POPTR_0006s24520.1"	183	"	"C/T"	"63,5/36,5"	"101/58"	159	stress_12bis	"POPTR_0006s24520.1"	183	"	"C/T"	"75,0/25,0"	"21/7"	28
controllo_3	"POPTR_0019s12320.1"	1422	"	"G/A"	"63,5/36,5"	"99/57"	156	stress_12bis	"POPTR_0019s12320.1"	1422	"	"G/A"	"80,6/19,4"	"58/14"	72
controllo_3	"POPTR_0014s15960.1"	777	"	"A/G"	"63,5/36,5"	"33/19"	52	stress_42	"POPTR_0014s15960.1"	777	"	"G/A"	"58,8/41,2"	"137/96"	233
controllo_3	"POPTR_0014s15960.1"	777	"	"A/G"	"63,5/36,5"	"33/19"	52	stress_45	"POPTR_0014s15960.1"	777	"	"G/A"	"60,7/39,3"	"128/83"	211
controllo_3	"POPTR_0012s04560.1"	66	"	"G/A"	"63,5/36,5"	"66/38"	104	stress_12bis	"POPTR_0012s04560.1"	66	"	"G/A"	"63,2/36,8"	"12/7"	19
controllo_3	"POPTR_0012s04560.1"	66	"	"G/A"	"63,5/36,5"	"66/38"	104	stress_45	"POPTR_0012s04560.1"	66	"	"G/A"	"78,9/21,1"	"15/4"	19
controllo_3	"POPTR_0002s21340.1"	189	"	"T/C"	"63,5/36,5"	"80/46"	126	stress_12bis	"POPTR_0002s21340.1"	189	"	"T/C"	"62,0/38,0"	"31/19"	50
controllo_3	"POPTR_0002s21340.1"	189	"	"T/C"	"63,5/36,5"	"80/46"	126	stress_42	"POPTR_0002s21340.1"	189	"	"T/C"	"62,5/37,5"	"25/15"	40
controllo_3	"POPTR_0002s21340.1"	189	"	"T/C"	"63,5/36,5"	"80/46"	126	stress_45	"POPTR_0002s21340.1"	189	"	"T/C"	"65,2/34,8"	"43/23"	66
controllo_3	"POPTR_0005s26170.1"	174	"	"C/G"	"63,6/36,4"	"241/138"	379	stress_12bis	"POPTR_0005s26170.1"	174	"	"C/G"	"69,3/30,7"	"79/35"	114
controllo_3	"POPTR_0005s26170.1"	174	"	"C/G"	"63,6/36,4"	"241/138"	379	stress_42	"POPTR_0005s26170.1"	174	"	"C/G"	"73,2/26,8"	"82/30"	112
controllo_3	"POPTR_0005s26170.1"	174	"	"C/G"	"63,6/36,4"	"241/138"	379	stress_45	"POPTR_0005s26170.1"	174	"	"C/G"	"76,4/23,6"	"97/30"	127
controllo_3	"POPTR_0005s22830.1"	24	"	"G/A"	"63,6/36,4"	"75/43"	118	stress_12bis	"POPTR_0005s22830.1"	24	"	"G/A"	"56,5/43,5"	"26/20"	46
controllo_3	"POPTR_0005s22830.1"	24	"	"G/A"	"63,6/36,4"	"75/43"	118	stress_42	"POPTR_0005s22830.1"	24	"	"G/A"	"56,0/44,0"	"14/11"	25
controllo_3	"POPTR_0005s22830.1"	24	"	"G/A"	"63,6/36,4"	"75/43"	118	stress_45	"POPTR_0005s22830.1"	24	"	"G/A"	"63,3/36,7"	"19/11"	30
controllo_3	"POPTR_0017s14470.1"	1092	"	"G/A"	"63,6/36,4"	"28/16"	44	stress_42	"POPTR_0017s14470.1"	1092	"	"G/A"	"78,5/21,5"	"84/23"	107
controllo_3	"POPTR_0017s14470.1"	1092	"	"G/A"	"63,6/36,4"	"28/16"	44	stress_45	"POPTR_0017s14470.1"	1092	"	"G/A"	"74,0/26,0"	"97/34"	131
controllo_3	"POPTR_0006s27170.1"	476	"	"A/C"	"63,6/36,4"	"928/530"	1458	stress_12bis	"POPTR_0006s27170.1"	476	"	"A/C"	"69,9/30,1"	"328/141"	469
controllo_3	"POPTR_0006s27170.1"	476	"	"A/C"	"63,6/36,4"	"928/530"	1458	stress_42	"POPTR_0006s27170.1"	476	"	"A/C"	"81,2/18,8"	"52/12"	64
controllo_3	"POPTR_0006s27170.1"	476	"	"A/C"	"63,6/36,4"	"928/530"	1458	stress_45	"POPTR_0006s27170.1"	476	"	"A/C"	"76,1/23,9"	"67/21"	88
controllo_3	"POPTR_0018s02960.1"	1192	"	"A/G"	"63,6/36,4"	"75/43"	118	stress_42	"POPTR_0018s02960.1"	1192	"	"G/A"	"54,5/45,5"	"6/5"	11
controllo_3	"POPTR_0018s02960.1"	1192	"	"A/G"	"63,6/36,4"	"75/43"	118	stress_45	"POPTR_0018s02960.1"	1192	"	"A/G"	"53,3/46,7"	"8/7"	15
controllo_3	"POPTR_0003s08140.1"	639	"	"G/A"	"63,6/36,4"	"7/4"	11	stress_42	"POPTR_0003s08140.1"	639	"	"G/A"	"59,9/40,1"	"179/120"	299
controllo_3	"POPTR_0003s08140.1"	639	"	"G/A"	"63,6/36,4"	"7/4"	11	stress_45	"POPTR_0003s08140.1"	639	"	"G/A"	"61,5/38,5"	"227/142"	369
controllo_3	"POPTR_0003s10660.1"	66	"	"T/C"	"63,6/36,4"	"68/39"	107	stress_12bis	"POPTR_0003s10660.1"	66	"	"T/C"	"53,3/46,7"	"8/7"	15
controllo_3	"POPTR_0003s12870.1"	600	"	"C/T"	"63,6/36,4"	"150/86"	236	stress_12bis	"POPTR_0003s12870.1"	600	"	"T/C"	"58,3/41,7"	"35/25"	60
controllo_3	"POPTR_0003s12870.1"	600	"	"C/T"	"63,6/36,4"	"150/86"	236	stress_42	"POPTR_0003s12870.1"	600	"	"C/T"	"74,6/25,4"	"47/16"	63
controllo_3	"POPTR_0003s12870.1"	600	"	"C/T"	"63,6/36,4"	"150/86"	236	stress_45	"POPTR_0003s12870.1"	600	"	"C/T"	"60,4/39,6"	"32/21"	53
controllo_3	"POPTR_0004s14960.1"	2680	"	"C/A"	"63,6/36,4"	"70/40"	110	stress_12bis	"POPTR_0004s14960.1"	2680	"	"A/C"	"55,0/45,0"	"22/18"	40
controllo_3	"POPTR_0004s14960.1"	2680	"	"C/A"	"63,6/36,4"	"70/40"	110	stress_42	"POPTR_0004s14960.1"	2680	"	"C/A"	"65,0/35,0"	"13/7"	20
controllo_3	"POPTR_0004s14960.1"	2680	"	"C/A"	"63,6/36,4"	"70/40"	110	stress_45	"POPTR_0004s14960.1"	2680	"	"C/A"	"75,0/25,0"	"12/4"	16
controllo_3	"POPTR_0009s03610.1"	67	"	"A/T"	"63,6/36,4"	"96/55"	151	stress_12bis	"POPTR_0009s03610.1"	67	"	"A/T"	"73,3/26,7"	"11/4"	15
controllo_3	"POPTR_0009s06530.1"	1353	"	"T/A"	"63,6/36,4"	"89/51"	140	stress_12bis	"POPTR_0009s06530.1"	1353	"	"T/A"	"59,7/40,3"	"37/25"	62
controllo_3	"POPTR_0009s06530.1"	1353	"	"T/A"	"63,6/36,4"	"89/51"	140	stress_42	"POPTR_0009s06530.1"	1353	"	"A/T"	"54,5/45,5"	"6/5"	11
controllo_3	"POPTR_0009s06530.1"	1353	"	"T/A"	"63,6/36,4"	"89/51"	140	stress_45	"POPTR_0009s06530.1"	1353	"	"T/A"	"54,5/45,5"	"6/5"	11
controllo_3	"POPTR_0012s00670.1"	647	"	"G/A"	"63,6/36,4"	"68/39"	107	stress_42	"POPTR_0012s00670.1"	647	"	"G/A"	"53,7/46,3"	"22/19"	41
controllo_3	"POPTR_0012s00670.1"	647	"	"G/A"	"63,6/36,4"	"68/39"	107	stress_45	"POPTR_0012s00670.1"	647	"	"A/G"	"64,6/35,4"	"31/17"	48
controllo_3	"POPTR_0001s10700.1"	918	"	"A/T"	"63,6/36,4"	"7/4"	11	stress_42	"POPTR_0001s10700.1"	918	"	"A/T"	"57,3/42,7"	"63/47"	110
controllo_3	"POPTR_0010s26130.1"	189	"	"T/C"	"63,6/36,4"	"119/68"	187	stress_12bis	"POPTR_0010s26130.1"	189	"	"T/C"	"63,5/36,5"	"47/27"	74
controllo_3	"POPTR_0010s01590.1"	185	"	"T/C"	"63,6/36,4"	"7/4"	11	stress_42	"POPTR_0010s01590.1"	185	"	"C/T"	"71,9/27,9"	"369/143"	513
controllo_3	"POPTR_0010s01590.1"	185	"	"T/C"	"63,6/36,4"	"7/4"	11	stress_45	"POPTR_0010s01590.1"	185	"	"C/T"	"73,9/26,1"	"266/94"	360
controllo_3	"POPTR_0007s14750.1"	101	"	"G/T"	"63,6/36,4"	"21/12"	33	stress_42	"POPTR_0007s14750.1"	101	"	"G/T"	"57,8/42,2"	"63/46"	109
controllo_3	"POPTR_0007s14750.1"	101	"	"G/T"	"63,6/36,4"	"21/12"	33	stress_45	"POPTR_0007s14750.1"	101	"	"G/T"	"65,2/34,8"	"73/39"	112
controllo_3	"POPTR_0007s14390.1"	954	"	"T/C"	"63,6/36,4"	"138/79"	217	stress_12bis	"POPTR_0007s14390.1"	954	"	"C/T"	"50,0/50,0"	"25/25"	50
controllo_3	"POPTR_0007s14390.1"	954	"	"T/C"	"63,6/36,4"	"138/79"	217	stress_42	"POPTR_0007s14390.1"	954	"	"T/C"	"60,0/40,0"	"18/12"	30
controllo_3	"POPTR_0007s14390.1"	954	"	"T/C"	"63,6/36,4"	"138/79"	217	stress_45	"POPTR_0007s14390.1"	954	"	"C/T"	"53,8/46,2"	"21/18"	39
controllo_3	"POPTR_0007s14390.1"	1388	"	"C/T"	"63,6/36,4"	"175/100"	275	stress_12bis	"POPTR_0007s14390.1"	1388	"	"T/C"	"52,3/47,7"	"34/31"	65
controllo_3	"POPTR_0007s14390.1"	1388	"	"C/T"	"63,6/36,4"	"175/100"	275	stress_42	"POPTR_0007s14390.1"	1388	"	"C/T"	"52,6/47,4"	"30/27"	57
controllo_3	"POPTR_0007s14390.1"	1388	"	"C/T"	"63,6/36,4"	"175/100"	275	stress_45	"POPTR_0007s14390.1"	1388	"	"C/T"	"60,9/39,1"	"39/25"	64
controllo_3	"POPTR_0007s13800.1"	937	"	"G/A"	"63,6/36,4"	"264/151"	415	stress_12bis	"POPTR_0007s13800.1"	937	"	"G/A"	"60,0/40,0"	"48/32"	80
controllo_3	"POPTR_0008s06580.1"	242	"	"C/A"	"63,6/36,4"	"541/309"	850	stress_12bis	"POPTR_0008s06580.1"	242	"	"A/C"	"59,8/40,2"	"64/43"	107
controllo_3	"POPTR_0008s06580.1"	242	"	"C/A"	"63,6/36,4"	"541/309"	850	stress_42	"POPTR_0008s06580.1"	242	"	"C/A"	"57,8/42,2"	"286/209"	495
controllo_3	"POPTR_0008s06580.1"	242	"	"C/A"	"63,6/36,4"	"541/309"	850	stress_45	"POPTR_0008s06580.1"	242	"	"C/A"	"53,8/46,0"	"366/313"	680
controllo_3	"POPTR_0014s13560.1"	1695	"	"A/T"	"63,7/34,5"	"218/118"	342	stress_12bis	"POPTR_0014s13560.1"	1695	"	"A/T"	"61,9/38,1"	"86/53"	139
controllo_3	"POPTR_0014s13560.1"	1695	"	"A/T"	"63,7/34,5"	"218/118"	342	stress_42	"POPTR_0014s13560.1"	1695	"	"A/T"	"57,7/40,8"	"41/29"	71
controllo_3	"POPTR_0014s13560.1"	1695	"	"A/T"	"63,7/34,5"	"218/118"	342	stress_45	"POPTR_0014s13560.1"	1695	"	"A/T"	"73,6/26,4"	"67/24"	91
controllo_3	"POPTR_0003s08800.1"	2115	"	"C/T"	"63,7/35,3"	"65/36"	102	stress_12bis	"POPTR_0003s08800.1"	2115	"	"C/T"	"61,3/38,7"	"19/12"	31
controllo_3	"POPTR_0003s08800.1"	2115	"	"C/T"	"63,7/35,3"	"65/36"	102	stress_42	"POPTR_0003s08800.1"	2115	"	"C/T"	"58,3/41,7"	"7/5"	12
controllo_3	"POPTR_0003s08800.1"	2115	"	"C/T"	"63,7/35,3"	"65/36"	102	stress_45	"POPTR_0003s08800.1"	2115	"	"C/T"	"65,0/35,0"	"13/7"	20
controllo_3	"POPTR_0019s12320.1"	366	"	"G/C"	"63,7/35,4"	"72/40"	113	stress_12bis	"POPTR_0019s12320.1"	366	"	"G/C"	"75,0/25,0"	"30/10"	40
controllo_3	"POPTR_0018s04240.1"	528	"	"A/G"	"63,7/35,8"	"114/64"	179	stress_12bis	"POPTR_0018s04240.1"	528	"	"A/G"	"70,6/29,4"	"24/10"	34
controllo_3	"POPTR_0018s04240.1"	528	"	"A/G"	"63,7/35,8"	"114/64"	179	stress_42	"POPTR_0018s04240.1"	528	"	"A/G"	"59,4/40,6"	"19/13"	32
controllo_3	"POPTR_0018s04240.1"	528	"	"A/G"	"63,7/35,8"	"114/64"	179	stress_45	"POPTR_0018s04240.1"	528	"	"A/G"	"65,7/34,3"	"23/12"	35
controllo_3	"POPTR_0003s06370.1"	105	"	"G/T"	"63,7/36,0"	"258/146"	405	stress_12bis	"POPTR_0003s06370.1"	105	"	"G/T"	"50,0/50,0"	"13/13"	26
controllo_3	"POPTR_0018s07160.1"	255	"	"T/A"	"63,7/36,3"	"158/90"	248	stress_12bis	"POPTR_0018s07160.1"	255	"	"T/A"	"64,8/35,2"	"35/19"	54
controllo_3	"POPTR_0018s07160.1"	255	"	"T/A"	"63,7/36,3"	"158/90"	248	stress_42	"POPTR_0018s07160.1"	255	"	"T/A"	"71,4/28,6"	"15/6"	21
controllo_3	"POPTR_0018s07160.1"	255	"	"T/A"	"63,7/36,3"	"158/90"	248	stress_45	"POPTR_0018s07160.1"	255	"	"T/A"	"70,0/30,0"	"7/3"	10
controllo_3	"POPTR_0014s13560.1"	1599	"	"G/A"	"63,7/36,3"	"211/120"	331	stress_12bis	"POPTR_0014s13560.1"	1599	"	"G/A"	"68,5/31,5"	"74/34"	108
controllo_3	"POPTR_0014s13560.1"	1599	"	"G/A"	"63,7/36,3"	"211/120"	331	stress_42	"POPTR_0014s13560.1"	1599	"	"G/A"	"68,4/31,6"	"54/25"	79
controllo_3	"POPTR_0014s13560.1"	1599	"	"G/A"	"63,7/36,3"	"211/120"	331	stress_45	"POPTR_0014s13560.1"	1599	"	"G/A"	"70,2/29,8"	"59/25"	84
controllo_3	"POPTR_0014s00810.1"	89	"	"G/T"	"63,7/36,3"	"144/82"	226	stress_12bis	"POPTR_0014s00810.1"	89	"	"G/T"	"74,6/25,4"	"106/36"	142
controllo_3	"POPTR_0014s00810.1"	89	"	"G/T"	"63,7/36,3"	"144/82"	226	stress_42	"POPTR_0014s00810.1"	89	"	"T/G"	"61,9/38,1"	"78/48"	126
controllo_3	"POPTR_0014s00810.1"	89	"	"G/T"	"63,7/36,3"	"144/82"	226	stress_45	"POPTR_0014s00810.1"	89	"	"G/T"	"53,4/46,6"	"47/41"	88
controllo_3	"POPTR_0001s37480.1"	569	"	"C/T"	"63,7/36,3"	"221/126"	347	stress_12bis	"POPTR_0001s37480.1"	569	"	"C/T"	"67,2/32,8"	"43/21"	64
controllo_3	"POPTR_0001s37480.1"	569	"	"C/T"	"63,7/36,3"	"221/126"	347	stress_42	"POPTR_0001s37480.1"	569	"	"C/T"	"77,2/22,8"	"61/18"	79
controllo_3	"POPTR_0001s37480.1"	569	"	"C/T"	"63,7/36,3"	"221/126"	347	stress_45	"POPTR_0001s37480.1"	569	"	"C/T"	"67,1/32,9"	"110/54"	164
controllo_3	"POPTR_0001s10880.1"	1044	"	"C/T"	"63,7/36,3"	"65/37"	102	stress_12bis	"POPTR_0001s10880.1"	1044	"	"C/T"	"53,5/46,5"	"38/33"	71
controllo_3	"POPTR_0001s10880.1"	1044	"	"C/T"	"63,7/36,3"	"65/37"	102	stress_42	"POPTR_0001s10880.1"	1044	"	"C/T"	"68,2/31,8"	"15/7"	22
controllo_3	"POPTR_0001s10880.1"	1044	"	"C/T"	"63,7/36,3"	"65/37"	102	stress_45	"POPTR_0001s10880.1"	1044	"	"C/T"	"70,6/29,4"	"24/10"	34
controllo_3	"POPTR_0008s10020.1"	978	"	"A/G"	"63,7/36,3"	"144/82"	226	stress_12bis	"POPTR_0008s10020.1"	978	"	"A/G"	"55,0/45,0"	"33/27"	60
controllo_3	"POPTR_0008s10020.1"	978	"	"A/G"	"63,7/36,3"	"144/82"	226	stress_42	"POPTR_0008s10020.1"	978	"	"A/G"	"67,4/32,6"	"31/15"	46
controllo_3	"POPTR_0008s10020.1"	978	"	"A/G"	"63,7/36,3"	"144/82"	226	stress_45	"POPTR_0008s10020.1"	978	"	"G/A"	"51,7/48,3"	"31/29"	60
controllo_3	"POPTR_0008s20770.1"	522	"	"G/A"	"63,7/36,3"	"263/150"	413	stress_12bis	"POPTR_0008s20770.1"	522	"	"G/A"	"57,1/42,9"	"113/85"	198
controllo_3	"POPTR_0008s20770.1"	522	"	"G/A"	"63,7/36,3"	"263/150"	413	stress_42	"POPTR_0008s20770.1"	522	"	"A/G"	"69,8/30,2"	"111/48"	159
controllo_3	"POPTR_0008s20770.1"	522	"	"G/A"	"63,7/36,3"	"263/150"	413	stress_45	"POPTR_0008s20770.1"	522	"	"A/G"	"61,8/38,2"	"118/73"	191
controllo_3	"POPTR_0017s00850.1"	858	"	"G/A"	"63,8/36,2"	"95/54"	149	stress_12bis	"POPTR_0017s00850.1"	858	"	"G/A"	"73,7/26,3"	"14/5"	19
controllo_3	"POPTR_0017s00850.1"	858	"	"G/A"	"63,8/36,2"	"95/54"	149	stress_42	"POPTR_0017s00850.1"	858	"	"G/A"	"57,8/42,2"	"48/35"	83
controllo_3	"POPTR_0017s00850.1"	858	"	"G/A"	"63,8/36,2"	"95/54"	149	stress_45	"POPTR_0017s00850.1"	858	"	"G/A"	"55,6/44,4"	"55/44"	99
controllo_3	"POPTR_0006s06180.1"	54	"	"T/C"	"63,8/36,2"	"88/50"	138	stress_12bis	"POPTR_0006s06180.1"	54	"	"T/C"	"65,4/34,6"	"34/18"	52
controllo_3	"POPTR_0006s06180.1"	54	"	"T/C"	"63,8/36,2"	"88/50"	138	stress_45	"POPTR_0006s06180.1"	54	"	"T/C"	"71,1/28,9"	"32/13"	45
controllo_3	"POPTR_0006s06180.1"	123	"	"C/T"	"63,8/36,2"	"97/55"	152	stress_12bis	"POPTR_0006s06180.1"	123	"	"C/T"	"66,0/34,0"	"35/18"	53
controllo_3	"POPTR_0006s06180.1"	123	"	"C/T"	"63,8/36,2"	"97/55"	152	stress_45	"POPTR_0006s06180.1"	123	"	"C/T"	"67,7/32,3"	"21/10"	31
controllo_3	"POPTR_0013s03320.1"	255	"	"G/C"	"63,8/36,2"	"134/76"	210	stress_42	"POPTR_0013s03320.1"	255	"	"G/C"	"83,9/16,1"	"73/14"	87
controllo_3	"POPTR_0013s03320.1"	255	"	"G/C"	"63,8/36,2"	"134/76"	210	stress_45	"POPTR_0013s03320.1"	255	"	"G/C"	"74,6/25,4"	"53/18"	71
controllo_3	"POPTR_0014s09180.1"	1360	"	"G/C"	"63,8/36,2"	"113/64"	177	stress_12bis	"POPTR_0014s09180.1"	1360	"	"G/C"	"82,1/17,9"	"32/7"	39
controllo_3	"POPTR_0014s09180.1"	1360	"	"G/C"	"63,8/36,2"	"113/64"	177	stress_45	"POPTR_0014s09180.1"	1360	"	"G/C"	"81,8/18,2"	"9/2"	11
controllo_3	"POPTR_0014s13560.1"	1860	"	"A/G"	"63,8/36,2"	"248/141"	389	stress_12bis	"POPTR_0014s13560.1"	1860	"	"A/G"	"66,7/33,3"	"88/44"	132
controllo_3	"POPTR_0014s13560.1"	1860	"	"A/G"	"63,8/36,2"	"248/141"	389	stress_42	"POPTR_0014s13560.1"	1860	"	"A/G"	"66,7/33,3"	"82/41"	123
controllo_3	"POPTR_0014s13560.1"	1860	"	"A/G"	"63,8/36,2"	"248/141"	389	stress_45	"POPTR_0014s13560.1"	1860	"	"A/G"	"55,5/44,5"	"66/53"	119
controllo_3	"POPTR_0012s04560.1"	64	"	"T/G"	"63,8/36,2"	"67/38"	105	stress_12bis	"POPTR_0012s04560.1"	64	"	"T/G"	"63,2/36,8"	"12/7"	19
controllo_3	"POPTR_0012s04560.1"	64	"	"T/G"	"63,8/36,2"	"67/38"	105	stress_45	"POPTR_0012s04560.1"	64	"	"T/G"	"78,9/21,1"	"15/4"	19
controllo_3	"POPTR_0012s03610.1"	580	"	"G/A"	"63,8/36,2"	"83/47"	130	stress_12bis	"POPTR_0012s03610.1"	580	"	"G/A"	"55,1/44,9"	"27/22"	49
controllo_3	"POPTR_0012s03610.1"	580	"	"G/A"	"63,8/36,2"	"83/47"	130	stress_45	"POPTR_0012s03610.1"	580	"	"A/G"	"55,6/44,4"	"10/8"	18
controllo_3	"POPTR_0001s36870.1"	1740	"	"T/A"	"63,8/36,2"	"67/38"	105	stress_12bis	"POPTR_0001s36870.1"	1740	"	"T/A"	"57,1/42,9"	"20/15"	35
controllo_3	"POPTR_0001s36870.1"	1740	"	"T/A"	"63,8/36,2"	"67/38"	105	stress_42	"POPTR_0001s36870.1"	1740	"	"T/A"	"79,2/20,8"	"19/5"	24
controllo_3	"POPTR_0001s36870.1"	1740	"	"T/A"	"63,8/36,2"	"67/38"	105	stress_45	"POPTR_0001s36870.1"	1740	"	"T/A"	"70,4/29,6"	"19/8"	27
controllo_3	"POPTR_0001s40700.1"	518	"	"C/G"	"63,8/36,2"	"125/71"	196	stress_12bis	"POPTR_0001s40700.1"	518	"	"C/G"	"57,5/42,5"	"42/31"	73
controllo_3	"POPTR_0001s40700.1"	518	"	"C/G"	"63,8/36,2"	"125/71"	196	stress_45	"POPTR_0001s40700.1"	518	"	"C/G"	"69,8/30,2"	"30/13"	43
controllo_3	"POPTR_0001s27480.1"	930	"	"T/C"	"63,8/36,2"	"67/38"	105	stress_12bis	"POPTR_0001s27480.1"	930	"	"T/C"	"52,0/48,0"	"13/12"	25
controllo_3	"POPTR_0001s27480.1"	930	"	"T/C"	"63,8/36,2"	"67/38"	105	stress_42	"POPTR_0001s27480.1"	930	"	"T/C"	"61,5/38,5"	"40/25"	65
controllo_3	"POPTR_0001s27480.1"	930	"	"T/C"	"63,8/36,2"	"67/38"	105	stress_45	"POPTR_0001s27480.1"	930	"	"T/C"	"55,8/44,2"	"53/42"	95
controllo_3	"POPTR_0001s07870.1"	1671	"	"C/T"	"63,8/36,2"	"74/42"	116	stress_12bis	"POPTR_0001s07870.1"	1671	"	"C/T"	"83,3/16,7"	"10/2"	12
controllo_3	"POPTR_0010s07560.1"	417	"	"C/T"	"63,8/36,2"	"67/38"	105	stress_12bis	"POPTR_0010s07560.1"	417	"	"C/T"	"67,7/32,3"	"21/10"	31
controllo_3	"POPTR_0010s07560.1"	417	"	"C/T"	"63,8/36,2"	"67/38"	105	stress_42	"POPTR_0010s07560.1"	417	"	"C/T"	"57,1/42,9"	"8/6"	14
controllo_3	"POPTR_0010s07560.1"	417	"	"C/T"	"63,8/36,2"	"67/38"	105	stress_45	"POPTR_0010s07560.1"	417	"	"C/T"	"62,5/37,5"	"15/9"	24
controllo_3	"POPTR_0002s18500.1"	660	"	"C/T"	"63,8/36,2"	"127/72"	199	stress_12bis	"POPTR_0002s18500.1"	660	"	"C/T"	"71,7/28,3"	"43/17"	60
controllo_3	"POPTR_0002s18500.1"	660	"	"C/T"	"63,8/36,2"	"127/72"	199	stress_42	"POPTR_0002s18500.1"	660	"	"C/T"	"65,3/34,7"	"164/87"	251
controllo_3	"POPTR_0002s18500.1"	660	"	"C/T"	"63,8/36,2"	"127/72"	199	stress_45	"POPTR_0002s18500.1"	660	"	"C/T"	"65,5/34,5"	"163/86"	249
controllo_3	"POPTR_0002s14730.1"	99	"	"C/T"	"63,8/36,2"	"234/133"	367	stress_12bis	"POPTR_0002s14730.1"	99	"	"C/T"	"65,6/34,4"	"59/31"	90
controllo_3	"POPTR_0002s14730.1"	99	"	"C/T"	"63,8/36,2"	"234/133"	367	stress_42	"POPTR_0002s14730.1"	99	"	"C/T"	"58,3/41,7"	"7/5"	12
controllo_3	"POPTR_0002s14730.1"	99	"	"C/T"	"63,8/36,2"	"234/133"	367	stress_45	"POPTR_0002s14730.1"	99	"	"C/T"	"59,1/40,9"	"13/9"	22
controllo_3	"POPTR_0002s25620.1"	876	"	"G/C"	"63,8/36,2"	"143/81"	224	stress_12bis	"POPTR_0002s25620.1"	876	"	"G/C"	"62,2/37,8"	"61/37"	98
controllo_3	"POPTR_0002s25620.1"	876	"	"G/C"	"63,8/36,2"	"143/81"	224	stress_42	"POPTR_0002s25620.1"	876	"	"C/G"	"54,8/45,2"	"17/14"	31
controllo_3	"POPTR_0002s25620.1"	876	"	"G/C"	"63,8/36,2"	"143/81"	224	stress_45	"POPTR_0002s25620.1"	876	"	"G/C"	"56,0/44,0"	"28/22"	50
controllo_3	"POPTR_0008s20590.1"	459	"	"T/A"	"63,8/36,2"	"187/106"	293	stress_12bis	"POPTR_0008s20590.1"	459	"	"T/A"	"55,4/44,6"	"62/50"	112
controllo_3	"POPTR_0008s20590.1"	459	"	"T/A"	"63,8/36,2"	"187/106"	293	stress_42	"POPTR_0008s20590.1"	459	"	"T/A"	"65,5/34,5"	"74/39"	113
controllo_3	"POPTR_0008s20590.1"	459	"	"T/A"	"63,8/36,2"	"187/106"	293	stress_45	"POPTR_0008s20590.1"	459	"	"T/A"	"58,7/41,3"	"81/57"	138
controllo_3	"POPTR_0002s01570.1"	1179	"	"T/C"	"63,9/35,3"	"76/42"	119	stress_12bis	"POPTR_0002s01570.1"	1179	"	"C/T"	"50,0/50,0"	"14/14"	28
controllo_3	"POPTR_0002s01570.1"	1179	"	"T/C"	"63,9/35,3"	"76/42"	119	stress_42	"POPTR_0002s01570.1"	1179	"	"T/C"	"59,4/40,6"	"41/28"	69
controllo_3	"POPTR_0002s01570.1"	1179	"	"T/C"	"63,9/35,3"	"76/42"	119	stress_45	"POPTR_0002s01570.1"	1179	"	"C/T"	"60,3/39,7"	"38/25"	63
controllo_3	"POPTR_0005s06460.1"	160	"	"T/A"	"63,9/35,4"	"92/51"	144	stress_12bis	"POPTR_0005s06460.1"	160	"	"A/T"	"50,0/50,0"	"12/12"	24
controllo_3	"POPTR_0005s06460.1"	160	"	"T/A"	"63,9/35,4"	"92/51"	144	stress_42	"POPTR_0005s06460.1"	160	"	"T/A"	"76,2/23,8"	"16/5"	21
controllo_3	"POPTR_0005s06460.1"	160	"	"T/A"	"63,9/35,4"	"92/51"	144	stress_45	"POPTR_0005s06460.1"	160	"	"T/A"	"66,7/33,3"	"22/11"	33
controllo_3	"POPTR_0005s25540.1"	792	"	"T/C"	"63,9/36,1"	"371/210"	581	stress_12bis	"POPTR_0005s25540.1"	792	"	"T/C"	"78,2/21,8"	"61/17"	78
controllo_3	"POPTR_0006s18760.1"	758	"	"T/C"	"63,9/36,1"	"117/66"	183	stress_12bis	"POPTR_0006s18760.1"	758	"	"C/T"	"54,2/45,8"	"13/11"	24
controllo_3	"POPTR_0006s18760.1"	758	"	"T/C"	"63,9/36,1"	"117/66"	183	stress_45	"POPTR_0006s18760.1"	758	"	"T/C"	"64,3/35,7"	"9/5"	14
controllo_3	"POPTR_0003s20870.1"	166	"	"C/A"	"63,9/36,1"	"92/52"	144	stress_12bis	"POPTR_0003s20870.1"	166	"	"C/A"	"75,0/25,0"	"24/8"	32
controllo_3	"POPTR_0003s20870.1"	166	"	"C/A"	"63,9/36,1"	"92/52"	144	stress_45	"POPTR_0003s20870.1"	166	"	"C/A"	"70,4/29,6"	"19/8"	27
controllo_3	"POPTR_0004s23490.1"	1239	"	"G/T"	"63,9/36,1"	"78/44"	122	stress_12bis	"POPTR_0004s23490.1"	1239	"	"G/T"	"71,7/28,3"	"33/13"	46
controllo_3	"POPTR_0004s23490.1"	1239	"	"G/T"	"63,9/36,1"	"78/44"	122	stress_42	"POPTR_0004s23490.1"	1239	"	"G/T"	"77,5/22,5"	"31/9"	40
controllo_3	"POPTR_0004s23490.1"	1239	"	"G/T"	"63,9/36,1"	"78/44"	122	stress_45	"POPTR_0004s23490.1"	1239	"	"G/T"	"61,8/38,2"	"42/26"	68
controllo_3	"POPTR_0004s15900.1"	226	"	"G/A"	"63,9/36,1"	"99/56"	155	stress_12bis	"POPTR_0004s15900.1"	226	"	"G/A"	"79,2/20,8"	"19/5"	24
controllo_3	"POPTR_0004s15900.1"	226	"	"G/A"	"63,9/36,1"	"99/56"	155	stress_45	"POPTR_0004s15900.1"	226	"	"G/A"	"79,2/20,8"	"19/5"	24
controllo_3	"POPTR_0009s12790.1"	417	"	"G/A"	"63,9/36,1"	"78/44"	122	stress_12bis	"POPTR_0009s12790.1"	417	"	"G/A"	"64,5/35,5"	"20/11"	31
controllo_3	"POPTR_0009s12790.1"	417	"	"G/A"	"63,9/36,1"	"78/44"	122	stress_42	"POPTR_0009s12790.1"	417	"	"G/A"	"71,8/28,2"	"28/11"	39
controllo_3	"POPTR_0009s12790.1"	417	"	"G/A"	"63,9/36,1"	"78/44"	122	stress_45	"POPTR_0009s12790.1"	417	"	"G/A"	"64,3/35,7"	"18/10"	28
controllo_3	"POPTR_0012s06320.1"	2063	"	"G/A"	"63,9/36,1"	"69/39"	108	stress_12bis	"POPTR_0012s06320.1"	2063	"	"G/A"	"73,0/27,0"	"27/10"	37
controllo_3	"POPTR_0012s06320.1"	2063	"	"G/A"	"63,9/36,1"	"69/39"	108	stress_42	"POPTR_0012s06320.1"	2063	"	"A/G"	"56,2/40,6"	"18/13"	32
controllo_3	"POPTR_0012s06320.1"	2063	"	"G/A"	"63,9/36,1"	"69/39"	108	stress_45	"POPTR_0012s06320.1"	2063	"	"G/A"	"60,0/40,0"	"36/24"	60
controllo_3	"POPTR_0010s19930.1"	468	"	"T/C"	"63,9/36,1"	"184/104"	288	stress_12bis	"POPTR_0010s19930.1"	468	"	"C/T"	"53,8/46,2"	"14/12"	26
controllo_3	"POPTR_0010s19930.1"	468	"	"T/C"	"63,9/36,1"	"184/104"	288	stress_42	"POPTR_0010s19930.1"	468	"	"C/T"	"63,8/36,2"	"95/54"	149
controllo_3	"POPTR_0010s19930.1"	468	"	"T/C"	"63,9/36,1"	"184/104"	288	stress_45	"POPTR_0010s19930.1"	468	"	"C/T"	"59,0/41,0"	"72/50"	122
controllo_3	"POPTR_0002s06680.1"	1044	"	"A/C"	"63,9/36,1"	"53/30"	83	stress_45	"POPTR_0002s06680.1"	1044	"	"A/C"	"54,1/45,9"	"60/51"	111
controllo_3	"POPTR_0008s05480.1"	375	"	"T/C"	"63,9/36,1"	"260/147"	407	stress_12bis	"POPTR_0008s05480.1"	375	"	"T/C"	"60,8/39,2"	"79/51"	130
controllo_3	"POPTR_0008s05480.1"	375	"	"T/C"	"63,9/36,1"	"260/147"	407	stress_42	"POPTR_0008s05480.1"	375	"	"C/T"	"57,6/42,4"	"34/25"	59
controllo_3	"POPTR_0008s05480.1"	375	"	"T/C"	"63,9/36,1"	"260/147"	407	stress_45	"POPTR_0008s05480.1"	375	"	"T/C"	"53,0/47,0"	"122/108"	230
controllo_3	"POPTR_0008s10050.1"	1041	"	"C/T"	"63,9/36,1"	"117/66"	183	stress_12bis	"POPTR_0008s10050.1"	1041	"	"C/T"	"72,9/27,1"	"35/13"	48
controllo_3	"POPTR_0008s10050.1"	1041	"	"C/T"	"63,9/36,1"	"117/66"	183	stress_45	"POPTR_0008s10050.1"	1041	"	"T/C"	"55,6/44,4"	"15/12"	27
controllo_3	"POPTR_0006s06180.1"	2136	"	"A/T"	"64,0/33,8"	"87/46"	136	stress_12bis	"POPTR_0006s06180.1"	2136	"	"A/T"	"72,7/27,3"	"48/18"	66
controllo_3	"POPTR_0006s06180.1"	2136	"	"A/T"	"64,0/33,8"	"87/46"	136	stress_42	"POPTR_0006s06180.1"	2136	"	"A/T"	"78,4/18,9"	"29/7"	37
controllo_3	"POPTR_0005s15660.1"	256	"	"C/A"	"64,0/35,0"	"7657/4195"	11972	stress_12bis	"POPTR_0005s15660.1"	256	"	"C/A"	"64,8/34,1"	"1970/1038"	3040
controllo_3	"POPTR_0005s15660.1"	256	"	"C/A"	"64,0/35,0"	"7657/4195"	11972	stress_42	"POPTR_0005s15660.1"	256	"	"C/A"	"64,2/34,9"	"596/324"	929
controllo_3	"POPTR_0005s15660.1"	256	"	"C/A"	"64,0/35,0"	"7657/4195"	11972	stress_45	"POPTR_0005s15660.1"	256	"	"C/A"	"58,3/40,4"	"459/318"	787
controllo_3	"POPTR_0004s15960.1"	792	"	"C/T"	"64,0/35,1"	"73/40"	114	stress_42	"POPTR_0004s15960.1"	792	"	"C/T"	"78,9/21,1"	"15/4"	19
controllo_3	"POPTR_0004s15960.1"	792	"	"C/T"	"64,0/35,1"	"73/40"	114	stress_45	"POPTR_0004s15960.1"	792	"	"C/T"	"73,3/26,7"	"11/4"	15
controllo_3	"POPTR_0006s03660.1"	460	"	"T/G"	"64,0/35,4"	"105/58"	164	stress_12bis	"POPTR_0006s03660.1"	460	"	"T/G"	"51,5/48,5"	"17/16"	33
controllo_3	"POPTR_0006s03660.1"	460	"	"T/G"	"64,0/35,4"	"105/58"	164	stress_45	"POPTR_0006s03660.1"	460	"	"T/G"	"57,1/42,9"	"12/9"	21
controllo_3	"POPTR_0005s22830.1"	61	"	"C/T"	"64,0/36,0"	"119/67"	186	stress_12bis	"POPTR_0005s22830.1"	61	"	"C/T"	"66,7/33,3"	"66/33"	99
controllo_3	"POPTR_0005s22830.1"	61	"	"C/T"	"64,0/36,0"	"119/67"	186	stress_42	"POPTR_0005s22830.1"	61	"	"C/T"	"53,5/46,5"	"23/20"	43
controllo_3	"POPTR_0005s22830.1"	61	"	"C/T"	"64,0/36,0"	"119/67"	186	stress_45	"POPTR_0005s22830.1"	61	"	"T/C"	"50,7/49,3"	"36/35"	71
controllo_3	"POPTR_0017s14310.3"	217	"	"G/A"	"64,0/36,0"	"142/80"	222	stress_12bis	"POPTR_0017s14310.3"	217	"	"G/A"	"59,7/40,3"	"77/52"	129
controllo_3	"POPTR_0017s14310.3"	217	"	"G/A"	"64,0/36,0"	"142/80"	222	stress_42	"POPTR_0017s14310.3"	217	"	"A/G"	"50,6/49,4"	"224/219"	443
controllo_3	"POPTR_0017s14310.3"	217	"	"G/A"	"64,0/36,0"	"142/80"	222	stress_45	"POPTR_0017s14310.3"	217	"	"G/A"	"62,0/38,0"	"75/46"	121
controllo_3	"POPTR_0014s10260.1"	497	"	"C/T"	"64,0/36,0"	"126/71"	197	stress_12bis	"POPTR_0014s10260.1"	497	"	"C/T"	"52,7/47,3"	"29/26"	55
controllo_3	"POPTR_0014s10260.1"	497	"	"C/T"	"64,0/36,0"	"126/71"	197	stress_42	"POPTR_0014s10260.1"	497	"	"T/C"	"60,0/40,0"	"15/10"	25
controllo_3	"POPTR_0014s10260.1"	497	"	"C/T"	"64,0/36,0"	"126/71"	197	stress_45	"POPTR_0014s10260.1"	497	"	"C/T"	"66,7/33,3"	"22/11"	33
controllo_3	"POPTR_0010s21280.1"	1852	"	"G/C"	"64,0/36,0"	"187/105"	292	stress_12bis	"POPTR_0010s21280.1"	1852	"	"G/C"	"66,2/33,8"	"86/44"	130
controllo_3	"POPTR_0010s21280.1"	1852	"	"G/C"	"64,0/36,0"	"187/105"	292	stress_42	"POPTR_0010s21280.1"	1852	"	"G/C"	"68,3/31,7"	"43/20"	63
controllo_3	"POPTR_0010s21280.1"	1852	"	"G/C"	"64,0/36,0"	"187/105"	292	stress_45	"POPTR_0010s21280.1"	1852	"	"G/C"	"65,2/34,8"	"75/40"	115
controllo_3	"POPTR_0008s13780.1"	440	"	"G/A"	"64,0/36,0"	"165/93"	258	stress_12bis	"POPTR_0008s13780.1"	440	"	"G/A"	"55,9/44,1"	"19/15"	34
controllo_3	"POPTR_0008s13780.1"	440	"	"G/A"	"64,0/36,0"	"165/93"	258	stress_42	"POPTR_0008s13780.1"	440	"	"G/A"	"60,9/34,8"	"14/8"	23
controllo_3	"POPTR_0008s13780.1"	440	"	"G/A"	"64,0/36,0"	"165/93"	258	stress_45	"POPTR_0008s13780.1"	440	"	"G/A"	"71,4/28,6"	"15/6"	21
controllo_3	"POPTR_0008s08400.1"	954	"	"T/C"	"64,0/36,0"	"71/40"	111	stress_12bis	"POPTR_0008s08400.1"	954	"	"T/C"	"53,8/46,2"	"7/6"	13
controllo_3	"POPTR_0008s08400.1"	954	"	"T/C"	"64,0/36,0"	"71/40"	111	stress_42	"POPTR_0008s08400.1"	954	"	"T/C"	"72,0/28,0"	"18/7"	25
controllo_3	"POPTR_0008s08400.1"	954	"	"T/C"	"64,0/36,0"	"71/40"	111	stress_45	"POPTR_0008s08400.1"	954	"	"T/C"	"58,3/41,7"	"28/20"	48
controllo_3	"POPTR_0003s12160.1"	843	"	"C/T"	"64,1/35,6"	"202/112"	315	stress_12bis	"POPTR_0003s12160.1"	843	"	"C/T"	"56,3/43,7"	"49/38"	87
controllo_3	"POPTR_0003s12160.1"	843	"	"C/T"	"64,1/35,6"	"202/112"	315	stress_42	"POPTR_0003s12160.1"	843	"	"C/T"	"57,7/42,3"	"15/11"	26
controllo_3	"POPTR_0003s12160.1"	843	"	"C/T"	"64,1/35,6"	"202/112"	315	stress_45	"POPTR_0003s12160.1"	843	"	"C/T"	"57,1/42,9"	"12/9"	21
controllo_3	"POPTR_0017s14090.1"	57	"	"G/A"	"64,1/35,9"	"186/104"	290	stress_12bis	"POPTR_0017s14090.1"	57	"	"G/A"	"52,2/47,8"	"24/22"	46
controllo_3	"POPTR_0017s14090.1"	57	"	"G/A"	"64,1/35,9"	"186/104"	290	stress_45	"POPTR_0017s14090.1"	57	"	"G/A"	"76,5/23,5"	"13/4"	17
controllo_3	"POPTR_0006s24520.1"	771	"	"A/G"	"64,1/35,9"	"100/56"	156	stress_12bis	"POPTR_0006s24520.1"	771	"	"A/G"	"65,6/34,4"	"21/11"	32
controllo_3	"POPTR_0006s00780.1"	2187	"	"G/A"	"64,1/35,9"	"107/60"	167	stress_12bis	"POPTR_0006s00780.1"	2187	"	"G/A"	"55,2/44,8"	"16/13"	29
controllo_3	"POPTR_0006s00780.1"	2187	"	"G/A"	"64,1/35,9"	"107/60"	167	stress_42	"POPTR_0006s00780.1"	2187	"	"G/A"	"80,0/20,0"	"8/2"	10
controllo_3	"POPTR_0003s21190.1"	548	"	"C/T"	"64,1/35,9"	"75/42"	117	stress_12bis	"POPTR_0003s21190.1"	548	"	"C/T"	"52,4/47,6"	"22/20"	42
controllo_3	"POPTR_0014s13560.1"	354	"	"C/T"	"64,1/35,9"	"207/116"	323	stress_12bis	"POPTR_0014s13560.1"	354	"	"C/T"	"53,2/45,9"	"58/50"	109
controllo_3	"POPTR_0014s13560.1"	354	"	"C/T"	"64,1/35,9"	"207/116"	323	stress_42	"POPTR_0014s13560.1"	354	"	"C/T"	"85,0/15,0"	"34/6"	40
controllo_3	"POPTR_0014s13560.1"	354	"	"C/T"	"64,1/35,9"	"207/116"	323	stress_45	"POPTR_0014s13560.1"	354	"	"C/T"	"66,2/33,8"	"53/27"	80
controllo_3	"POPTR_0014s00810.1"	31	"	"T/C"	"64,1/35,9"	"139/78"	217	stress_12bis	"POPTR_0014s00810.1"	31	"	"T/C"	"59,8/40,2"	"79/53"	132
controllo_3	"POPTR_0014s00810.1"	31	"	"T/C"	"64,1/35,9"	"139/78"	217	stress_42	"POPTR_0014s00810.1"	31	"	"T/C"	"84,2/15,8"	"149/28"	177
controllo_3	"POPTR_0014s00810.1"	31	"	"T/C"	"64,1/35,9"	"139/78"	217	stress_45	"POPTR_0014s00810.1"	31	"	"T/C"	"79,4/20,6"	"85/22"	107
controllo_3	"POPTR_0004s08500.1"	153	"	"C/T"	"64,1/35,9"	"825/462"	1288	stress_12bis	"POPTR_0004s08500.1"	153	"	"C/T"	"54,3/45,7"	"310/261"	571
controllo_3	"POPTR_0004s08500.1"	153	"	"C/T"	"64,1/35,9"	"825/462"	1288	stress_42	"POPTR_0004s08500.1"	153	"	"T/C"	"58,5/41,4"	"566/400"	967
controllo_3	"POPTR_0004s08500.1"	153	"	"C/T"	"64,1/35,9"	"825/462"	1288	stress_45	"POPTR_0004s08500.1"	153	"	"T/C"	"55,6/44,3"	"596/475"	1072
controllo_3	"POPTR_0009s07030.1"	513	"	"A/G"	"64,1/35,9"	"84/47"	131	stress_12bis	"POPTR_0009s07030.1"	513	"	"A/G"	"64,4/35,6"	"47/26"	73
controllo_3	"POPTR_0009s07030.1"	513	"	"A/G"	"64,1/35,9"	"84/47"	131	stress_42	"POPTR_0009s07030.1"	513	"	"A/G"	"58,3/41,7"	"14/10"	24
controllo_3	"POPTR_0009s07030.1"	513	"	"A/G"	"64,1/35,9"	"84/47"	131	stress_45	"POPTR_0009s07030.1"	513	"	"A/G"	"57,7/42,3"	"15/11"	26
controllo_3	"POPTR_0012s09290.1"	246	"	"G/T"	"64,1/35,9"	"123/69"	192	stress_12bis	"POPTR_0012s09290.1"	246	"	"G/T"	"81,5/18,5"	"53/12"	65
controllo_3	"POPTR_0001s15140.1"	492	"	"T/C"	"64,1/35,9"	"91/51"	142	stress_12bis	"POPTR_0001s15140.1"	492	"	"T/C"	"67,6/32,4"	"23/11"	34
controllo_3	"POPTR_0001s15140.1"	492	"	"T/C"	"64,1/35,9"	"91/51"	142	stress_42	"POPTR_0001s15140.1"	492	"	"C/T"	"55,6/44,4"	"10/8"	18
controllo_3	"POPTR_0001s15140.1"	492	"	"T/C"	"64,1/35,9"	"91/51"	142	stress_45	"POPTR_0001s15140.1"	492	"	"C/T"	"52,9/47,1"	"9/8"	17
controllo_3	"POPTR_0010s19190.1"	421	"	"G/A"	"64,1/35,9"	"75/42"	117	stress_12bis	"POPTR_0010s19190.1"	421	"	"G/A"	"52,6/47,4"	"10/9"	19
controllo_3	"POPTR_0010s19190.1"	421	"	"G/A"	"64,1/35,9"	"75/42"	117	stress_42	"POPTR_0010s19190.1"	421	"	"A/G"	"50,0/50,0"	"6/6"	12
controllo_3	"POPTR_0010s19190.1"	421	"	"G/A"	"64,1/35,9"	"75/42"	117	stress_45	"POPTR_0010s19190.1"	421	"	"G/A"	"60,0/40,0"	"21/14"	35
controllo_3	"POPTR_0007s14390.1"	460	"	"A/G"	"64,1/35,9"	"157/88"	245	stress_12bis	"POPTR_0007s14390.1"	460	"	"A/G"	"62,3/37,7"	"33/20"	53
controllo_3	"POPTR_0007s14390.1"	460	"	"A/G"	"64,1/35,9"	"157/88"	245	stress_42	"POPTR_0007s14390.1"	460	"	"G/A"	"62,5/37,5"	"15/9"	24
controllo_3	"POPTR_0007s14390.1"	460	"	"A/G"	"64,1/35,9"	"157/88"	245	stress_45	"POPTR_0007s14390.1"	460	"	"A/G"	"59,1/40,9"	"26/18"	44
controllo_3	"POPTR_0016s06540.1"	570	"	"A/T"	"64,1/35,9"	"148/83"	231	stress_12bis	"POPTR_0016s06540.1"	570	"	"A/T"	"60,0/40,0"	"12/8"	20
controllo_3	"POPTR_0008s13780.1"	567	"	"T/A"	"64,2/34,9"	"140/76"	218	stress_12bis	"POPTR_0008s13780.1"	567	"	"T/A"	"57,7/42,3"	"15/11"	26
controllo_3	"POPTR_0008s13780.1"	567	"	"T/A"	"64,2/34,9"	"140/76"	218	stress_42	"POPTR_0008s13780.1"	567	"	"T/A"	"60,0/40,0"	"9/6"	15
controllo_3	"POPTR_0008s13780.1"	567	"	"T/A"	"64,2/34,9"	"140/76"	218	stress_45	"POPTR_0008s13780.1"	567	"	"T/A"	"68,4/31,6"	"13/6"	19
controllo_3	"POPTR_0017s06920.1"	1377	"	"T/A"	"64,2/35,6"	"595/330"	927	stress_12bis	"POPTR_0017s06920.1"	1377	"	"T/A"	"65,6/34,4"	"179/94"	273
controllo_3	"POPTR_0017s06920.1"	1377	"	"T/A"	"64,2/35,6"	"595/330"	927	stress_45	"POPTR_0017s06920.1"	1377	"	"T/A"	"60,0/40,0"	"9/6"	15
controllo_3	"POPTR_0017s06650.1"	633	"	"G/A"	"64,2/35,8"	"104/58"	162	stress_12bis	"POPTR_0017s06650.1"	633	"	"A/G"	"62,1/37,9"	"18/11"	29
controllo_3	"POPTR_0017s06650.1"	633	"	"G/A"	"64,2/35,8"	"104/58"	162	stress_45	"POPTR_0017s06650.1"	633	"	"A/G"	"63,6/36,4"	"7/4"	11
controllo_3	"POPTR_0006s10250.1"	900	"	"C/A"	"64,2/35,8"	"88/49"	137	stress_12bis	"POPTR_0006s10250.1"	900	"	"C/A"	"82,8/17,2"	"24/5"	29
controllo_3	"POPTR_0006s10250.1"	900	"	"C/A"	"64,2/35,8"	"88/49"	137	stress_42	"POPTR_0006s10250.1"	900	"	"A/C"	"66,7/33,3"	"10/5"	15
controllo_3	"POPTR_0006s10250.1"	900	"	"C/A"	"64,2/35,8"	"88/49"	137	stress_45	"POPTR_0006s10250.1"	900	"	"C/A"	"59,4/40,6"	"19/13"	32
controllo_3	"POPTR_0003s08760.1"	477	"	"C/T"	"64,2/35,8"	"145/81"	226	stress_12bis	"POPTR_0003s08760.1"	477	"	"C/T"	"67,9/32,1"	"36/17"	53
controllo_3	"POPTR_0013s01080.1"	2046	"	"T/C"	"64,2/35,8"	"102/57"	159	stress_12bis	"POPTR_0013s01080.1"	2046	"	"T/C"	"63,6/36,4"	"35/20"	55
controllo_3	"POPTR_0013s01080.1"	2046	"	"T/C"	"64,2/35,8"	"102/57"	159	stress_42	"POPTR_0013s01080.1"	2046	"	"T/C"	"60,0/40,0"	"21/14"	35
controllo_3	"POPTR_0013s01080.1"	2046	"	"T/C"	"64,2/35,8"	"102/57"	159	stress_45	"POPTR_0013s01080.1"	2046	"	"T/C"	"65,8/34,2"	"25/13"	38
controllo_3	"POPTR_0014s10200.1"	180	"	"A/G"	"64,2/35,8"	"501/279"	780	stress_12bis	"POPTR_0014s10200.1"	180	"	"A/G"	"68,8/31,2"	"192/87"	279
controllo_3	"POPTR_0014s10200.1"	180	"	"A/G"	"64,2/35,8"	"501/279"	780	stress_45	"POPTR_0014s10200.1"	180	"	"A/G"	"81,0/19,0"	"51/12"	63
controllo_3	"POPTR_0004s09910.1"	466	"	"G/T"	"64,2/35,8"	"4491/2507"	7000	stress_12bis	"POPTR_0004s09910.1"	466	"	"G/T"	"61,6/38,3"	"687/427"	1116
controllo_3	"POPTR_0004s09910.1"	466	"	"G/T"	"64,2/35,8"	"4491/2507"	7000	stress_42	"POPTR_0004s09910.1"	466	"	"G/T"	"56,3/43,7"	"85/66"	151
controllo_3	"POPTR_0004s09910.1"	466	"	"G/T"	"64,2/35,8"	"4491/2507"	7000	stress_45	"POPTR_0004s09910.1"	466	"	"G/T"	"57,7/42,3"	"97/71"	168
controllo_3	"POPTR_0004s10660.1"	330	"	"C/T"	"64,2/35,8"	"271/151"	422	stress_12bis	"POPTR_0004s10660.1"	330	"	"C/T"	"52,7/47,3"	"49/44"	93
controllo_3	"POPTR_0004s10660.1"	330	"	"C/T"	"64,2/35,8"	"271/151"	422	stress_42	"POPTR_0004s10660.1"	330	"	"T/C"	"64,9/35,1"	"96/52"	148
controllo_3	"POPTR_0004s10660.1"	330	"	"C/T"	"64,2/35,8"	"271/151"	422	stress_45	"POPTR_0004s10660.1"	330	"	"T/C"	"62,3/37,7"	"104/63"	167
controllo_3	"POPTR_0009s12420.1"	825	"	"C/T"	"64,2/35,8"	"104/58"	162	stress_12bis	"POPTR_0009s12420.1"	825	"	"C/T"	"66,1/33,9"	"39/20"	59
controllo_3	"POPTR_0009s12420.1"	825	"	"C/T"	"64,2/35,8"	"104/58"	162	stress_42	"POPTR_0009s12420.1"	825	"	"C/T"	"68,7/31,3"	"178/81"	259
controllo_3	"POPTR_0009s12420.1"	825	"	"C/T"	"64,2/35,8"	"104/58"	162	stress_45	"POPTR_0009s12420.1"	825	"	"C/T"	"63,1/36,9"	"149/87"	236
controllo_3	"POPTR_0001s30460.1"	98	"	"T/C"	"64,2/35,8"	"79/44"	123	stress_12bis	"POPTR_0001s30460.1"	98	"	"T/C"	"65,8/34,2"	"25/13"	38
controllo_3	"POPTR_0001s30460.1"	98	"	"T/C"	"64,2/35,8"	"79/44"	123	stress_45	"POPTR_0001s30460.1"	98	"	"T/C"	"53,8/46,2"	"14/12"	26
controllo_3	"POPTR_0001s10290.1"	372	"	"C/T"	"64,2/35,8"	"102/57"	159	stress_12bis	"POPTR_0001s10290.1"	372	"	"C/T"	"53,8/46,2"	"28/24"	52
controllo_3	"POPTR_0001s10290.1"	372	"	"C/T"	"64,2/35,8"	"102/57"	159	stress_42	"POPTR_0001s10290.1"	372	"	"T/C"	"56,4/41,8"	"31/23"	55
controllo_3	"POPTR_0001s10290.1"	372	"	"C/T"	"64,2/35,8"	"102/57"	159	stress_45	"POPTR_0001s10290.1"	372	"	"C/T"	"52,6/47,4"	"30/27"	57
controllo_3	"POPTR_0002s14730.1"	1017	"	"T/A"	"64,2/35,8"	"638/355"	993	stress_12bis	"POPTR_0002s14730.1"	1017	"	"T/A"	"61,4/38,6"	"199/125"	324
controllo_3	"POPTR_0002s14730.1"	1017	"	"T/A"	"64,2/35,8"	"638/355"	993	stress_42	"POPTR_0002s14730.1"	1017	"	"A/T"	"67,7/32,3"	"86/41"	127
controllo_3	"POPTR_0002s14730.1"	1017	"	"T/A"	"64,2/35,8"	"638/355"	993	stress_45	"POPTR_0002s14730.1"	1017	"	"A/T"	"79,4/20,1"	"158/40"	199
controllo_3	"POPTR_0002s03020.1"	683	"	"C/A"	"64,2/35,8"	"327/182"	509	stress_12bis	"POPTR_0002s03020.1"	683	"	"C/A"	"63,0/37,0"	"80/47"	127
controllo_3	"POPTR_0002s03020.1"	683	"	"C/A"	"64,2/35,8"	"327/182"	509	stress_42	"POPTR_0002s03020.1"	683	"	"C/A"	"84,3/15,7"	"285/53"	338
controllo_3	"POPTR_0002s03020.1"	683	"	"C/A"	"64,2/35,8"	"327/182"	509	stress_45	"POPTR_0002s03020.1"	683	"	"C/A"	"84,5/15,1"	"448/80"	530
controllo_3	"POPTR_0008s06580.1"	687	"	"G/A"	"64,2/35,8"	"479/267"	746	stress_12bis	"POPTR_0008s06580.1"	687	"	"A/G"	"56,3/43,7"	"58/45"	103
controllo_3	"POPTR_0008s06580.1"	687	"	"G/A"	"64,2/35,8"	"479/267"	746	stress_42	"POPTR_0008s06580.1"	687	"	"G/A"	"55,3/44,7"	"291/235"	526
controllo_3	"POPTR_0008s06580.1"	687	"	"G/A"	"64,2/35,8"	"479/267"	746	stress_45	"POPTR_0008s06580.1"	687	"	"G/A"	"56,3/43,7"	"374/290"	664
controllo_3	"POPTR_0008s06960.1"	120	"	"C/T"	"64,2/35,8"	"97/54"	151	stress_12bis	"POPTR_0008s06960.1"	120	"	"C/T"	"50,0/50,0"	"5/5"	10
controllo_3	"POPTR_0016s03230.1"	186	"	"G/C"	"64,2/35,8"	"68/38"	106	stress_12bis	"POPTR_0016s03230.1"	186	"	"G/C"	"66,7/33,3"	"64/32"	96
controllo_3	"POPTR_0016s03230.1"	186	"	"G/C"	"64,2/35,8"	"68/38"	106	stress_42	"POPTR_0016s03230.1"	186	"	"G/C"	"80,8/19,2"	"21/5"	26
controllo_3	"POPTR_0016s03230.1"	186	"	"G/C"	"64,2/35,8"	"68/38"	106	stress_45	"POPTR_0016s03230.1"	186	"	"G/C"	"54,8/45,2"	"17/14"	31
controllo_3	"POPTR_0005s19400.1"	77	"	"T/C"	"64,3/34,8"	"142/77"	221	stress_12bis	"POPTR_0005s19400.1"	77	"	"T/C"	"53,8/46,2"	"42/36"	78
controllo_3	"POPTR_0005s19400.1"	77	"	"T/C"	"64,3/34,8"	"142/77"	221	stress_42	"POPTR_0005s19400.1"	77	"	"C/T"	"63,3/36,7"	"31/18"	49
controllo_3	"POPTR_0005s19400.1"	77	"	"T/C"	"64,3/34,8"	"142/77"	221	stress_45	"POPTR_0005s19400.1"	77	"	"C/T"	"56,4/43,6"	"22/17"	39
controllo_3	"POPTR_0005s21750.1"	408	"	"T/C"	"64,3/35,7"	"171/95"	266	stress_12bis	"POPTR_0005s21750.1"	408	"	"C/T"	"54,0/46,0"	"74/63"	137
controllo_3	"POPTR_0005s21750.1"	408	"	"T/C"	"64,3/35,7"	"171/95"	266	stress_42	"POPTR_0005s21750.1"	408	"	"C/T"	"60,9/39,1"	"81/52"	133
controllo_3	"POPTR_0005s21750.1"	408	"	"T/C"	"64,3/35,7"	"171/95"	266	stress_45	"POPTR_0005s21750.1"	408	"	"C/T"	"57,8/42,2"	"89/65"	154
controllo_3	"POPTR_0006s23890.1"	84	"	"T/G"	"64,3/35,7"	"551/306"	857	stress_12bis	"POPTR_0006s23890.1"	84	"	"T/G"	"67,8/32,2"	"204/97"	301
controllo_3	"POPTR_0006s23890.1"	84	"	"T/G"	"64,3/35,7"	"551/306"	857	stress_42	"POPTR_0006s23890.1"	84	"	"T/G"	"66,2/33,8"	"98/50"	148
controllo_3	"POPTR_0006s23890.1"	84	"	"T/G"	"64,3/35,7"	"551/306"	857	stress_45	"POPTR_0006s23890.1"	84	"	"T/G"	"76,7/23,3"	"102/31"	133
controllo_3	"POPTR_0006s06180.1"	51	"	"G/A"	"64,3/35,7"	"83/46"	129	stress_12bis	"POPTR_0006s06180.1"	51	"	"G/A"	"64,8/35,2"	"35/19"	54
controllo_3	"POPTR_0006s06180.1"	51	"	"G/A"	"64,3/35,7"	"83/46"	129	stress_45	"POPTR_0006s06180.1"	51	"	"G/A"	"77,3/22,7"	"34/10"	44
controllo_3	"POPTR_0018s11600.1"	1407	"	"G/A"	"64,3/35,7"	"92/51"	143	stress_12bis	"POPTR_0018s11600.1"	1407	"	"G/A"	"72,9/27,1"	"43/16"	59
controllo_3	"POPTR_0018s11600.1"	1407	"	"G/A"	"64,3/35,7"	"92/51"	143	stress_42	"POPTR_0018s11600.1"	1407	"	"G/A"	"60,5/39,5"	"23/15"	38
controllo_3	"POPTR_0018s11600.1"	1407	"	"G/A"	"64,3/35,7"	"92/51"	143	stress_45	"POPTR_0018s11600.1"	1407	"	"G/A"	"57,1/42,9"	"28/21"	49
controllo_3	"POPTR_0003s17010.1"	103	"	"G/C"	"64,3/35,7"	"90/50"	140	stress_12bis	"POPTR_0003s17010.1"	103	"	"C/G"	"52,4/47,6"	"22/20"	42
controllo_3	"POPTR_0003s17010.1"	103	"	"G/C"	"64,3/35,7"	"90/50"	140	stress_42	"POPTR_0003s17010.1"	103	"	"C/G"	"52,6/47,4"	"10/9"	19
controllo_3	"POPTR_0003s17010.1"	103	"	"G/C"	"64,3/35,7"	"90/50"	140	stress_45	"POPTR_0003s17010.1"	103	"	"G/C"	"60,7/39,3"	"17/11"	28
controllo_3	"POPTR_0019s10280.1"	576	"	"C/T"	"64,3/35,7"	"74/41"	115	stress_12bis	"POPTR_0019s10280.1"	576	"	"C/T"	"79,5/20,5"	"31/8"	39
controllo_3	"POPTR_0019s10280.1"	576	"	"C/T"	"64,3/35,7"	"74/41"	115	stress_42	"POPTR_0019s10280.1"	576	"	"C/T"	"68,8/31,2"	"11/5"	16
controllo_3	"POPTR_0009s11920.1"	165	"	"T/C"	"64,3/35,7"	"162/90"	252	stress_12bis	"POPTR_0009s11920.1"	165	"	"T/C"	"51,5/48,5"	"35/33"	68
controllo_3	"POPTR_0009s11920.1"	165	"	"T/C"	"64,3/35,7"	"162/90"	252	stress_42	"POPTR_0009s11920.1"	165	"	"T/C"	"52,2/47,8"	"48/44"	92
controllo_3	"POPTR_0009s11920.1"	165	"	"T/C"	"64,3/35,7"	"162/90"	252	stress_45	"POPTR_0009s11920.1"	165	"	"C/T"	"52,6/47,4"	"100/90"	190
controllo_3	"POPTR_0012s07270.1"	307	"	"C/A"	"64,3/35,7"	"128/71"	199	stress_12bis	"POPTR_0012s07270.1"	307	"	"A/C"	"60,0/40,0"	"39/26"	65
controllo_3	"POPTR_0012s07270.1"	307	"	"C/A"	"64,3/35,7"	"128/71"	199	stress_42	"POPTR_0012s07270.1"	307	"	"A/C"	"59,6/40,4"	"34/23"	57
controllo_3	"POPTR_0012s07270.1"	307	"	"C/A"	"64,3/35,7"	"128/71"	199	stress_45	"POPTR_0012s07270.1"	307	"	"C/A"	"52,4/47,6"	"43/39"	82
controllo_3	"POPTR_0001s31220.1"	600	"	"G/A"	"64,3/35,7"	"45/25"	70	stress_42	"POPTR_0001s31220.1"	600	"	"G/A"	"61,9/38,1"	"70/43"	113
controllo_3	"POPTR_0007s15300.1"	867	"	"T/A"	"64,3/35,7"	"36/20"	56	stress_45	"POPTR_0007s15300.1"	867	"	"T/A"	"70,2/29,8"	"87/37"	124
controllo_3	"POPTR_0002s10870.1"	1053	"	"T/C"	"64,3/35,7"	"108/60"	168	stress_12bis	"POPTR_0002s10870.1"	1053	"	"T/C"	"57,8/42,2"	"26/19"	45
controllo_3	"POPTR_0002s10870.1"	1053	"	"T/C"	"64,3/35,7"	"108/60"	168	stress_42	"POPTR_0002s10870.1"	1053	"	"C/T"	"50,0/50,0"	"12/12"	24
controllo_3	"POPTR_0002s10870.1"	1053	"	"T/C"	"64,3/35,7"	"108/60"	168	stress_45	"POPTR_0002s10870.1"	1053	"	"T/C"	"60,0/40,0"	"12/8"	20
controllo_3	"POPTR_0002s05780.1"	81	"	"A/T"	"64,3/35,7"	"83/46"	129	stress_45	"POPTR_0002s05780.1"	81	"	"T/A"	"55,6/44,4"	"10/8"	18
controllo_3	"POPTR_0002s22560.1"	124	"	"T/C"	"64,3/35,7"	"480/267"	747	stress_12bis	"POPTR_0002s22560.1"	124	"	"T/C"	"62,5/37,5"	"170/102"	272
controllo_3	"POPTR_0002s22560.1"	124	"	"T/C"	"64,3/35,7"	"480/267"	747	stress_42	"POPTR_0002s22560.1"	124	"	"T/C"	"68,4/31,6"	"39/18"	57
controllo_3	"POPTR_0002s22560.1"	124	"	"T/C"	"64,3/35,7"	"480/267"	747	stress_45	"POPTR_0002s22560.1"	124	"	"T/C"	"52,0/48,0"	"51/47"	98
controllo_3	"POPTR_0008s05410.1"	1308	"	"G/C"	"64,3/35,7"	"92/51"	143	stress_12bis	"POPTR_0008s05410.1"	1308	"	"G/C"	"67,7/32,3"	"21/10"	31
controllo_3	"POPTR_0008s05410.1"	1308	"	"G/C"	"64,3/35,7"	"92/51"	143	stress_45	"POPTR_0008s05410.1"	1308	"	"G/C"	"59,4/40,6"	"19/13"	32
controllo_3	"POPTR_0008s06720.1"	14	"	"C/T"	"64,3/35,7"	"559/310"	869	stress_12bis	"POPTR_0008s06720.1"	14	"	"C/T"	"65,6/34,4"	"187/98"	285
controllo_3	"POPTR_0008s06720.1"	14	"	"C/T"	"64,3/35,7"	"559/310"	869	stress_42	"POPTR_0008s06720.1"	14	"	"C/T"	"51,9/48,1"	"28/26"	54
controllo_3	"POPTR_0008s06720.1"	14	"	"C/T"	"64,3/35,7"	"559/310"	869	stress_45	"POPTR_0008s06720.1"	14	"	"T/C"	"59,4/40,6"	"38/26"	64
controllo_3	"POPTR_0016s12370.1"	573	"	"G/A"	"64,3/35,7"	"540/300"	840	stress_12bis	"POPTR_0016s12370.1"	573	"	"G/A"	"61,4/38,2"	"127/79"	207
controllo_3	"POPTR_0016s12370.1"	573	"	"G/A"	"64,3/35,7"	"540/300"	840	stress_42	"POPTR_0016s12370.1"	573	"	"G/A"	"76,1/23,9"	"70/22"	92
controllo_3	"POPTR_0016s12370.1"	573	"	"G/A"	"64,3/35,7"	"540/300"	840	stress_45	"POPTR_0016s12370.1"	573	"	"G/A"	"74,6/25,4"	"91/31"	122
controllo_3	"POPTR_0008s15930.1"	246	"	"C/T"	"64,4/34,7"	"65/35"	101	stress_12bis	"POPTR_0008s15930.1"	246	"	"C/T"	"52,2/47,8"	"12/11"	23
controllo_3	"POPTR_0008s15930.1"	246	"	"C/T"	"64,4/34,7"	"65/35"	101	stress_45	"POPTR_0008s15930.1"	246	"	"C/T"	"68,0/32,0"	"34/16"	50
controllo_3	"POPTR_0005s23310.1"	399	"	"G/A"	"64,4/35,6"	"65/36"	101	stress_12bis	"POPTR_0005s23310.1"	399	"	"G/A"	"63,2/36,8"	"24/14"	38
controllo_3	"POPTR_0005s23310.1"	399	"	"G/A"	"64,4/35,6"	"65/36"	101	stress_42	"POPTR_0005s23310.1"	399	"	"G/A"	"72,2/27,8"	"39/15"	54
controllo_3	"POPTR_0005s23310.1"	399	"	"G/A"	"64,4/35,6"	"65/36"	101	stress_45	"POPTR_0005s23310.1"	399	"	"G/A"	"77,3/22,7"	"34/10"	44
controllo_3	"POPTR_0005s27240.1"	1809	"	"T/C"	"64,4/35,6"	"67/37"	104	stress_12bis	"POPTR_0005s27240.1"	1809	"	"T/C"	"74,7/25,3"	"59/20"	79
controllo_3	"POPTR_0005s27240.1"	1809	"	"T/C"	"64,4/35,6"	"67/37"	104	stress_42	"POPTR_0005s27240.1"	1809	"	"T/C"	"70,0/30,0"	"14/6"	20
controllo_3	"POPTR_0005s27240.1"	1809	"	"T/C"	"64,4/35,6"	"67/37"	104	stress_45	"POPTR_0005s27240.1"	1809	"	"T/C"	"63,6/36,4"	"21/12"	33
controllo_3	"POPTR_0005s26610.1"	175	"	"C/G"	"64,4/35,6"	"65/36"	101	stress_12bis	"POPTR_0005s26610.1"	175	"	"C/G"	"66,0/34,0"	"35/18"	53
controllo_3	"POPTR_0005s26610.1"	175	"	"C/G"	"64,4/35,6"	"65/36"	101	stress_42	"POPTR_0005s26610.1"	175	"	"C/G"	"60,3/39,7"	"44/29"	73
controllo_3	"POPTR_0005s26610.1"	175	"	"C/G"	"64,4/35,6"	"65/36"	101	stress_45	"POPTR_0005s26610.1"	175	"	"C/G"	"58,4/41,6"	"52/37"	89
controllo_3	"POPTR_0017s06920.1"	357	"	"A/G"	"64,4/35,6"	"650/359"	1009	stress_12bis	"POPTR_0017s06920.1"	357	"	"A/G"	"56,8/43,2"	"155/118"	273
controllo_3	"POPTR_0017s06920.1"	357	"	"A/G"	"64,4/35,6"	"650/359"	1009	stress_42	"POPTR_0017s06920.1"	357	"	"A/G"	"66,7/33,3"	"8/4"	12
controllo_3	"POPTR_0017s06920.1"	357	"	"A/G"	"64,4/35,6"	"650/359"	1009	stress_45	"POPTR_0017s06920.1"	357	"	"G/A"	"54,5/45,5"	"6/5"	11
controllo_3	"POPTR_0006s00780.1"	631	"	"C/T"	"64,4/35,6"	"65/36"	101	stress_12bis	"POPTR_0006s00780.1"	631	"	"T/C"	"65,0/35,0"	"13/7"	20
controllo_3	"POPTR_0014s11580.1"	106	"	"A/T"	"64,4/35,6"	"94/52"	146	stress_12bis	"POPTR_0014s11580.1"	106	"	"A/T"	"70,8/29,2"	"17/7"	24
controllo_3	"POPTR_0014s11580.1"	106	"	"A/T"	"64,4/35,6"	"94/52"	146	stress_42	"POPTR_0014s11580.1"	106	"	"A/T"	"52,9/47,1"	"9/8"	17
controllo_3	"POPTR_0012s01430.1"	521	"	"C/T"	"64,4/35,6"	"67/37"	104	stress_12bis	"POPTR_0012s01430.1"	521	"	"T/C"	"52,3/47,7"	"23/21"	44
controllo_3	"POPTR_0012s01430.1"	521	"	"C/T"	"64,4/35,6"	"67/37"	104	stress_45	"POPTR_0012s01430.1"	521	"	"C/T"	"64,7/35,3"	"11/6"	17
controllo_3	"POPTR_0012s04560.1"	440	"	"C/T"	"64,4/35,6"	"105/58"	163	stress_12bis	"POPTR_0012s04560.1"	440	"	"C/T"	"76,9/23,1"	"40/12"	52
controllo_3	"POPTR_0012s04560.1"	440	"	"C/T"	"64,4/35,6"	"105/58"	163	stress_42	"POPTR_0012s04560.1"	440	"	"C/T"	"50,0/50,0"	"9/9"	18
controllo_3	"POPTR_0012s04560.1"	440	"	"C/T"	"64,4/35,6"	"105/58"	163	stress_45	"POPTR_0012s04560.1"	440	"	"C/T"	"50,0/50,0"	"12/12"	24
controllo_3	"POPTR_0012s11410.1"	535	"	"C/A"	"64,4/35,6"	"85/47"	132	stress_12bis	"POPTR_0012s11410.1"	535	"	"A/C"	"50,0/50,0"	"28/28"	56
controllo_3	"POPTR_0012s11410.1"	535	"	"C/A"	"64,4/35,6"	"85/47"	132	stress_42	"POPTR_0012s11410.1"	535	"	"C/A"	"52,2/47,8"	"12/11"	23
controllo_3	"POPTR_0012s11410.1"	535	"	"C/A"	"64,4/35,6"	"85/47"	132	stress_45	"POPTR_0012s11410.1"	535	"	"A/C"	"61,5/38,5"	"16/10"	26
controllo_3	"POPTR_0011s02600.1"	143	"	"A/T"	"64,4/35,6"	"65/36"	101	stress_12bis	"POPTR_0011s02600.1"	143	"	"T/A"	"66,7/33,3"	"10/5"	15
controllo_3	"POPTR_0001s25760.1"	1570	"	"C/G"	"64,4/35,6"	"87/48"	135	stress_12bis	"POPTR_0001s25760.1"	1570	"	"C/G"	"70,6/29,4"	"24/10"	34
controllo_3	"POPTR_0001s25760.1"	1570	"	"C/G"	"64,4/35,6"	"87/48"	135	stress_42	"POPTR_0001s25760.1"	1570	"	"C/G"	"53,3/46,7"	"16/14"	30
controllo_3	"POPTR_0001s25760.1"	1570	"	"C/G"	"64,4/35,6"	"87/48"	135	stress_45	"POPTR_0001s25760.1"	1570	"	"C/G"	"58,8/41,2"	"20/14"	34
controllo_3	"POPTR_0001s25760.1"	1575	"	"G/A"	"64,4/35,6"	"67/37"	104	stress_12bis	"POPTR_0001s25760.1"	1575	"	"G/A"	"76,0/24,0"	"19/6"	25
controllo_3	"POPTR_0001s25760.1"	1575	"	"G/A"	"64,4/35,6"	"67/37"	104	stress_42	"POPTR_0001s25760.1"	1575	"	"A/G"	"50,0/50,0"	"11/11"	22
controllo_3	"POPTR_0001s25760.1"	1575	"	"G/A"	"64,4/35,6"	"67/37"	104	stress_45	"POPTR_0001s25760.1"	1575	"	"G/A"	"52,2/47,8"	"12/11"	23
controllo_3	"POPTR_0001s07860.1"	1113	"	"G/A"	"64,4/35,6"	"94/52"	146	stress_12bis	"POPTR_0001s07860.1"	1113	"	"G/A"	"80,0/20,0"	"8/2"	10
controllo_3	"POPTR_0001s25630.1"	1050	"	"C/T"	"64,4/35,6"	"94/52"	146	stress_12bis	"POPTR_0001s25630.1"	1050	"	"C/T"	"56,0/44,0"	"28/22"	50
controllo_3	"POPTR_0002s03990.1"	123	"	"C/T"	"64,4/35,6"	"94/52"	146	stress_12bis	"POPTR_0002s03990.1"	123	"	"C/T"	"58,1/41,9"	"18/13"	31
controllo_3	"POPTR_0002s03990.1"	123	"	"C/T"	"64,4/35,6"	"94/52"	146	stress_42	"POPTR_0002s03990.1"	123	"	"C/T"	"61,1/38,9"	"66/42"	108
controllo_3	"POPTR_0002s03990.1"	123	"	"C/T"	"64,4/35,6"	"94/52"	146	stress_45	"POPTR_0002s03990.1"	123	"	"C/T"	"71,6/28,4"	"48/19"	67
controllo_3	"POPTR_0008s05480.1"	1575	"	"C/G"	"64,4/35,6"	"389/215"	604	stress_12bis	"POPTR_0008s05480.1"	1575	"	"C/G"	"57,5/42,5"	"131/97"	228
controllo_3	"POPTR_0008s05480.1"	1575	"	"C/G"	"64,4/35,6"	"389/215"	604	stress_42	"POPTR_0008s05480.1"	1575	"	"C/G"	"56,8/43,2"	"83/63"	146
controllo_3	"POPTR_0008s05480.1"	1575	"	"C/G"	"64,4/35,6"	"389/215"	604	stress_45	"POPTR_0008s05480.1"	1575	"	"C/G"	"57,1/42,9"	"212/159"	371
controllo_3	"POPTR_0005s11780.1"	165	"	"A/G"	"64,5/35,5"	"100/55"	155	stress_12bis	"POPTR_0005s11780.1"	165	"	"A/G"	"72,4/27,6"	"42/16"	58
controllo_3	"POPTR_0005s11780.1"	165	"	"A/G"	"64,5/35,5"	"100/55"	155	stress_42	"POPTR_0005s11780.1"	165	"	"A/G"	"54,8/45,2"	"40/33"	73
controllo_3	"POPTR_0005s11780.1"	165	"	"A/G"	"64,5/35,5"	"100/55"	155	stress_45	"POPTR_0005s11780.1"	165	"	"G/A"	"55,4/44,6"	"72/58"	130
controllo_3	"POPTR_0017s06920.1"	1509	"	"C/T"	"64,5/35,5"	"983/540"	1523	stress_12bis	"POPTR_0017s06920.1"	1509	"	"C/T"	"66,1/33,9"	"291/149"	440
controllo_3	"POPTR_0017s06920.1"	1509	"	"C/T"	"64,5/35,5"	"983/540"	1523	stress_42	"POPTR_0017s06920.1"	1509	"	"C/T"	"62,5/37,5"	"15/9"	24
controllo_3	"POPTR_0017s06920.1"	1509	"	"C/T"	"64,5/35,5"	"983/540"	1523	stress_45	"POPTR_0017s06920.1"	1509	"	"C/T"	"66,7/33,3"	"8/4"	12
controllo_3	"POPTR_0006s28120.1"	119	"	"T/C"	"64,5/35,5"	"176/97"	273	stress_12bis	"POPTR_0006s28120.1"	119	"	"T/C"	"65,2/34,8"	"86/46"	132
controllo_3	"POPTR_0006s28120.1"	119	"	"T/C"	"64,5/35,5"	"176/97"	273	stress_42	"POPTR_0006s28120.1"	119	"	"C/T"	"53,1/46,9"	"17/15"	32
controllo_3	"POPTR_0006s28120.1"	119	"	"T/C"	"64,5/35,5"	"176/97"	273	stress_45	"POPTR_0006s28120.1"	119	"	"T/C"	"58,9/41,1"	"33/23"	56
controllo_3	"POPTR_0006s13240.1"	663	"	"T/C"	"64,5/35,5"	"140/77"	217	stress_12bis	"POPTR_0006s13240.1"	663	"	"T/C"	"66,7/33,3"	"84/42"	126
controllo_3	"POPTR_0006s13240.1"	663	"	"T/C"	"64,5/35,5"	"140/77"	217	stress_42	"POPTR_0006s13240.1"	663	"	"T/C"	"67,4/32,6"	"31/15"	46
controllo_3	"POPTR_0006s13240.1"	663	"	"T/C"	"64,5/35,5"	"140/77"	217	stress_45	"POPTR_0006s13240.1"	663	"	"T/C"	"63,9/36,1"	"39/22"	61
controllo_3	"POPTR_0018s12270.1"	121	"	"G/A"	"64,5/35,5"	"60/33"	93	stress_12bis	"POPTR_0018s12270.1"	121	"	"G/A"	"76,5/23,5"	"267/82"	349
controllo_3	"POPTR_0018s12270.1"	121	"	"G/A"	"64,5/35,5"	"60/33"	93	stress_42	"POPTR_0018s12270.1"	121	"	"G/A"	"76,4/23,6"	"120/37"	157
controllo_3	"POPTR_0018s12270.1"	121	"	"G/A"	"64,5/35,5"	"60/33"	93	stress_45	"POPTR_0018s12270.1"	121	"	"G/A"	"70,4/29,6"	"107/45"	152
controllo_3	"POPTR_0014s17610.1"	526	"	"G/A"	"64,5/35,5"	"71/39"	110	stress_12bis	"POPTR_0014s17610.1"	526	"	"G/A"	"65,2/34,8"	"30/16"	46
controllo_3	"POPTR_0014s17610.1"	526	"	"G/A"	"64,5/35,5"	"71/39"	110	stress_42	"POPTR_0014s17610.1"	526	"	"A/G"	"61,5/38,5"	"8/5"	13
controllo_3	"POPTR_0014s17610.1"	526	"	"G/A"	"64,5/35,5"	"71/39"	110	stress_45	"POPTR_0014s17610.1"	526	"	"G/A"	"78,3/21,7"	"18/5"	23
controllo_3	"POPTR_0011s17170.1"	42	"	"A/G"	"64,5/35,5"	"356/196"	552	stress_12bis	"POPTR_0011s17170.1"	42	"	"A/G"	"69,4/30,6"	"93/41"	134
controllo_3	"POPTR_0011s17170.1"	42	"	"A/G"	"64,5/35,5"	"356/196"	552	stress_42	"POPTR_0011s17170.1"	42	"	"A/G"	"73,9/26,1"	"34/12"	46
controllo_3	"POPTR_0011s17170.1"	42	"	"A/G"	"64,5/35,5"	"356/196"	552	stress_45	"POPTR_0011s17170.1"	42	"	"A/G"	"59,0/41,0"	"36/25"	61
controllo_3	"POPTR_0001s37480.1"	652	"	"G/A"	"64,5/35,5"	"187/103"	290	stress_12bis	"POPTR_0001s37480.1"	652	"	"G/A"	"70,7/29,3"	"41/17"	58
controllo_3	"POPTR_0001s37480.1"	652	"	"G/A"	"64,5/35,5"	"187/103"	290	stress_42	"POPTR_0001s37480.1"	652	"	"G/A"	"73,2/26,8"	"41/15"	56
controllo_3	"POPTR_0001s37480.1"	652	"	"G/A"	"64,5/35,5"	"187/103"	290	stress_45	"POPTR_0001s37480.1"	652	"	"G/A"	"69,2/30,8"	"74/33"	107
controllo_3	"POPTR_0001s37480.1"	771	"	"T/C"	"64,5/35,5"	"91/50"	141	stress_12bis	"POPTR_0001s37480.1"	771	"	"T/C"	"57,1/42,9"	"20/15"	35
controllo_3	"POPTR_0001s37480.1"	771	"	"T/C"	"64,5/35,5"	"91/50"	141	stress_42	"POPTR_0001s37480.1"	771	"	"T/C"	"55,8/44,2"	"29/23"	52
controllo_3	"POPTR_0001s37480.1"	771	"	"T/C"	"64,5/35,5"	"91/50"	141	stress_45	"POPTR_0001s37480.1"	771	"	"T/C"	"75,9/24,1"	"63/20"	83
controllo_3	"POPTR_0002s08010.1"	2074	"	"A/G"	"64,5/35,5"	"107/59"	166	stress_12bis	"POPTR_0002s08010.1"	2074	"	"A/G"	"56,4/43,6"	"22/17"	39
controllo_3	"POPTR_0002s08010.1"	2074	"	"A/G"	"64,5/35,5"	"107/59"	166	stress_42	"POPTR_0002s08010.1"	2074	"	"A/G"	"61,5/38,5"	"8/5"	13
controllo_3	"POPTR_0002s08010.1"	2074	"	"A/G"	"64,5/35,5"	"107/59"	166	stress_45	"POPTR_0002s08010.1"	2074	"	"A/G"	"75,0/25,0"	"18/6"	24
controllo_3	"POPTR_0008s20590.1"	462	"	"C/T"	"64,5/35,5"	"169/93"	262	stress_12bis	"POPTR_0008s20590.1"	462	"	"C/T"	"57,0/43,0"	"61/46"	107
controllo_3	"POPTR_0008s20590.1"	462	"	"C/T"	"64,5/35,5"	"169/93"	262	stress_42	"POPTR_0008s20590.1"	462	"	"C/T"	"65,5/34,5"	"72/38"	110
controllo_3	"POPTR_0008s20590.1"	462	"	"C/T"	"64,5/35,5"	"169/93"	262	stress_45	"POPTR_0008s20590.1"	462	"	"C/T"	"59,7/40,3"	"77/52"	129
controllo_3	"POPTR_0005s11780.1"	390	"	"G/T"	"64,6/33,1"	"82/42"	127	stress_12bis	"POPTR_0005s11780.1"	390	"	"G/T"	"66,2/32,4"	"45/22"	68
controllo_3	"POPTR_0005s11780.1"	390	"	"G/T"	"64,6/33,1"	"82/42"	127	stress_42	"POPTR_0005s11780.1"	390	"	"G/T"	"49,3/46,5"	"35/33"	71
controllo_3	"POPTR_0005s11780.1"	390	"	"G/T"	"64,6/33,1"	"82/42"	127	stress_45	"POPTR_0005s11780.1"	390	"	"G/T"	"51,5/46,9"	"67/61"	130
controllo_3	"POPTR_0017s06920.1"	1117	"	"G/A"	"64,6/35,4"	"583/320"	903	stress_12bis	"POPTR_0017s06920.1"	1117	"	"G/A"	"68,6/31,4"	"199/91"	290
controllo_3	"POPTR_0006s10250.1"	1236	"	"G/A"	"64,6/35,4"	"93/51"	144	stress_12bis	"POPTR_0006s10250.1"	1236	"	"G/A"	"79,3/20,7"	"23/6"	29
controllo_3	"POPTR_0006s10250.1"	1236	"	"G/A"	"64,6/35,4"	"93/51"	144	stress_42	"POPTR_0006s10250.1"	1236	"	"G/A"	"58,8/41,2"	"10/7"	17
controllo_3	"POPTR_0006s10250.1"	1236	"	"G/A"	"64,6/35,4"	"93/51"	144	stress_45	"POPTR_0006s10250.1"	1236	"	"G/A"	"75,8/24,2"	"25/8"	33
controllo_3	"POPTR_0014s17100.1"	159	"	"A/G"	"64,6/35,4"	"122/67"	189	stress_12bis	"POPTR_0014s17100.1"	159	"	"A/G"	"52,5/47,5"	"21/19"	40
controllo_3	"POPTR_0014s17100.1"	159	"	"A/G"	"64,6/35,4"	"122/67"	189	stress_45	"POPTR_0014s17100.1"	159	"	"A/G"	"72,7/27,3"	"8/3"	11
controllo_3	"POPTR_0014s13430.1"	259	"	"A/G"	"64,6/35,4"	"84/46"	130	stress_12bis	"POPTR_0014s13430.1"	259	"	"A/G"	"73,2/26,8"	"30/11"	41
controllo_3	"POPTR_0014s13430.1"	259	"	"A/G"	"64,6/35,4"	"84/46"	130	stress_42	"POPTR_0014s13430.1"	259	"	"A/G"	"66,7/33,3"	"8/4"	12
controllo_3	"POPTR_0014s13430.1"	259	"	"A/G"	"64,6/35,4"	"84/46"	130	stress_45	"POPTR_0014s13430.1"	259	"	"G/A"	"72,2/27,8"	"13/5"	18
controllo_3	"POPTR_0010s12680.1"	1536	"	"G/A"	"64,6/35,4"	"93/51"	144	stress_12bis	"POPTR_0010s12680.1"	1536	"	"G/A"	"66,0/34,0"	"33/17"	50
controllo_3	"POPTR_0010s12680.1"	1536	"	"G/A"	"64,6/35,4"	"93/51"	144	stress_42	"POPTR_0010s12680.1"	1536	"	"G/A"	"65,9/34,1"	"58/30"	88
controllo_3	"POPTR_0010s12680.1"	1536	"	"G/A"	"64,6/35,4"	"93/51"	144	stress_45	"POPTR_0010s12680.1"	1536	"	"G/A"	"58,2/41,8"	"78/56"	134
controllo_3	"POPTR_0010s21270.1"	837	"	"T/C"	"64,6/35,4"	"113/62"	175	stress_12bis	"POPTR_0010s21270.1"	837	"	"T/C"	"63,8/36,2"	"37/21"	58
controllo_3	"POPTR_0010s21270.1"	837	"	"T/C"	"64,6/35,4"	"113/62"	175	stress_42	"POPTR_0010s21270.1"	837	"	"T/C"	"59,3/40,7"	"16/11"	27
controllo_3	"POPTR_0010s21270.1"	837	"	"T/C"	"64,6/35,4"	"113/62"	175	stress_45	"POPTR_0010s21270.1"	837	"	"T/C"	"70,0/30,0"	"49/21"	70
controllo_3	"POPTR_0008s05640.1"	76	"	"A/G"	"64,6/35,4"	"82/45"	127	stress_12bis	"POPTR_0008s05640.1"	76	"	"A/G"	"63,3/36,7"	"19/11"	30
controllo_3	"POPTR_0008s05640.1"	76	"	"A/G"	"64,6/35,4"	"82/45"	127	stress_42	"POPTR_0008s05640.1"	76	"	"A/G"	"70,6/29,4"	"12/5"	17
controllo_3	"POPTR_0008s05640.1"	76	"	"A/G"	"64,6/35,4"	"82/45"	127	stress_45	"POPTR_0008s05640.1"	76	"	"G/A"	"58,3/41,7"	"14/10"	24
controllo_3	"POPTR_0008s20770.1"	549	"	"G/C"	"64,6/35,4"	"144/79"	223	stress_12bis	"POPTR_0008s20770.1"	549	"	"G/C"	"60,2/39,8"	"53/35"	88
controllo_3	"POPTR_0008s20770.1"	549	"	"G/C"	"64,6/35,4"	"144/79"	223	stress_42	"POPTR_0008s20770.1"	549	"	"C/G"	"72,3/27,7"	"47/18"	65
controllo_3	"POPTR_0008s20770.1"	549	"	"G/C"	"64,6/35,4"	"144/79"	223	stress_45	"POPTR_0008s20770.1"	549	"	"C/G"	"64,8/35,2"	"57/31"	88
controllo_3	"POPTR_0008s05470.1"	1917	"	"T/C"	"64,7/34,6"	"99/53"	153	stress_45	"POPTR_0008s05470.1"	1917	"	"T/C"	"60,8/39,2"	"31/20"	51
controllo_3	"POPTR_0008s19370.1"	834	"	"T/C"	"64,7/35,2"	"1350/735"	2086	stress_12bis	"POPTR_0008s19370.1"	834	"	"T/C"	"65,0/35,0"	"812/437"	1249
controllo_3	"POPTR_0008s19370.1"	834	"	"T/C"	"64,7/35,2"	"1350/735"	2086	stress_42	"POPTR_0008s19370.1"	834	"	"T/C"	"76,1/23,9"	"70/22"	92
controllo_3	"POPTR_0008s19370.1"	834	"	"T/C"	"64,7/35,2"	"1350/735"	2086	stress_45	"POPTR_0008s19370.1"	834	"	"T/C"	"75,6/24,4"	"59/19"	78
controllo_3	"POPTR_0005s25540.1"	279	"	"C/T"	"64,7/35,3"	"344/188"	532	stress_12bis	"POPTR_0005s25540.1"	279	"	"C/T"	"83,8/16,2"	"57/11"	68
controllo_3	"POPTR_0005s25540.1"	279	"	"C/T"	"64,7/35,3"	"344/188"	532	stress_42	"POPTR_0005s25540.1"	279	"	"C/T"	"83,3/16,7"	"25/5"	30
controllo_3	"POPTR_0013s03320.1"	134	"	"G/A"	"64,7/35,3"	"220/120"	340	stress_12bis	"POPTR_0013s03320.1"	134	"	"G/A"	"77,5/22,5"	"31/9"	40
controllo_3	"POPTR_0013s03320.1"	134	"	"G/A"	"64,7/35,3"	"220/120"	340	stress_45	"POPTR_0013s03320.1"	134	"	"G/A"	"66,4/33,6"	"87/44"	131
controllo_3	"POPTR_0014s13560.1"	2022	"	"T/C"	"64,7/35,3"	"303/165"	468	stress_12bis	"POPTR_0014s13560.1"	2022	"	"T/C"	"66,3/33,7"	"108/55"	163
controllo_3	"POPTR_0014s13560.1"	2022	"	"T/C"	"64,7/35,3"	"303/165"	468	stress_42	"POPTR_0014s13560.1"	2022	"	"T/C"	"74,0/26,0"	"77/27"	104
controllo_3	"POPTR_0014s13560.1"	2022	"	"T/C"	"64,7/35,3"	"303/165"	468	stress_45	"POPTR_0014s13560.1"	2022	"	"T/C"	"64,7/35,3"	"75/41"	116
controllo_3	"POPTR_0004s08380.1"	99	"	"A/G"	"64,7/35,3"	"875/477"	1352	stress_12bis	"POPTR_0004s08380.1"	99	"	"A/G"	"66,8/33,2"	"233/116"	349
controllo_3	"POPTR_0004s08380.1"	99	"	"A/G"	"64,7/35,3"	"875/477"	1352	stress_42	"POPTR_0004s08380.1"	99	"	"A/G"	"63,3/36,7"	"31/18"	49
controllo_3	"POPTR_0004s08380.1"	99	"	"A/G"	"64,7/35,3"	"875/477"	1352	stress_45	"POPTR_0004s08380.1"	99	"	"A/G"	"60,4/39,6"	"32/21"	53
controllo_3	"POPTR_0004s00480.1"	261	"	"T/G"	"64,7/35,3"	"187/102"	289	stress_12bis	"POPTR_0004s00480.1"	261	"	"T/G"	"52,8/46,5"	"76/67"	144
controllo_3	"POPTR_0004s00480.1"	261	"	"T/G"	"64,7/35,3"	"187/102"	289	stress_42	"POPTR_0004s00480.1"	261	"	"T/G"	"63,1/36,9"	"53/31"	84
controllo_3	"POPTR_0004s00480.1"	261	"	"T/G"	"64,7/35,3"	"187/102"	289	stress_45	"POPTR_0004s00480.1"	261	"	"T/G"	"55,0/45,0"	"66/54"	120
controllo_3	"POPTR_0010s21270.1"	948	"	"T/C"	"64,7/35,3"	"187/102"	289	stress_12bis	"POPTR_0010s21270.1"	948	"	"T/C"	"67,7/32,3"	"84/40"	124
controllo_3	"POPTR_0010s21270.1"	948	"	"T/C"	"64,7/35,3"	"187/102"	289	stress_42	"POPTR_0010s21270.1"	948	"	"T/C"	"78,1/21,9"	"25/7"	32
controllo_3	"POPTR_0010s21270.1"	948	"	"T/C"	"64,7/35,3"	"187/102"	289	stress_45	"POPTR_0010s21270.1"	948	"	"T/C"	"72,1/27,9"	"75/29"	104
controllo_3	"POPTR_0002s21420.1"	1762	"	"G/A"	"64,7/35,3"	"66/36"	102	stress_12bis	"POPTR_0002s21420.1"	1762	"	"G/A"	"63,6/36,4"	"21/12"	33
controllo_3	"POPTR_0002s21420.1"	1762	"	"G/A"	"64,7/35,3"	"66/36"	102	stress_42	"POPTR_0002s21420.1"	1762	"	"G/A"	"58,6/41,4"	"17/12"	29
controllo_3	"POPTR_0002s21420.1"	1762	"	"G/A"	"64,7/35,3"	"66/36"	102	stress_45	"POPTR_0002s21420.1"	1762	"	"G/A"	"52,1/47,9"	"25/23"	48
controllo_3	"POPTR_0002s08010.1"	286	"	"G/A"	"64,7/35,3"	"101/55"	156	stress_12bis	"POPTR_0002s08010.1"	286	"	"G/A"	"55,6/44,4"	"15/12"	27
controllo_3	"POPTR_0002s08010.1"	286	"	"G/A"	"64,7/35,3"	"101/55"	156	stress_45	"POPTR_0002s08010.1"	286	"	"G/A"	"64,7/35,3"	"11/6"	17
controllo_3	"POPTR_0008s20950.1"	62	"	"C/A"	"64,7/35,3"	"75/41"	116	stress_12bis	"POPTR_0008s20950.1"	62	"	"C/A"	"73,5/26,5"	"25/9"	34
controllo_3	"POPTR_0008s20950.1"	62	"	"C/A"	"64,7/35,3"	"75/41"	116	stress_42	"POPTR_0008s20950.1"	62	"	"C/A"	"61,5/38,5"	"8/5"	13
controllo_3	"POPTR_0008s20950.1"	62	"	"C/A"	"64,7/35,3"	"75/41"	116	stress_45	"POPTR_0008s20950.1"	62	"	"C/A"	"71,4/28,6"	"10/4"	14
controllo_3	"POPTR_0008s12000.1"	219	"	"T/A"	"64,7/35,3"	"88/48"	136	stress_12bis	"POPTR_0008s12000.1"	219	"	"T/A"	"59,6/40,4"	"28/19"	47
controllo_3	"POPTR_0008s12000.1"	219	"	"T/A"	"64,7/35,3"	"88/48"	136	stress_42	"POPTR_0008s12000.1"	219	"	"T/A"	"57,9/42,1"	"11/8"	19
controllo_3	"POPTR_0008s12000.1"	219	"	"T/A"	"64,7/35,3"	"88/48"	136	stress_45	"POPTR_0008s12000.1"	219	"	"T/A"	"52,6/47,4"	"10/9"	19
controllo_3	"POPTR_0005s11780.1"	81	"	"A/T"	"64,8/32,0"	"79/39"	122	stress_42	"POPTR_0005s11780.1"	81	"	"A/T"	"62,8/37,2"	"27/16"	43
controllo_3	"POPTR_0005s11780.1"	81	"	"A/T"	"64,8/32,0"	"79/39"	122	stress_45	"POPTR_0005s11780.1"	81	"	"A/T"	"54,9/45,1"	"50/41"	91
controllo_3	"POPTR_0005s11780.1"	615	"	"T/C"	"64,8/34,5"	"92/49"	142	stress_12bis	"POPTR_0005s11780.1"	615	"	"T/C"	"64,4/35,6"	"47/26"	73
controllo_3	"POPTR_0005s11780.1"	615	"	"T/C"	"64,8/34,5"	"92/49"	142	stress_42	"POPTR_0005s11780.1"	615	"	"T/C"	"52,8/47,2"	"57/51"	108
controllo_3	"POPTR_0005s11780.1"	615	"	"T/C"	"64,8/34,5"	"92/49"	142	stress_45	"POPTR_0005s11780.1"	615	"	"T/C"	"53,6/46,4"	"75/65"	140
controllo_3	"POPTR_0005s27240.1"	1151	"	"G/A"	"64,8/35,2"	"81/44"	125	stress_12bis	"POPTR_0005s27240.1"	1151	"	"G/A"	"72,0/28,0"	"67/26"	93
controllo_3	"POPTR_0005s27240.1"	1151	"	"G/A"	"64,8/35,2"	"81/44"	125	stress_42	"POPTR_0005s27240.1"	1151	"	"G/A"	"60,7/39,3"	"17/11"	28
controllo_3	"POPTR_0005s27240.1"	1151	"	"G/A"	"64,8/35,2"	"81/44"	125	stress_45	"POPTR_0005s27240.1"	1151	"	"G/A"	"63,6/36,4"	"28/16"	44
controllo_3	"POPTR_0006s13310.1"	606	"	"C/T"	"64,8/35,2"	"278/151"	429	stress_12bis	"POPTR_0006s13310.1"	606	"	"C/T"	"72,9/26,8"	"272/100"	373
controllo_3	"POPTR_0006s13310.1"	606	"	"C/T"	"64,8/35,2"	"278/151"	429	stress_42	"POPTR_0006s13310.1"	606	"	"C/T"	"64,7/35,3"	"154/84"	238
controllo_3	"POPTR_0006s13310.1"	606	"	"C/T"	"64,8/35,2"	"278/151"	429	stress_45	"POPTR_0006s13310.1"	606	"	"C/T"	"65,4/34,0"	"250/130"	382
controllo_3	"POPTR_0018s08790.1"	1141	"	"T/G"	"64,8/35,2"	"68/37"	105	stress_12bis	"POPTR_0018s08790.1"	1141	"	"G/T"	"50,0/50,0"	"14/14"	28
controllo_3	"POPTR_0018s08790.1"	1141	"	"T/G"	"64,8/35,2"	"68/37"	105	stress_42	"POPTR_0018s08790.1"	1141	"	"G/T"	"65,0/35,0"	"13/7"	20
controllo_3	"POPTR_0018s08790.1"	1141	"	"T/G"	"64,8/35,2"	"68/37"	105	stress_45	"POPTR_0018s08790.1"	1141	"	"T/G"	"52,5/47,5"	"21/19"	40
controllo_3	"POPTR_0003s12160.1"	828	"	"A/T"	"64,8/35,2"	"225/122"	347	stress_12bis	"POPTR_0003s12160.1"	828	"	"A/T"	"61,5/38,5"	"59/37"	96
controllo_3	"POPTR_0003s12160.1"	828	"	"A/T"	"64,8/35,2"	"225/122"	347	stress_42	"POPTR_0003s12160.1"	828	"	"T/A"	"52,4/47,6"	"11/10"	21
controllo_3	"POPTR_0003s12160.1"	828	"	"A/T"	"64,8/35,2"	"225/122"	347	stress_45	"POPTR_0003s12160.1"	828	"	"A/T"	"57,1/42,9"	"20/15"	35
controllo_3	"POPTR_0003s21190.1"	189	"	"G/T"	"64,8/35,2"	"68/37"	105	stress_12bis	"POPTR_0003s21190.1"	189	"	"G/T"	"72,1/27,9"	"31/12"	43
controllo_3	"POPTR_0003s01090.1"	225	"	"C/T"	"64,8/35,2"	"272/148"	420	stress_12bis	"POPTR_0003s01090.1"	225	"	"C/T"	"67,1/32,9"	"96/47"	143
controllo_3	"POPTR_0003s01090.1"	225	"	"C/T"	"64,8/35,2"	"272/148"	420	stress_42	"POPTR_0003s01090.1"	225	"	"C/T"	"63,9/36,1"	"76/43"	119
controllo_3	"POPTR_0003s01090.1"	225	"	"C/T"	"64,8/35,2"	"272/148"	420	stress_45	"POPTR_0003s01090.1"	225	"	"C/T"	"66,1/33,9"	"80/41"	121
controllo_3	"POPTR_0014s06820.1"	1449	"	"G/A"	"64,8/35,2"	"79/43"	122	stress_12bis	"POPTR_0014s06820.1"	1449	"	"A/G"	"51,0/49,0"	"26/25"	51
controllo_3	"POPTR_0014s06820.1"	1449	"	"G/A"	"64,8/35,2"	"79/43"	122	stress_42	"POPTR_0014s06820.1"	1449	"	"A/G"	"50,0/50,0"	"14/14"	28
controllo_3	"POPTR_0014s06820.1"	1449	"	"G/A"	"64,8/35,2"	"79/43"	122	stress_45	"POPTR_0014s06820.1"	1449	"	"A/G"	"77,8/22,2"	"14/4"	18
controllo_3	"POPTR_0004s01950.1"	120	"	"A/G"	"64,8/35,2"	"199/108"	307	stress_12bis	"POPTR_0004s01950.1"	120	"	"G/A"	"56,2/43,8"	"9/7"	16
controllo_3	"POPTR_0009s09580.1"	503	"	"T/C"	"64,8/35,2"	"68/37"	105	stress_12bis	"POPTR_0009s09580.1"	503	"	"C/T"	"56,7/43,3"	"17/13"	30
controllo_3	"POPTR_0009s09580.1"	503	"	"T/C"	"64,8/35,2"	"68/37"	105	stress_45	"POPTR_0009s09580.1"	503	"	"C/T"	"53,3/46,7"	"8/7"	15
controllo_3	"POPTR_0007s12010.1"	107	"	"C/G"	"64,8/35,2"	"70/38"	108	stress_12bis	"POPTR_0007s12010.1"	107	"	"C/G"	"61,1/38,9"	"22/14"	36
controllo_3	"POPTR_0007s12010.1"	107	"	"C/G"	"64,8/35,2"	"70/38"	108	stress_45	"POPTR_0007s12010.1"	107	"	"C/G"	"76,5/23,5"	"13/4"	17
controllo_3	"POPTR_0008s04270.1"	747	"	"A/T"	"64,8/35,2"	"46/25"	71	stress_45	"POPTR_0008s04270.1"	747	"	"A/T"	"76,2/22,8"	"77/23"	101
controllo_3	"POPTR_0007s12070.1"	846	"	"C/T"	"64,9/34,9"	"375/202"	578	stress_12bis	"POPTR_0007s12070.1"	846	"	"C/T"	"69,2/30,8"	"180/80"	260
controllo_3	"POPTR_0007s12070.1"	846	"	"C/T"	"64,9/34,9"	"375/202"	578	stress_42	"POPTR_0007s12070.1"	846	"	"C/T"	"61,9/38,1"	"39/24"	63
controllo_3	"POPTR_0007s12070.1"	846	"	"C/T"	"64,9/34,9"	"375/202"	578	stress_45	"POPTR_0007s12070.1"	846	"	"T/C"	"51,6/48,4"	"32/30"	62
controllo_3	"POPTR_0018s09030.1"	87	"	"A/G"	"64,9/35,1"	"150/81"	231	stress_12bis	"POPTR_0018s09030.1"	87	"	"A/G"	"75,9/24,1"	"82/26"	108
controllo_3	"POPTR_0018s09030.1"	87	"	"A/G"	"64,9/35,1"	"150/81"	231	stress_42	"POPTR_0018s09030.1"	87	"	"A/G"	"55,8/44,2"	"63/50"	113
controllo_3	"POPTR_0018s09030.1"	87	"	"A/G"	"64,9/35,1"	"150/81"	231	stress_45	"POPTR_0018s09030.1"	87	"	"A/G"	"57,3/42,7"	"63/47"	110
controllo_3	"POPTR_0018s01420.1"	576	"	"C/T"	"64,9/35,1"	"120/65"	185	stress_12bis	"POPTR_0018s01420.1"	576	"	"C/T"	"64,4/35,6"	"56/31"	87
controllo_3	"POPTR_0018s01420.1"	576	"	"C/T"	"64,9/35,1"	"120/65"	185	stress_42	"POPTR_0018s01420.1"	576	"	"C/T"	"73,8/26,2"	"62/22"	84
controllo_3	"POPTR_0018s01420.1"	576	"	"C/T"	"64,9/35,1"	"120/65"	185	stress_45	"POPTR_0018s01420.1"	576	"	"C/T"	"58,2/41,8"	"85/61"	146
controllo_3	"POPTR_0014s09800.1"	462	"	"A/G"	"64,9/35,1"	"133/72"	205	stress_12bis	"POPTR_0014s09800.1"	462	"	"A/G"	"54,9/45,1"	"39/32"	71
controllo_3	"POPTR_0014s09800.1"	462	"	"A/G"	"64,9/35,1"	"133/72"	205	stress_42	"POPTR_0014s09800.1"	462	"	"A/G"	"72,7/27,3"	"8/3"	11
controllo_3	"POPTR_0014s09800.1"	462	"	"A/G"	"64,9/35,1"	"133/72"	205	stress_45	"POPTR_0014s09800.1"	462	"	"A/G"	"80,0/20,0"	"8/2"	10
controllo_3	"POPTR_0014s02550.1"	864	"	"G/A"	"64,9/35,1"	"85/46"	131	stress_12bis	"POPTR_0014s02550.1"	864	"	"G/A"	"69,2/30,8"	"27/12"	39
controllo_3	"POPTR_0014s02550.1"	864	"	"G/A"	"64,9/35,1"	"85/46"	131	stress_42	"POPTR_0014s02550.1"	864	"	"G/A"	"64,4/35,6"	"29/16"	45
controllo_3	"POPTR_0014s02550.1"	864	"	"G/A"	"64,9/35,1"	"85/46"	131	stress_45	"POPTR_0014s02550.1"	864	"	"G/A"	"65,0/35,0"	"52/28"	80
controllo_3	"POPTR_0012s08780.1"	176	"	"G/C"	"64,9/35,1"	"120/65"	185	stress_12bis	"POPTR_0012s08780.1"	176	"	"G/C"	"58,3/41,7"	"28/20"	48
controllo_3	"POPTR_0012s08780.1"	176	"	"G/C"	"64,9/35,1"	"120/65"	185	stress_42	"POPTR_0012s08780.1"	176	"	"G/C"	"71,1/28,9"	"32/13"	45
controllo_3	"POPTR_0012s08780.1"	176	"	"G/C"	"64,9/35,1"	"120/65"	185	stress_45	"POPTR_0012s08780.1"	176	"	"G/C"	"69,6/30,4"	"16/7"	23
controllo_3	"POPTR_0011s02610.1"	603	"	"T/C"	"64,9/35,1"	"87/47"	134	stress_12bis	"POPTR_0011s02610.1"	603	"	"T/C"	"51,7/48,3"	"15/14"	29
controllo_3	"POPTR_0011s02610.1"	603	"	"T/C"	"64,9/35,1"	"87/47"	134	stress_45	"POPTR_0011s02610.1"	603	"	"C/T"	"57,1/42,9"	"8/6"	14
controllo_3	"POPTR_0010s16860.1"	201	"	"A/G"	"64,9/35,1"	"602/325"	927	stress_12bis	"POPTR_0010s16860.1"	201	"	"A/G"	"70,3/29,7"	"392/166"	558
controllo_3	"POPTR_0010s16860.1"	201	"	"A/G"	"64,9/35,1"	"602/325"	927	stress_42	"POPTR_0010s16860.1"	201	"	"A/G"	"74,0/26,0"	"37/13"	50
controllo_3	"POPTR_0010s16860.1"	201	"	"A/G"	"64,9/35,1"	"602/325"	927	stress_45	"POPTR_0010s16860.1"	201	"	"A/G"	"72,4/27,6"	"42/16"	58
controllo_3	"POPTR_0010s17400.1"	387	"	"C/T"	"64,9/35,1"	"87/47"	134	stress_45	"POPTR_0010s17400.1"	387	"	"C/T"	"84,6/15,4"	"11/2"	13
controllo_3	"POPTR_0007s14390.1"	645	"	"C/T"	"64,9/35,1"	"131/71"	202	stress_12bis	"POPTR_0007s14390.1"	645	"	"C/T"	"55,4/44,6"	"31/25"	56
controllo_3	"POPTR_0007s14390.1"	645	"	"C/T"	"64,9/35,1"	"131/71"	202	stress_42	"POPTR_0007s14390.1"	645	"	"C/T"	"59,1/40,9"	"13/9"	22
controllo_3	"POPTR_0007s14390.1"	645	"	"C/T"	"64,9/35,1"	"131/71"	202	stress_45	"POPTR_0007s14390.1"	645	"	"T/C"	"63,3/36,7"	"19/11"	30
controllo_3	"POPTR_0002s07020.1"	141	"	"T/C"	"64,9/35,1"	"72/39"	111	stress_12bis	"POPTR_0002s07020.1"	141	"	"T/C"	"55,3/44,7"	"21/17"	38
controllo_3	"POPTR_0002s07020.1"	141	"	"T/C"	"64,9/35,1"	"72/39"	111	stress_42	"POPTR_0002s07020.1"	141	"	"T/C"	"52,6/47,4"	"10/9"	19
controllo_3	"POPTR_0002s07020.1"	141	"	"T/C"	"64,9/35,1"	"72/39"	111	stress_45	"POPTR_0002s07020.1"	141	"	"T/C"	"57,7/42,3"	"30/22"	52
controllo_3	"POPTR_0016s12260.1"	675	"	"C/T"	"64,9/35,1"	"148/80"	228	stress_12bis	"POPTR_0016s12260.1"	675	"	"C/T"	"63,6/36,4"	"49/28"	77
controllo_3	"POPTR_0016s12260.1"	675	"	"C/T"	"64,9/35,1"	"148/80"	228	stress_42	"POPTR_0016s12260.1"	675	"	"C/T"	"59,6/40,4"	"28/19"	47
controllo_3	"POPTR_0016s12260.1"	675	"	"C/T"	"64,9/35,1"	"148/80"	228	stress_45	"POPTR_0016s12260.1"	675	"	"C/T"	"72,1/27,9"	"31/12"	43
controllo_3	"POPTR_0008s06580.1"	675	"	"C/G"	"65,0/34,8"	"508/272"	781	stress_12bis	"POPTR_0008s06580.1"	675	"	"G/C"	"53,4/46,6"	"55/48"	103
controllo_3	"POPTR_0008s06580.1"	675	"	"C/G"	"65,0/34,8"	"508/272"	781	stress_42	"POPTR_0008s06580.1"	675	"	"C/G"	"58,6/41,4"	"320/226"	546
controllo_3	"POPTR_0008s06580.1"	675	"	"C/G"	"65,0/34,8"	"508/272"	781	stress_45	"POPTR_0008s06580.1"	675	"	"C/G"	"59,3/40,7"	"399/274"	673
controllo_3	"POPTR_0005s11780.1"	453	"	"T/A"	"65,0/35,0"	"76/41"	117	stress_12bis	"POPTR_0005s11780.1"	453	"	"T/A"	"58,3/41,7"	"21/15"	36
controllo_3	"POPTR_0005s11780.1"	453	"	"T/A"	"65,0/35,0"	"76/41"	117	stress_42	"POPTR_0005s11780.1"	453	"	"T/A"	"63,4/36,6"	"45/26"	71
controllo_3	"POPTR_0005s11780.1"	453	"	"T/A"	"65,0/35,0"	"76/41"	117	stress_45	"POPTR_0005s11780.1"	453	"	"T/A"	"55,4/43,6"	"56/44"	101
controllo_3	"POPTR_0005s04090.1"	196	"	"G/C"	"65,0/35,0"	"130/70"	200	stress_12bis	"POPTR_0005s04090.1"	196	"	"G/C"	"64,6/35,4"	"31/17"	48
controllo_3	"POPTR_0005s04090.1"	196	"	"G/C"	"65,0/35,0"	"130/70"	200	stress_42	"POPTR_0005s04090.1"	196	"	"G/C"	"67,9/28,6"	"19/8"	28
controllo_3	"POPTR_0005s04090.1"	196	"	"G/C"	"65,0/35,0"	"130/70"	200	stress_45	"POPTR_0005s04090.1"	196	"	"G/C"	"74,2/25,8"	"23/8"	31
controllo_3	"POPTR_0005s21750.1"	225	"	"T/C"	"65,0/35,0"	"117/63"	180	stress_12bis	"POPTR_0005s21750.1"	225	"	"C/T"	"53,4/46,6"	"47/41"	88
controllo_3	"POPTR_0005s21750.1"	225	"	"T/C"	"65,0/35,0"	"117/63"	180	stress_42	"POPTR_0005s21750.1"	225	"	"C/T"	"57,9/42,1"	"44/32"	76
controllo_3	"POPTR_0005s21750.1"	225	"	"T/C"	"65,0/35,0"	"117/63"	180	stress_45	"POPTR_0005s21750.1"	225	"	"C/T"	"61,3/38,7"	"57/36"	93
controllo_3	"POPTR_0005s21750.1"	367	"	"G/A"	"65,0/35,0"	"115/62"	177	stress_12bis	"POPTR_0005s21750.1"	367	"	"A/G"	"58,1/41,9"	"54/39"	93
controllo_3	"POPTR_0005s21750.1"	367	"	"G/A"	"65,0/35,0"	"115/62"	177	stress_42	"POPTR_0005s21750.1"	367	"	"A/G"	"58,1/41,9"	"54/39"	93
controllo_3	"POPTR_0005s21750.1"	367	"	"G/A"	"65,0/35,0"	"115/62"	177	stress_45	"POPTR_0005s21750.1"	367	"	"A/G"	"55,6/44,4"	"60/48"	108
controllo_3	"POPTR_0006s04230.1"	465	"	"C/T"	"65,0/35,0"	"102/55"	157	stress_12bis	"POPTR_0006s04230.1"	465	"	"C/T"	"52,2/47,8"	"48/44"	92
controllo_3	"POPTR_0006s04230.1"	465	"	"C/T"	"65,0/35,0"	"102/55"	157	stress_42	"POPTR_0006s04230.1"	465	"	"T/C"	"51,3/48,7"	"20/19"	39
controllo_3	"POPTR_0006s04230.1"	465	"	"C/T"	"65,0/35,0"	"102/55"	157	stress_45	"POPTR_0006s04230.1"	465	"	"C/T"	"55,2/44,8"	"37/30"	67
controllo_3	"POPTR_0006s13000.1"	481	"	"G/A"	"65,0/35,0"	"115/62"	177	stress_45	"POPTR_0006s13000.1"	481	"	"G/A"	"55,8/44,2"	"24/19"	43
controllo_3	"POPTR_0013s07150.1"	2368	"	"A/T"	"65,0/35,0"	"104/56"	160	stress_12bis	"POPTR_0013s07150.1"	2368	"	"A/T"	"54,1/45,9"	"20/17"	37
controllo_3	"POPTR_0013s07150.1"	2368	"	"A/T"	"65,0/35,0"	"104/56"	160	stress_42	"POPTR_0013s07150.1"	2368	"	"A/T"	"60,0/40,0"	"12/8"	20
controllo_3	"POPTR_0013s07150.1"	2368	"	"A/T"	"65,0/35,0"	"104/56"	160	stress_45	"POPTR_0013s07150.1"	2368	"	"A/T"	"81,8/18,2"	"18/4"	22
controllo_3	"POPTR_0013s01080.1"	801	"	"C/T"	"65,0/35,0"	"93/50"	143	stress_12bis	"POPTR_0013s01080.1"	801	"	"C/T"	"57,4/42,6"	"31/23"	54
controllo_3	"POPTR_0013s01080.1"	801	"	"C/T"	"65,0/35,0"	"93/50"	143	stress_42	"POPTR_0013s01080.1"	801	"	"C/T"	"63,2/36,8"	"12/7"	19
controllo_3	"POPTR_0013s01080.1"	801	"	"C/T"	"65,0/35,0"	"93/50"	143	stress_45	"POPTR_0013s01080.1"	801	"	"C/T"	"63,6/36,4"	"14/8"	22
controllo_3	"POPTR_0014s15960.1"	921	"	"T/C"	"65,0/35,0"	"26/14"	40	stress_42	"POPTR_0014s15960.1"	921	"	"C/T"	"61,1/38,9"	"176/112"	288
controllo_3	"POPTR_0014s15960.1"	921	"	"T/C"	"65,0/35,0"	"26/14"	40	stress_45	"POPTR_0014s15960.1"	921	"	"C/T"	"63,6/36,4"	"117/67"	184
controllo_3	"POPTR_0004s07280.1"	1101	"	"G/T"	"65,0/35,0"	"80/43"	123	stress_12bis	"POPTR_0004s07280.1"	1101	"	"G/T"	"63,2/36,8"	"36/21"	57
controllo_3	"POPTR_0004s07280.1"	1101	"	"G/T"	"65,0/35,0"	"80/43"	123	stress_42	"POPTR_0004s07280.1"	1101	"	"G/T"	"73,8/26,2"	"31/11"	42
controllo_3	"POPTR_0004s07280.1"	1101	"	"G/T"	"65,0/35,0"	"80/43"	123	stress_45	"POPTR_0004s07280.1"	1101	"	"G/T"	"65,9/34,1"	"29/15"	44
controllo_3	"POPTR_0009s06690.1"	1140	"	"C/T"	"65,0/35,0"	"78/42"	120	stress_12bis	"POPTR_0009s06690.1"	1140	"	"C/T"	"53,8/46,2"	"14/12"	26
controllo_3	"POPTR_0009s06690.1"	1140	"	"C/T"	"65,0/35,0"	"78/42"	120	stress_42	"POPTR_0009s06690.1"	1140	"	"C/T"	"66,7/33,3"	"40/20"	60
controllo_3	"POPTR_0009s06690.1"	1140	"	"C/T"	"65,0/35,0"	"78/42"	120	stress_45	"POPTR_0009s06690.1"	1140	"	"C/T"	"62,5/37,5"	"60/36"	96
controllo_3	"POPTR_0011s09370.1"	4346	"	"A/C"	"65,0/35,0"	"89/48"	137	stress_12bis	"POPTR_0011s09370.1"	4346	"	"A/C"	"71,1/28,9"	"27/11"	38
controllo_3	"POPTR_0011s09370.1"	4346	"	"A/C"	"65,0/35,0"	"89/48"	137	stress_42	"POPTR_0011s09370.1"	4346	"	"A/C"	"66,7/33,3"	"14/7"	21
controllo_3	"POPTR_0011s09370.1"	4346	"	"A/C"	"65,0/35,0"	"89/48"	137	stress_45	"POPTR_0011s09370.1"	4346	"	"A/C"	"63,9/36,1"	"23/13"	36
controllo_3	"POPTR_0010s20060.1"	63	"	"A/T"	"65,0/35,0"	"115/62"	177	stress_12bis	"POPTR_0010s20060.1"	63	"	"A/T"	"61,6/38,4"	"45/28"	73
controllo_3	"POPTR_0010s20060.1"	63	"	"A/T"	"65,0/35,0"	"115/62"	177	stress_42	"POPTR_0010s20060.1"	63	"	"A/T"	"72,2/27,8"	"13/5"	18
controllo_3	"POPTR_0010s20060.1"	63	"	"A/T"	"65,0/35,0"	"115/62"	177	stress_45	"POPTR_0010s20060.1"	63	"	"A/T"	"63,2/36,8"	"12/7"	19
controllo_3	"POPTR_0007s14390.1"	1135	"	"C/T"	"65,0/35,0"	"158/85"	243	stress_12bis	"POPTR_0007s14390.1"	1135	"	"T/C"	"60,4/39,6"	"32/21"	53
controllo_3	"POPTR_0007s14390.1"	1135	"	"C/T"	"65,0/35,0"	"158/85"	243	stress_42	"POPTR_0007s14390.1"	1135	"	"C/T"	"68,8/31,2"	"33/15"	48
controllo_3	"POPTR_0007s14390.1"	1135	"	"C/T"	"65,0/35,0"	"158/85"	243	stress_45	"POPTR_0007s14390.1"	1135	"	"C/T"	"57,1/42,9"	"36/27"	63
controllo_3	"POPTR_0007s13800.1"	528	"	"A/G"	"65,0/35,0"	"178/96"	274	stress_12bis	"POPTR_0007s13800.1"	528	"	"A/G"	"65,6/34,4"	"21/11"	32
controllo_3	"POPTR_0008s13780.1"	447	"	"T/C"	"65,0/35,0"	"152/82"	234	stress_12bis	"POPTR_0008s13780.1"	447	"	"T/C"	"53,3/46,7"	"16/14"	30
controllo_3	"POPTR_0008s13780.1"	447	"	"T/C"	"65,0/35,0"	"152/82"	234	stress_42	"POPTR_0008s13780.1"	447	"	"T/C"	"65,0/35,0"	"13/7"	20
controllo_3	"POPTR_0008s13780.1"	447	"	"T/C"	"65,0/35,0"	"152/82"	234	stress_45	"POPTR_0008s13780.1"	447	"	"T/C"	"70,6/29,4"	"12/5"	17
controllo_3	"POPTR_0008s20370.1"	576	"	"A/G"	"65,0/35,0"	"167/90"	257	stress_12bis	"POPTR_0008s20370.1"	576	"	"A/G"	"80,8/19,2"	"42/10"	52
controllo_3	"POPTR_0008s20370.1"	576	"	"A/G"	"65,0/35,0"	"167/90"	257	stress_42	"POPTR_0008s20370.1"	576	"	"A/G"	"66,7/33,3"	"68/34"	102
controllo_3	"POPTR_0008s20370.1"	576	"	"A/G"	"65,0/35,0"	"167/90"	257	stress_45	"POPTR_0008s20370.1"	576	"	"A/G"	"62,5/37,5"	"60/36"	96
controllo_3	"POPTR_0018s09030.1"	268	"	"A/C"	"65,1/34,4"	"127/67"	195	stress_12bis	"POPTR_0018s09030.1"	268	"	"A/C"	"72,2/27,8"	"91/35"	126
controllo_3	"POPTR_0018s09030.1"	268	"	"A/C"	"65,1/34,4"	"127/67"	195	stress_42	"POPTR_0018s09030.1"	268	"	"C/A"	"50,7/49,3"	"73/71"	144
controllo_3	"POPTR_0018s09030.1"	268	"	"A/C"	"65,1/34,4"	"127/67"	195	stress_45	"POPTR_0018s09030.1"	268	"	"A/C"	"58,5/39,6"	"62/42"	106
controllo_3	"POPTR_0014s13560.1"	1491	"	"T/C"	"65,1/34,6"	"265/141"	407	stress_12bis	"POPTR_0014s13560.1"	1491	"	"T/C"	"73,8/26,2"	"107/38"	145
controllo_3	"POPTR_0014s13560.1"	1491	"	"T/C"	"65,1/34,6"	"265/141"	407	stress_42	"POPTR_0014s13560.1"	1491	"	"T/C"	"75,7/22,4"	"81/24"	107
controllo_3	"POPTR_0014s13560.1"	1491	"	"T/C"	"65,1/34,6"	"265/141"	407	stress_45	"POPTR_0014s13560.1"	1491	"	"T/C"	"66,3/33,7"	"65/33"	98
controllo_3	"POPTR_0005s25850.1"	182	"	"T/C"	"65,1/34,9"	"84/45"	129	stress_12bis	"POPTR_0005s25850.1"	182	"	"C/T"	"72,7/27,3"	"8/3"	11
controllo_3	"POPTR_0006s06180.1"	40	"	"C/T"	"65,1/34,9"	"82/44"	126	stress_12bis	"POPTR_0006s06180.1"	40	"	"C/T"	"66,7/33,3"	"34/17"	51
controllo_3	"POPTR_0006s06180.1"	40	"	"C/T"	"65,1/34,9"	"82/44"	126	stress_45	"POPTR_0006s06180.1"	40	"	"C/T"	"79,1/20,9"	"34/9"	43
controllo_3	"POPTR_0003s20870.1"	189	"	"G/C"	"65,1/34,9"	"82/44"	126	stress_12bis	"POPTR_0003s20870.1"	189	"	"G/C"	"71,4/28,6"	"30/12"	42
controllo_3	"POPTR_0003s20870.1"	189	"	"G/C"	"65,1/34,9"	"82/44"	126	stress_45	"POPTR_0003s20870.1"	189	"	"G/C"	"71,9/28,1"	"23/9"	32
controllo_3	"POPTR_0009s13210.1"	723	"	"A/T"	"65,1/34,9"	"71/38"	109	stress_12bis	"POPTR_0009s13210.1"	723	"	"A/T"	"65,5/31,0"	"19/9"	29
controllo_3	"POPTR_0009s13210.1"	723	"	"A/T"	"65,1/34,9"	"71/38"	109	stress_45	"POPTR_0009s13210.1"	723	"	"A/T"	"73,3/26,7"	"11/4"	15
controllo_3	"POPTR_0009s05840.1"	63	"	"C/T"	"65,1/34,9"	"71/38"	109	stress_12bis	"POPTR_0009s05840.1"	63	"	"C/T"	"73,3/26,7"	"11/4"	15
controllo_3	"POPTR_0009s05840.1"	63	"	"C/T"	"65,1/34,9"	"71/38"	109	stress_42	"POPTR_0009s05840.1"	63	"	"C/T"	"71,4/28,6"	"30/12"	42
controllo_3	"POPTR_0009s05840.1"	63	"	"C/T"	"65,1/34,9"	"71/38"	109	stress_45	"POPTR_0009s05840.1"	63	"	"C/T"	"71,1/28,9"	"54/22"	76
controllo_3	"POPTR_0012s11410.1"	442	"	"G/T"	"65,1/34,9"	"69/37"	106	stress_12bis	"POPTR_0012s11410.1"	442	"	"G/T"	"59,4/40,6"	"19/13"	32
controllo_3	"POPTR_0012s11410.1"	442	"	"G/T"	"65,1/34,9"	"69/37"	106	stress_42	"POPTR_0012s11410.1"	442	"	"G/T"	"76,2/23,8"	"16/5"	21
controllo_3	"POPTR_0012s11410.1"	442	"	"G/T"	"65,1/34,9"	"69/37"	106	stress_45	"POPTR_0012s11410.1"	442	"	"G/T"	"65,0/35,0"	"13/7"	20
controllo_3	"POPTR_0002s09730.1"	1950	"	"T/A"	"65,1/34,9"	"71/38"	109	stress_12bis	"POPTR_0002s09730.1"	1950	"	"A/T"	"54,2/45,8"	"13/11"	24
controllo_3	"POPTR_0002s09730.1"	1950	"	"T/A"	"65,1/34,9"	"71/38"	109	stress_42	"POPTR_0002s09730.1"	1950	"	"T/A"	"63,6/36,4"	"14/8"	22
controllo_3	"POPTR_0002s09730.1"	1950	"	"T/A"	"65,1/34,9"	"71/38"	109	stress_45	"POPTR_0002s09730.1"	1950	"	"T/A"	"55,6/44,4"	"15/12"	27
controllo_3	"POPTR_0002s22220.1"	378	"	"C/T"	"65,1/34,9"	"487/261"	748	stress_12bis	"POPTR_0002s22220.1"	378	"	"C/T"	"61,9/38,1"	"104/64"	168
controllo_3	"POPTR_0002s22220.1"	378	"	"C/T"	"65,1/34,9"	"487/261"	748	stress_42	"POPTR_0002s22220.1"	378	"	"C/T"	"53,0/47,0"	"44/39"	83
controllo_3	"POPTR_0002s22220.1"	378	"	"C/T"	"65,1/34,9"	"487/261"	748	stress_45	"POPTR_0002s22220.1"	378	"	"C/T"	"60,6/39,4"	"106/69"	175
controllo_3	"POPTR_0016s10780.1"	35	"	"G/A"	"65,1/34,9"	"99/53"	152	stress_12bis	"POPTR_0016s10780.1"	35	"	"A/G"	"58,8/41,2"	"10/7"	17
controllo_3	"POPTR_0016s03230.1"	835	"	"G/T"	"65,1/34,9"	"110/59"	169	stress_12bis	"POPTR_0016s03230.1"	835	"	"G/T"	"66,9/32,4"	"99/48"	148
controllo_3	"POPTR_0016s03230.1"	835	"	"G/T"	"65,1/34,9"	"110/59"	169	stress_42	"POPTR_0016s03230.1"	835	"	"G/T"	"70,4/29,6"	"38/16"	54
controllo_3	"POPTR_0016s03230.1"	835	"	"G/T"	"65,1/34,9"	"110/59"	169	stress_45	"POPTR_0016s03230.1"	835	"	"G/T"	"61,2/38,8"	"30/19"	49
controllo_3	"POPTR_0017s06650.1"	911	"	"G/A"	"65,2/28,8"	"86/38"	132	stress_12bis	"POPTR_0017s06650.1"	911	"	"G/A"	"66,7/25,9"	"18/7"	27
controllo_3	"POPTR_0006s13240.1"	394	"	"A/T"	"65,2/34,2"	"103/54"	158	stress_12bis	"POPTR_0006s13240.1"	394	"	"A/T"	"64,5/35,5"	"60/33"	93
controllo_3	"POPTR_0006s13240.1"	394	"	"A/T"	"65,2/34,2"	"103/54"	158	stress_42	"POPTR_0006s13240.1"	394	"	"A/T"	"82,4/17,6"	"28/6"	34
controllo_3	"POPTR_0006s13240.1"	394	"	"A/T"	"65,2/34,2"	"103/54"	158	stress_45	"POPTR_0006s13240.1"	394	"	"A/T"	"81,2/18,8"	"26/6"	32
controllo_3	"POPTR_0001s38810.1"	123	"	"A/G"	"65,2/34,6"	"279/148"	428	stress_12bis	"POPTR_0001s38810.1"	123	"	"A/G"	"62,6/37,4"	"67/40"	107
controllo_3	"POPTR_0001s38810.1"	123	"	"A/G"	"65,2/34,6"	"279/148"	428	stress_42	"POPTR_0001s38810.1"	123	"	"A/G"	"70,3/29,7"	"83/35"	118
controllo_3	"POPTR_0001s38810.1"	123	"	"A/G"	"65,2/34,6"	"279/148"	428	stress_45	"POPTR_0001s38810.1"	123	"	"A/G"	"75,0/25,0"	"135/45"	180
controllo_3	"POPTR_0005s26170.1"	466	"	"G/A"	"65,2/34,8"	"276/147"	423	stress_12bis	"POPTR_0005s26170.1"	466	"	"G/A"	"78,4/21,6"	"98/27"	125
controllo_3	"POPTR_0005s26170.1"	466	"	"G/A"	"65,2/34,8"	"276/147"	423	stress_42	"POPTR_0005s26170.1"	466	"	"G/A"	"78,9/21,1"	"112/30"	142
controllo_3	"POPTR_0005s26170.1"	466	"	"G/A"	"65,2/34,8"	"276/147"	423	stress_45	"POPTR_0005s26170.1"	466	"	"G/A"	"66,0/34,0"	"93/48"	141
controllo_3	"POPTR_0006s08230.1"	192	"	"T/A"	"65,2/34,8"	"75/40"	115	stress_12bis	"POPTR_0006s08230.1"	192	"	"T/A"	"60,9/39,1"	"14/9"	23
controllo_3	"POPTR_0006s08230.1"	192	"	"T/A"	"65,2/34,8"	"75/40"	115	stress_42	"POPTR_0006s08230.1"	192	"	"T/A"	"63,9/36,1"	"23/13"	36
controllo_3	"POPTR_0006s08230.1"	192	"	"T/A"	"65,2/34,8"	"75/40"	115	stress_45	"POPTR_0006s08230.1"	192	"	"T/A"	"72,7/27,3"	"40/15"	55
controllo_3	"POPTR_0014s09180.1"	91	"	"C/A"	"65,2/34,8"	"122/65"	187	stress_12bis	"POPTR_0014s09180.1"	91	"	"C/A"	"55,6/44,4"	"20/16"	36
controllo_3	"POPTR_0001s21140.1"	165	"	"A/C"	"65,2/34,8"	"197/105"	302	stress_12bis	"POPTR_0001s21140.1"	165	"	"A/C"	"71,2/28,8"	"84/34"	118
controllo_3	"POPTR_0001s21140.1"	165	"	"A/C"	"65,2/34,8"	"197/105"	302	stress_42	"POPTR_0001s21140.1"	165	"	"A/C"	"50,0/50,0"	"7/7"	14
controllo_3	"POPTR_0010s18770.1"	166	"	"A/T"	"65,2/34,8"	"165/88"	253	stress_12bis	"POPTR_0010s18770.1"	166	"	"A/T"	"63,2/36,8"	"36/21"	57
controllo_3	"POPTR_0010s18770.1"	166	"	"A/T"	"65,2/34,8"	"165/88"	253	stress_45	"POPTR_0010s18770.1"	166	"	"T/A"	"63,2/36,8"	"12/7"	19
controllo_3	"POPTR_0002s08920.1"	354	"	"G/T"	"65,2/34,8"	"105/56"	161	stress_12bis	"POPTR_0002s08920.1"	354	"	"G/T"	"58,1/41,9"	"18/13"	31
controllo_3	"POPTR_0009s13210.1"	417	"	"C/T"	"65,3/33,9"	"77/40"	118	stress_12bis	"POPTR_0009s13210.1"	417	"	"C/T"	"68,6/31,4"	"24/11"	35
controllo_3	"POPTR_0009s13210.1"	417	"	"C/T"	"65,3/33,9"	"77/40"	118	stress_42	"POPTR_0009s13210.1"	417	"	"C/T"	"63,6/36,4"	"7/4"	11
controllo_3	"POPTR_0009s13210.1"	417	"	"C/T"	"65,3/33,9"	"77/40"	118	stress_45	"POPTR_0009s13210.1"	417	"	"C/T"	"81,2/18,8"	"13/3"	16
controllo_3	"POPTR_0006s24770.1"	655	"	"G/A"	"65,3/34,7"	"124/66"	190	stress_12bis	"POPTR_0006s24770.1"	655	"	"G/A"	"51,0/49,0"	"53/51"	104
controllo_3	"POPTR_0006s24770.1"	655	"	"G/A"	"65,3/34,7"	"124/66"	190	stress_42	"POPTR_0006s24770.1"	655	"	"G/A"	"62,0/38,0"	"57/35"	92
controllo_3	"POPTR_0006s24770.1"	655	"	"G/A"	"65,3/34,7"	"124/66"	190	stress_45	"POPTR_0006s24770.1"	655	"	"G/A"	"61,5/38,5"	"64/40"	104
controllo_3	"POPTR_0012s13830.1"	144	"	"G/A"	"65,3/34,7"	"66/35"	101	stress_12bis	"POPTR_0012s13830.1"	144	"	"G/A"	"71,1/28,9"	"27/11"	38
controllo_3	"POPTR_0012s13830.1"	144	"	"G/A"	"65,3/34,7"	"66/35"	101	stress_42	"POPTR_0012s13830.1"	144	"	"G/A"	"60,0/40,0"	"6/4"	10
controllo_3	"POPTR_0012s13830.1"	144	"	"G/A"	"65,3/34,7"	"66/35"	101	stress_45	"POPTR_0012s13830.1"	144	"	"A/G"	"53,8/46,2"	"7/6"	13
controllo_3	"POPTR_0008s13780.1"	51	"	"C/T"	"65,3/34,7"	"177/94"	271	stress_12bis	"POPTR_0008s13780.1"	51	"	"C/T"	"56,8/43,2"	"25/19"	44
controllo_3	"POPTR_0008s13780.1"	51	"	"C/T"	"65,3/34,7"	"177/94"	271	stress_42	"POPTR_0008s13780.1"	51	"	"C/T"	"60,0/40,0"	"6/4"	10
controllo_3	"POPTR_0008s13780.1"	51	"	"C/T"	"65,3/34,7"	"177/94"	271	stress_45	"POPTR_0008s13780.1"	51	"	"C/T"	"52,6/47,4"	"10/9"	19
controllo_3	"POPTR_0006s10250.1"	1176	"	"G/T"	"65,4/34,1"	"138/72"	211	stress_12bis	"POPTR_0006s10250.1"	1176	"	"G/T"	"65,4/34,6"	"17/9"	26
controllo_3	"POPTR_0006s10250.1"	1176	"	"G/T"	"65,4/34,1"	"138/72"	211	stress_42	"POPTR_0006s10250.1"	1176	"	"G/T"	"54,2/45,8"	"13/11"	24
controllo_3	"POPTR_0006s10250.1"	1176	"	"G/T"	"65,4/34,1"	"138/72"	211	stress_45	"POPTR_0006s10250.1"	1176	"	"G/T"	"58,1/41,9"	"25/18"	43
controllo_3	"POPTR_0005s11610.1"	1038	"	"G/A"	"65,4/34,6"	"68/36"	104	stress_42	"POPTR_0005s11610.1"	1038	"	"G/A"	"67,7/32,3"	"21/10"	31
controllo_3	"POPTR_0005s11610.1"	1038	"	"G/A"	"65,4/34,6"	"68/36"	104	stress_45	"POPTR_0005s11610.1"	1038	"	"G/A"	"51,0/49,0"	"25/24"	49
controllo_3	"POPTR_0005s26170.1"	48	"	"A/G"	"65,4/34,6"	"117/62"	179	stress_12bis	"POPTR_0005s26170.1"	48	"	"A/G"	"55,6/44,4"	"25/20"	45
controllo_3	"POPTR_0005s26170.1"	48	"	"A/G"	"65,4/34,6"	"117/62"	179	stress_42	"POPTR_0005s26170.1"	48	"	"A/G"	"81,6/18,4"	"31/7"	38
controllo_3	"POPTR_0005s26170.1"	48	"	"A/G"	"65,4/34,6"	"117/62"	179	stress_45	"POPTR_0005s26170.1"	48	"	"A/G"	"62,2/37,8"	"28/17"	45
controllo_3	"POPTR_0006s06740.1"	68	"	"C/T"	"65,4/34,6"	"206/109"	315	stress_12bis	"POPTR_0006s06740.1"	68	"	"T/C"	"61,5/38,5"	"8/5"	13
controllo_3	"POPTR_0006s23390.1"	379	"	"G/C"	"65,4/34,6"	"68/36"	104	stress_12bis	"POPTR_0006s23390.1"	379	"	"G/C"	"56,8/43,2"	"25/19"	44
controllo_3	"POPTR_0006s23390.1"	379	"	"G/C"	"65,4/34,6"	"68/36"	104	stress_42	"POPTR_0006s23390.1"	379	"	"G/C"	"64,3/35,7"	"18/10"	28
controllo_3	"POPTR_0006s23390.1"	379	"	"G/C"	"65,4/34,6"	"68/36"	104	stress_45	"POPTR_0006s23390.1"	379	"	"G/C"	"54,3/45,7"	"19/16"	35
controllo_3	"POPTR_0006s13240.1"	206	"	"A/G"	"65,4/34,6"	"140/74"	214	stress_12bis	"POPTR_0006s13240.1"	206	"	"A/G"	"61,7/38,3"	"74/46"	120
controllo_3	"POPTR_0006s13240.1"	206	"	"A/G"	"65,4/34,6"	"140/74"	214	stress_42	"POPTR_0006s13240.1"	206	"	"A/G"	"81,8/18,2"	"27/6"	33
controllo_3	"POPTR_0006s13240.1"	206	"	"A/G"	"65,4/34,6"	"140/74"	214	stress_45	"POPTR_0006s13240.1"	206	"	"A/G"	"65,4/34,6"	"34/18"	52
controllo_3	"POPTR_0018s02960.1"	1195	"	"A/C"	"65,4/34,6"	"83/44"	127	stress_42	"POPTR_0018s02960.1"	1195	"	"C/A"	"66,7/33,3"	"8/4"	12
controllo_3	"POPTR_0018s02960.1"	1195	"	"A/C"	"65,4/34,6"	"83/44"	127	stress_45	"POPTR_0018s02960.1"	1195	"	"A/C"	"56,2/43,8"	"9/7"	16
controllo_3	"POPTR_0003s10660.1"	528	"	"T/C"	"65,4/34,6"	"89/47"	136	stress_12bis	"POPTR_0003s10660.1"	528	"	"C/T"	"60,0/40,0"	"9/6"	15
controllo_3	"POPTR_0019s08030.1"	939	"	"T/C"	"65,4/34,6"	"68/36"	104	stress_12bis	"POPTR_0019s08030.1"	939	"	"T/C"	"80,0/20,0"	"24/6"	30
controllo_3	"POPTR_0019s08030.1"	939	"	"T/C"	"65,4/34,6"	"68/36"	104	stress_42	"POPTR_0019s08030.1"	939	"	"T/C"	"55,6/44,4"	"10/8"	18
controllo_3	"POPTR_0019s08030.1"	939	"	"T/C"	"65,4/34,6"	"68/36"	104	stress_45	"POPTR_0019s08030.1"	939	"	"T/C"	"67,9/32,1"	"19/9"	28
controllo_3	"POPTR_0019s08450.1"	538	"	"G/C"	"65,4/34,6"	"17/9"	26	stress_45	"POPTR_0019s08450.1"	538	"	"G/C"	"72,3/27,7"	"73/28"	101
controllo_3	"POPTR_0013s00730.1"	69	"	"T/G"	"65,4/34,6"	"119/63"	182	stress_12bis	"POPTR_0013s00730.1"	69	"	"T/G"	"52,1/47,9"	"37/34"	71
controllo_3	"POPTR_0013s00730.1"	69	"	"T/G"	"65,4/34,6"	"119/63"	182	stress_42	"POPTR_0013s00730.1"	69	"	"T/G"	"68,4/31,6"	"13/6"	19
controllo_3	"POPTR_0013s00730.1"	69	"	"T/G"	"65,4/34,6"	"119/63"	182	stress_45	"POPTR_0013s00730.1"	69	"	"T/G"	"68,9/31,1"	"31/14"	45
controllo_3	"POPTR_0001s26410.1"	21	"	"T/C"	"65,4/34,6"	"138/73"	211	stress_12bis	"POPTR_0001s26410.1"	21	"	"T/C"	"59,2/40,8"	"29/20"	49
controllo_3	"POPTR_0001s26410.1"	21	"	"T/C"	"65,4/34,6"	"138/73"	211	stress_42	"POPTR_0001s26410.1"	21	"	"T/C"	"69,2/30,8"	"9/4"	13
controllo_3	"POPTR_0001s26410.1"	21	"	"T/C"	"65,4/34,6"	"138/73"	211	stress_45	"POPTR_0001s26410.1"	21	"	"T/C"	"60,0/40,0"	"6/4"	10
controllo_3	"POPTR_0001s26540.1"	411	"	"G/A"	"65,4/34,6"	"68/36"	104	stress_12bis	"POPTR_0001s26540.1"	411	"	"G/A"	"69,6/30,4"	"16/7"	23
controllo_3	"POPTR_0010s26130.1"	1443	"	"T/A"	"65,4/34,6"	"168/89"	257	stress_12bis	"POPTR_0010s26130.1"	1443	"	"T/A"	"68,6/31,4"	"83/38"	121
controllo_3	"POPTR_0010s26130.1"	1443	"	"T/A"	"65,4/34,6"	"168/89"	257	stress_42	"POPTR_0010s26130.1"	1443	"	"A/T"	"50,0/50,0"	"5/5"	10
controllo_3	"POPTR_0010s26130.1"	1443	"	"T/A"	"65,4/34,6"	"168/89"	257	stress_45	"POPTR_0010s26130.1"	1443	"	"T/A"	"85,0/15,0"	"17/3"	20
controllo_3	"POPTR_0002s14730.1"	987	"	"T/A"	"65,4/34,6"	"516/273"	789	stress_12bis	"POPTR_0002s14730.1"	987	"	"T/A"	"64,0/36,0"	"155/87"	242
controllo_3	"POPTR_0002s14730.1"	987	"	"T/A"	"65,4/34,6"	"516/273"	789	stress_42	"POPTR_0002s14730.1"	987	"	"T/A"	"81,1/18,9"	"73/17"	90
controllo_3	"POPTR_0002s19060.1"	1143	"	"A/C"	"65,4/34,6"	"34/18"	52	stress_45	"POPTR_0002s19060.1"	1143	"	"C/A"	"51,4/48,6"	"56/53"	109
controllo_3	"POPTR_0002s08010.1"	380	"	"C/G"	"65,4/34,6"	"87/46"	133	stress_12bis	"POPTR_0002s08010.1"	380	"	"C/G"	"66,7/33,3"	"26/13"	39
controllo_3	"POPTR_0002s08010.1"	380	"	"C/G"	"65,4/34,6"	"87/46"	133	stress_42	"POPTR_0002s08010.1"	380	"	"C/G"	"70,0/30,0"	"7/3"	10
controllo_3	"POPTR_0002s05390.1"	522	"	"A/G"	"65,4/34,6"	"70/37"	107	stress_12bis	"POPTR_0002s05390.1"	522	"	"A/G"	"50,0/50,0"	"8/8"	16
controllo_3	"POPTR_0010s21980.1"	353	"	"A/C"	"65,5/33,6"	"78/40"	119	stress_12bis	"POPTR_0010s21980.1"	353	"	"A/C"	"53,3/46,7"	"16/14"	30
controllo_3	"POPTR_0010s21980.1"	353	"	"A/C"	"65,5/33,6"	"78/40"	119	stress_42	"POPTR_0010s21980.1"	353	"	"A/C"	"73,7/26,3"	"28/10"	38
controllo_3	"POPTR_0010s21980.1"	353	"	"A/C"	"65,5/33,6"	"78/40"	119	stress_45	"POPTR_0010s21980.1"	353	"	"A/C"	"70,0/30,0"	"35/15"	50
controllo_3	"POPTR_0001s36870.1"	1629	"	"G/T"	"65,5/33,8"	"91/47"	139	stress_12bis	"POPTR_0001s36870.1"	1629	"	"G/T"	"58,6/41,4"	"17/12"	29
controllo_3	"POPTR_0001s36870.1"	1629	"	"G/T"	"65,5/33,8"	"91/47"	139	stress_42	"POPTR_0001s36870.1"	1629	"	"G/T"	"66,7/33,3"	"14/7"	21
controllo_3	"POPTR_0001s36870.1"	1629	"	"G/T"	"65,5/33,8"	"91/47"	139	stress_45	"POPTR_0001s36870.1"	1629	"	"G/T"	"62,5/37,5"	"20/12"	32
controllo_3	"POPTR_0012s07270.1"	501	"	"C/T"	"65,5/34,0"	"156/81"	238	stress_12bis	"POPTR_0012s07270.1"	501	"	"T/C"	"54,8/45,2"	"46/38"	84
controllo_3	"POPTR_0012s07270.1"	501	"	"C/T"	"65,5/34,0"	"156/81"	238	stress_42	"POPTR_0012s07270.1"	501	"	"T/C"	"54,3/45,7"	"51/43"	94
controllo_3	"POPTR_0012s07270.1"	501	"	"C/T"	"65,5/34,0"	"156/81"	238	stress_45	"POPTR_0012s07270.1"	501	"	"T/C"	"50,5/48,6"	"53/51"	105
controllo_3	"POPTR_0006s06180.1"	1717	"	"C/T"	"65,5/34,5"	"175/92"	267	stress_12bis	"POPTR_0006s06180.1"	1717	"	"C/T"	"76,0/24,0"	"79/25"	104
controllo_3	"POPTR_0006s06180.1"	1717	"	"C/T"	"65,5/34,5"	"175/92"	267	stress_42	"POPTR_0006s06180.1"	1717	"	"C/T"	"81,1/18,9"	"43/10"	53
controllo_3	"POPTR_0006s06180.1"	1717	"	"C/T"	"65,5/34,5"	"175/92"	267	stress_45	"POPTR_0006s06180.1"	1717	"	"C/T"	"75,0/25,0"	"75/25"	100
controllo_3	"POPTR_0006s24520.1"	741	"	"T/C"	"65,5/34,5"	"93/49"	142	stress_12bis	"POPTR_0006s24520.1"	741	"	"T/C"	"65,6/34,4"	"21/11"	32
controllo_3	"POPTR_0018s02960.1"	207	"	"C/T"	"65,5/34,5"	"72/38"	110	stress_42	"POPTR_0018s02960.1"	207	"	"C/T"	"63,6/36,4"	"7/4"	11
controllo_3	"POPTR_0018s02960.1"	207	"	"C/T"	"65,5/34,5"	"72/38"	110	stress_45	"POPTR_0018s02960.1"	207	"	"C/T"	"63,6/36,4"	"7/4"	11
controllo_3	"POPTR_0014s00810.1"	83	"	"A/G"	"65,5/34,5"	"135/71"	206	stress_12bis	"POPTR_0014s00810.1"	83	"	"A/G"	"66,9/33,1"	"101/50"	151
controllo_3	"POPTR_0014s00810.1"	83	"	"A/G"	"65,5/34,5"	"135/71"	206	stress_42	"POPTR_0014s00810.1"	83	"	"G/A"	"57,3/42,7"	"63/47"	110
controllo_3	"POPTR_0014s00810.1"	83	"	"A/G"	"65,5/34,5"	"135/71"	206	stress_45	"POPTR_0014s00810.1"	83	"	"G/A"	"57,3/42,7"	"47/35"	82
controllo_3	"POPTR_0001s35220.1"	1236	"	"A/T"	"65,5/34,5"	"76/40"	116	stress_12bis	"POPTR_0001s35220.1"	1236	"	"T/A"	"53,1/46,9"	"17/15"	32
controllo_3	"POPTR_0001s35220.1"	1236	"	"A/T"	"65,5/34,5"	"76/40"	116	stress_42	"POPTR_0001s35220.1"	1236	"	"A/T"	"66,7/33,3"	"8/4"	12
controllo_3	"POPTR_0010s19930.1"	515	"	"G/A"	"65,5/34,5"	"182/96"	278	stress_12bis	"POPTR_0010s19930.1"	515	"	"A/G"	"66,7/33,3"	"14/7"	21
controllo_3	"POPTR_0010s19930.1"	515	"	"G/A"	"65,5/34,5"	"182/96"	278	stress_42	"POPTR_0010s19930.1"	515	"	"A/G"	"62,0/38,0"	"85/52"	137
controllo_3	"POPTR_0010s19930.1"	515	"	"G/A"	"65,5/34,5"	"182/96"	278	stress_45	"POPTR_0010s19930.1"	515	"	"A/G"	"57,4/42,6"	"70/52"	122
controllo_3	"POPTR_0008s06580.1"	336	"	"T/C"	"65,5/34,5"	"818/430"	1248	stress_12bis	"POPTR_0008s06580.1"	336	"	"C/T"	"52,6/47,4"	"70/63"	133
controllo_3	"POPTR_0008s06580.1"	336	"	"T/C"	"65,5/34,5"	"818/430"	1248	stress_42	"POPTR_0008s06580.1"	336	"	"T/C"	"58,1/41,7"	"419/301"	721
controllo_3	"POPTR_0008s06580.1"	336	"	"T/C"	"65,5/34,5"	"818/430"	1248	stress_45	"POPTR_0008s06580.1"	336	"	"T/C"	"57,9/42,1"	"546/397"	943
controllo_3	"POPTR_0008s15780.1"	366	"	"T/C"	"65,5/34,5"	"167/88"	255	stress_12bis	"POPTR_0008s15780.1"	366	"	"T/C"	"63,4/36,6"	"64/37"	101
controllo_3	"POPTR_0008s15780.1"	366	"	"T/C"	"65,5/34,5"	"167/88"	255	stress_42	"POPTR_0008s15780.1"	366	"	"T/C"	"56,5/43,5"	"78/60"	138
controllo_3	"POPTR_0008s15780.1"	366	"	"T/C"	"65,5/34,5"	"167/88"	255	stress_45	"POPTR_0008s15780.1"	366	"	"T/C"	"75,5/24,5"	"80/26"	106
controllo_3	"POPTR_0008s03900.1"	93	"	"C/G"	"65,5/34,5"	"76/40"	116	stress_12bis	"POPTR_0008s03900.1"	93	"	"C/G"	"72,7/27,3"	"24/9"	33
controllo_3	"POPTR_0008s03900.1"	93	"	"C/G"	"65,5/34,5"	"76/40"	116	stress_42	"POPTR_0008s03900.1"	93	"	"C/G"	"55,0/45,0"	"22/18"	40
controllo_3	"POPTR_0008s03900.1"	93	"	"C/G"	"65,5/34,5"	"76/40"	116	stress_45	"POPTR_0008s03900.1"	93	"	"C/G"	"58,5/41,5"	"24/17"	41
controllo_3	"POPTR_0005s25540.1"	1053	"	"T/C"	"65,6/34,3"	"396/207"	604	stress_12bis	"POPTR_0005s25540.1"	1053	"	"T/C"	"70,3/28,1"	"45/18"	64
controllo_3	"POPTR_0005s23110.1"	525	"	"A/G"	"65,6/34,4"	"217/114"	331	stress_12bis	"POPTR_0005s23110.1"	525	"	"A/G"	"62,1/36,8"	"59/35"	95
controllo_3	"POPTR_0005s23110.1"	525	"	"A/G"	"65,6/34,4"	"217/114"	331	stress_42	"POPTR_0005s23110.1"	525	"	"A/G"	"82,4/17,6"	"14/3"	17
controllo_3	"POPTR_0005s23110.1"	525	"	"A/G"	"65,6/34,4"	"217/114"	331	stress_45	"POPTR_0005s23110.1"	525	"	"A/G"	"65,6/34,4"	"21/11"	32
controllo_3	"POPTR_0005s19400.1"	74	"	"C/T"	"65,6/34,4"	"141/74"	215	stress_12bis	"POPTR_0005s19400.1"	74	"	"C/T"	"56,1/43,9"	"46/36"	82
controllo_3	"POPTR_0005s19400.1"	74	"	"C/T"	"65,6/34,4"	"141/74"	215	stress_42	"POPTR_0005s19400.1"	74	"	"T/C"	"64,2/35,8"	"34/19"	53
controllo_3	"POPTR_0005s19400.1"	74	"	"C/T"	"65,6/34,4"	"141/74"	215	stress_45	"POPTR_0005s19400.1"	74	"	"T/C"	"62,2/37,8"	"23/14"	37
controllo_3	"POPTR_0003s21070.1"	587	"	"G/T"	"65,6/34,4"	"80/42"	122	stress_12bis	"POPTR_0003s21070.1"	587	"	"G/T"	"62,5/37,5"	"20/12"	32
controllo_3	"POPTR_0003s21070.1"	587	"	"G/T"	"65,6/34,4"	"80/42"	122	stress_42	"POPTR_0003s21070.1"	587	"	"T/G"	"64,7/35,3"	"11/6"	17
controllo_3	"POPTR_0003s21070.1"	587	"	"G/T"	"65,6/34,4"	"80/42"	122	stress_45	"POPTR_0003s21070.1"	587	"	"G/T"	"58,8/41,2"	"10/7"	17
controllo_3	"POPTR_0019s04970.1"	699	"	"G/A"	"65,6/34,4"	"80/42"	122	stress_12bis	"POPTR_0019s04970.1"	699	"	"G/A"	"80,4/19,6"	"37/9"	46
controllo_3	"POPTR_0013s02710.1"	181	"	"G/A"	"65,6/34,4"	"137/72"	209	stress_12bis	"POPTR_0013s02710.1"	181	"	"G/A"	"71,7/28,3"	"38/15"	53
controllo_3	"POPTR_0013s02710.1"	181	"	"G/A"	"65,6/34,4"	"137/72"	209	stress_42	"POPTR_0013s02710.1"	181	"	"G/A"	"83,3/16,7"	"15/3"	18
controllo_3	"POPTR_0010s20060.1"	183	"	"G/A"	"65,6/34,4"	"225/118"	343	stress_12bis	"POPTR_0010s20060.1"	183	"	"G/A"	"64,2/35,8"	"77/43"	120
controllo_3	"POPTR_0010s20060.1"	183	"	"G/A"	"65,6/34,4"	"225/118"	343	stress_45	"POPTR_0010s20060.1"	183	"	"G/A"	"83,7/16,3"	"36/7"	43
controllo_3	"POPTR_0016s06540.1"	730	"	"G/A"	"65,6/34,4"	"122/64"	186	stress_12bis	"POPTR_0016s06540.1"	730	"	"A/G"	"61,1/38,9"	"11/7"	18
controllo_3	"POPTR_0006s13240.1"	651	"	"T/G"	"65,7/33,9"	"151/78"	230	stress_12bis	"POPTR_0006s13240.1"	651	"	"T/G"	"63,3/36,0"	"88/50"	139
controllo_3	"POPTR_0006s13240.1"	651	"	"T/G"	"65,7/33,9"	"151/78"	230	stress_42	"POPTR_0006s13240.1"	651	"	"T/G"	"66,7/33,3"	"34/17"	51
controllo_3	"POPTR_0006s13240.1"	651	"	"T/G"	"65,7/33,9"	"151/78"	230	stress_45	"POPTR_0006s13240.1"	651	"	"T/G"	"59,3/40,7"	"35/24"	59
controllo_3	"POPTR_0005s13860.1"	771	"	"A/T"	"65,7/34,3"	"673/351"	1024	stress_12bis	"POPTR_0005s13860.1"	771	"	"A/T"	"63,4/36,6"	"168/97"	265
controllo_3	"POPTR_0005s13860.1"	771	"	"A/T"	"65,7/34,3"	"673/351"	1024	stress_42	"POPTR_0005s13860.1"	771	"	"A/T"	"75,3/24,7"	"58/19"	77
controllo_3	"POPTR_0005s13860.1"	771	"	"A/T"	"65,7/34,3"	"673/351"	1024	stress_45	"POPTR_0005s13860.1"	771	"	"A/T"	"64,1/35,9"	"59/33"	92
controllo_3	"POPTR_0006s03660.1"	2105	"	"C/A"	"65,7/34,3"	"88/46"	134	stress_12bis	"POPTR_0006s03660.1"	2105	"	"C/A"	"62,5/37,5"	"20/12"	32
controllo_3	"POPTR_0006s03660.1"	2105	"	"C/A"	"65,7/34,3"	"88/46"	134	stress_45	"POPTR_0006s03660.1"	2105	"	"C/A"	"66,7/33,3"	"16/8"	24
controllo_3	"POPTR_0013s01080.1"	2090	"	"A/G"	"65,7/34,3"	"109/57"	166	stress_12bis	"POPTR_0013s01080.1"	2090	"	"A/G"	"76,5/23,5"	"52/16"	68
controllo_3	"POPTR_0013s01080.1"	2090	"	"A/G"	"65,7/34,3"	"109/57"	166	stress_42	"POPTR_0013s01080.1"	2090	"	"A/G"	"51,4/48,6"	"18/17"	35
controllo_3	"POPTR_0013s01080.1"	2090	"	"A/G"	"65,7/34,3"	"109/57"	166	stress_45	"POPTR_0013s01080.1"	2090	"	"A/G"	"62,7/37,3"	"32/19"	51
controllo_3	"POPTR_0014s15580.1"	1274	"	"G/C"	"65,7/34,3"	"23/12"	35	stress_45	"POPTR_0014s15580.1"	1274	"	"C/G"	"55,0/45,0"	"60/49"	109
controllo_3	"POPTR_0015s13500.1"	504	"	"A/T"	"65,7/34,3"	"67/35"	102	stress_12bis	"POPTR_0015s13500.1"	504	"	"T/A"	"56,4/43,6"	"22/17"	39
controllo_3	"POPTR_0015s13500.1"	504	"	"A/T"	"65,7/34,3"	"67/35"	102	stress_42	"POPTR_0015s13500.1"	504	"	"A/T"	"50,8/49,2"	"31/30"	61
controllo_3	"POPTR_0015s13500.1"	504	"	"A/T"	"65,7/34,3"	"67/35"	102	stress_45	"POPTR_0015s13500.1"	504	"	"A/T"	"52,9/47,1"	"18/16"	34
controllo_3	"POPTR_0001s38810.1"	84	"	"T/C"	"65,7/34,3"	"301/157"	458	stress_12bis	"POPTR_0001s38810.1"	84	"	"T/C"	"72,8/27,2"	"99/37"	136
controllo_3	"POPTR_0001s38810.1"	84	"	"T/C"	"65,7/34,3"	"301/157"	458	stress_42	"POPTR_0001s38810.1"	84	"	"T/C"	"50,4/49,6"	"59/58"	117
controllo_3	"POPTR_0001s38810.1"	84	"	"T/C"	"65,7/34,3"	"301/157"	458	stress_45	"POPTR_0001s38810.1"	84	"	"C/T"	"52,6/47,4"	"92/83"	175
controllo_3	"POPTR_0001s02040.1"	83	"	"G/C"	"65,7/34,3"	"69/36"	105	stress_12bis	"POPTR_0001s02040.1"	83	"	"G/C"	"59,1/40,9"	"26/18"	44
controllo_3	"POPTR_0001s02040.1"	83	"	"G/C"	"65,7/34,3"	"69/36"	105	stress_42	"POPTR_0001s02040.1"	83	"	"C/G"	"59,3/40,7"	"16/11"	27
controllo_3	"POPTR_0001s02040.1"	83	"	"G/C"	"65,7/34,3"	"69/36"	105	stress_45	"POPTR_0001s02040.1"	83	"	"G/C"	"58,6/41,4"	"17/12"	29
controllo_3	"POPTR_0002s05840.1"	405	"	"C/T"	"65,7/34,3"	"94/49"	143	stress_12bis	"POPTR_0002s05840.1"	405	"	"C/T"	"67,3/32,7"	"33/16"	49
controllo_3	"POPTR_0002s05840.1"	405	"	"C/T"	"65,7/34,3"	"94/49"	143	stress_42	"POPTR_0002s05840.1"	405	"	"C/T"	"62,3/37,7"	"71/43"	114
controllo_3	"POPTR_0002s05840.1"	405	"	"C/T"	"65,7/34,3"	"94/49"	143	stress_45	"POPTR_0002s05840.1"	405	"	"C/T"	"61,1/38,9"	"66/42"	108
controllo_3	"POPTR_0005s25540.1"	528	"	"A/T"	"65,8/33,8"	"387/199"	588	stress_12bis	"POPTR_0005s25540.1"	528	"	"A/T"	"77,5/21,1"	"55/15"	71
controllo_3	"POPTR_0008s15770.1"	122	"	"G/C"	"65,8/34,1"	"786/407"	1194	stress_12bis	"POPTR_0008s15770.1"	122	"	"G/C"	"51,4/48,6"	"281/266"	547
controllo_3	"POPTR_0008s15770.1"	122	"	"G/C"	"65,8/34,1"	"786/407"	1194	stress_42	"POPTR_0008s15770.1"	122	"	"G/C"	"80,0/19,8"	"336/83"	420
controllo_3	"POPTR_0008s15770.1"	122	"	"G/C"	"65,8/34,1"	"786/407"	1194	stress_45	"POPTR_0008s15770.1"	122	"	"G/C"	"68,1/31,9"	"358/168"	526
controllo_3	"POPTR_0005s26170.1"	249	"	"G/A"	"65,8/34,2"	"315/164"	479	stress_12bis	"POPTR_0005s26170.1"	249	"	"G/A"	"66,1/33,9"	"113/58"	171
controllo_3	"POPTR_0005s26170.1"	249	"	"G/A"	"65,8/34,2"	"315/164"	479	stress_42	"POPTR_0005s26170.1"	249	"	"G/A"	"65,6/34,4"	"143/75"	218
controllo_3	"POPTR_0005s26170.1"	249	"	"G/A"	"65,8/34,2"	"315/164"	479	stress_45	"POPTR_0005s26170.1"	249	"	"G/A"	"82,2/17,8"	"129/28"	157
controllo_3	"POPTR_0014s13560.1"	1320	"	"C/T"	"65,8/34,2"	"340/177"	517	stress_12bis	"POPTR_0014s13560.1"	1320	"	"C/T"	"65,7/34,3"	"111/58"	169
controllo_3	"POPTR_0014s13560.1"	1320	"	"C/T"	"65,8/34,2"	"340/177"	517	stress_42	"POPTR_0014s13560.1"	1320	"	"C/T"	"73,4/26,6"	"80/29"	109
controllo_3	"POPTR_0014s13560.1"	1320	"	"C/T"	"65,8/34,2"	"340/177"	517	stress_45	"POPTR_0014s13560.1"	1320	"	"C/T"	"73,7/26,3"	"98/35"	133
controllo_3	"POPTR_0014s08150.1"	1320	"	"A/G"	"65,8/34,2"	"75/39"	114	stress_12bis	"POPTR_0014s08150.1"	1320	"	"A/G"	"51,7/48,3"	"15/14"	29
controllo_3	"POPTR_0014s08150.1"	1320	"	"A/G"	"65,8/34,2"	"75/39"	114	stress_45	"POPTR_0014s08150.1"	1320	"	"A/G"	"70,0/30,0"	"7/3"	10
controllo_3	"POPTR_0004s08500.1"	192	"	"G/A"	"65,8/34,2"	"939/487"	1426	stress_12bis	"POPTR_0004s08500.1"	192	"	"G/A"	"57,5/42,5"	"352/260"	612
controllo_3	"POPTR_0004s08500.1"	192	"	"G/A"	"65,8/34,2"	"939/487"	1426	stress_42	"POPTR_0004s08500.1"	192	"	"G/A"	"50,7/49,3"	"496/482"	978
controllo_3	"POPTR_0004s08500.1"	192	"	"G/A"	"65,8/34,2"	"939/487"	1426	stress_45	"POPTR_0004s08500.1"	192	"	"A/G"	"50,0/49,9"	"511/510"	1022
controllo_3	"POPTR_0009s05720.1"	106	"	"A/G"	"65,8/34,2"	"773/401"	1174	stress_12bis	"POPTR_0009s05720.1"	106	"	"A/G"	"64,4/35,6"	"179/99"	278
controllo_3	"POPTR_0009s05720.1"	106	"	"A/G"	"65,8/34,2"	"773/401"	1174	stress_42	"POPTR_0009s05720.1"	106	"	"A/G"	"73,9/26,1"	"51/18"	69
controllo_3	"POPTR_0009s05720.1"	106	"	"A/G"	"65,8/34,2"	"773/401"	1174	stress_45	"POPTR_0009s05720.1"	106	"	"A/G"	"74,5/25,5"	"35/12"	47
controllo_3	"POPTR_0012s00670.1"	720	"	"C/A"	"65,8/34,2"	"96/50"	146	stress_12bis	"POPTR_0012s00670.1"	720	"	"A/C"	"50,0/50,0"	"5/5"	10
controllo_3	"POPTR_0012s00670.1"	720	"	"C/A"	"65,8/34,2"	"96/50"	146	stress_42	"POPTR_0012s00670.1"	720	"	"C/A"	"61,5/38,5"	"32/20"	52
controllo_3	"POPTR_0012s00670.1"	720	"	"C/A"	"65,8/34,2"	"96/50"	146	stress_45	"POPTR_0012s00670.1"	720	"	"C/A"	"54,9/45,1"	"28/23"	51
controllo_3	"POPTR_0012s04220.1"	313	"	"G/C"	"65,8/34,2"	"75/39"	114	stress_12bis	"POPTR_0012s04220.1"	313	"	"G/C"	"62,5/37,5"	"10/6"	16
controllo_3	"POPTR_0012s04220.1"	313	"	"G/C"	"65,8/34,2"	"75/39"	114	stress_45	"POPTR_0012s04220.1"	313	"	"C/G"	"53,8/46,2"	"7/6"	13
controllo_3	"POPTR_0001s30460.1"	78	"	"G/A"	"65,8/34,2"	"77/40"	117	stress_12bis	"POPTR_0001s30460.1"	78	"	"G/A"	"64,7/35,3"	"22/12"	34
controllo_3	"POPTR_0001s30460.1"	78	"	"G/A"	"65,8/34,2"	"77/40"	117	stress_42	"POPTR_0001s30460.1"	78	"	"G/A"	"54,5/45,5"	"6/5"	11
controllo_3	"POPTR_0001s30460.1"	78	"	"G/A"	"65,8/34,2"	"77/40"	117	stress_45	"POPTR_0001s30460.1"	78	"	"A/G"	"52,0/48,0"	"13/12"	25
controllo_3	"POPTR_0001s15230.1"	426	"	"A/G"	"65,8/34,2"	"104/54"	158	stress_12bis	"POPTR_0001s15230.1"	426	"	"A/G"	"67,2/32,8"	"41/20"	61
controllo_3	"POPTR_0001s15230.1"	426	"	"A/G"	"65,8/34,2"	"104/54"	158	stress_42	"POPTR_0001s15230.1"	426	"	"A/G"	"68,8/31,2"	"11/5"	16
controllo_3	"POPTR_0001s15230.1"	426	"	"A/G"	"65,8/34,2"	"104/54"	158	stress_45	"POPTR_0001s15230.1"	426	"	"A/G"	"62,1/37,9"	"18/11"	29
controllo_3	"POPTR_0010s08930.1"	549	"	"C/T"	"65,8/34,2"	"75/39"	114	stress_12bis	"POPTR_0010s08930.1"	549	"	"C/T"	"62,5/37,5"	"20/12"	32
controllo_3	"POPTR_0010s08930.1"	549	"	"C/T"	"65,8/34,2"	"75/39"	114	stress_45	"POPTR_0010s08930.1"	549	"	"T/C"	"60,0/40,0"	"6/4"	10
controllo_3	"POPTR_0016s07220.1"	412	"	"G/C"	"65,8/34,2"	"133/69"	202	stress_12bis	"POPTR_0016s07220.1"	412	"	"G/C"	"55,9/44,1"	"19/15"	34
controllo_3	"POPTR_0016s07220.1"	412	"	"G/C"	"65,8/34,2"	"133/69"	202	stress_42	"POPTR_0016s07220.1"	412	"	"G/C"	"56,5/43,5"	"13/10"	23
controllo_3	"POPTR_0016s07220.1"	412	"	"G/C"	"65,8/34,2"	"133/69"	202	stress_45	"POPTR_0016s07220.1"	412	"	"G/C"	"60,0/40,0"	"15/10"	25
controllo_3	"POPTR_0016s12260.1"	137	"	"T/C"	"65,8/34,2"	"127/66"	193	stress_12bis	"POPTR_0016s12260.1"	137	"	"T/C"	"52,5/46,2"	"42/37"	80
controllo_3	"POPTR_0016s12260.1"	137	"	"T/C"	"65,8/34,2"	"127/66"	193	stress_45	"POPTR_0016s12260.1"	137	"	"T/C"	"69,7/30,3"	"23/10"	33
controllo_3	"POPTR_0005s26170.1"	234	"	"T/C"	"65,9/34,1"	"284/147"	431	stress_12bis	"POPTR_0005s26170.1"	234	"	"T/C"	"63,5/36,5"	"87/50"	137
controllo_3	"POPTR_0005s26170.1"	234	"	"T/C"	"65,9/34,1"	"284/147"	431	stress_42	"POPTR_0005s26170.1"	234	"	"T/C"	"62,9/37,1"	"117/69"	186
controllo_3	"POPTR_0005s26170.1"	234	"	"T/C"	"65,9/34,1"	"284/147"	431	stress_45	"POPTR_0005s26170.1"	234	"	"T/C"	"75,0/25,0"	"120/40"	160
controllo_3	"POPTR_0017s05700.1"	160	"	"C/T"	"65,9/34,1"	"247/128"	375	stress_12bis	"POPTR_0017s05700.1"	160	"	"C/T"	"63,0/37,0"	"63/37"	100
controllo_3	"POPTR_0017s05700.1"	160	"	"C/T"	"65,9/34,1"	"247/128"	375	stress_42	"POPTR_0017s05700.1"	160	"	"C/T"	"75,0/25,0"	"51/17"	68
controllo_3	"POPTR_0017s05700.1"	160	"	"C/T"	"65,9/34,1"	"247/128"	375	stress_45	"POPTR_0017s05700.1"	160	"	"C/T"	"82,4/17,6"	"70/15"	85
controllo_3	"POPTR_0015s08540.1"	405	"	"T/C"	"65,9/34,1"	"149/77"	226	stress_12bis	"POPTR_0015s08540.1"	405	"	"C/T"	"50,7/49,3"	"37/36"	73
controllo_3	"POPTR_0015s08540.1"	405	"	"T/C"	"65,9/34,1"	"149/77"	226	stress_42	"POPTR_0015s08540.1"	405	"	"T/C"	"81,5/18,5"	"22/5"	27
controllo_3	"POPTR_0015s08540.1"	405	"	"T/C"	"65,9/34,1"	"149/77"	226	stress_45	"POPTR_0015s08540.1"	405	"	"C/T"	"56,5/43,5"	"13/10"	23
controllo_3	"POPTR_0010s21280.1"	165	"	"C/T"	"65,9/34,1"	"120/62"	182	stress_12bis	"POPTR_0010s21280.1"	165	"	"C/T"	"69,2/30,8"	"63/28"	91
controllo_3	"POPTR_0010s21280.1"	165	"	"C/T"	"65,9/34,1"	"120/62"	182	stress_42	"POPTR_0010s21280.1"	165	"	"C/T"	"76,2/23,8"	"16/5"	21
controllo_3	"POPTR_0010s21280.1"	165	"	"C/T"	"65,9/34,1"	"120/62"	182	stress_45	"POPTR_0010s21280.1"	165	"	"C/T"	"67,2/32,8"	"39/19"	58
controllo_3	"POPTR_0008s05480.1"	879	"	"C/G"	"65,9/34,1"	"350/181"	531	stress_12bis	"POPTR_0008s05480.1"	879	"	"C/G"	"62,6/37,4"	"92/55"	147
controllo_3	"POPTR_0008s05480.1"	879	"	"C/G"	"65,9/34,1"	"350/181"	531	stress_42	"POPTR_0008s05480.1"	879	"	"C/G"	"69,2/30,8"	"63/28"	91
controllo_3	"POPTR_0008s05480.1"	879	"	"C/G"	"65,9/34,1"	"350/181"	531	stress_45	"POPTR_0008s05480.1"	879	"	"C/G"	"69,8/30,2"	"162/70"	232
controllo_3	"POPTR_0008s11750.1"	255	"	"A/C"	"65,9/34,1"	"87/45"	132	stress_12bis	"POPTR_0008s11750.1"	255	"	"A/C"	"57,9/42,1"	"22/16"	38
controllo_3	"POPTR_0008s11750.1"	255	"	"A/C"	"65,9/34,1"	"87/45"	132	stress_42	"POPTR_0008s11750.1"	255	"	"A/C"	"60,0/40,0"	"12/8"	20
controllo_3	"POPTR_0008s11750.1"	255	"	"A/C"	"65,9/34,1"	"87/45"	132	stress_45	"POPTR_0008s11750.1"	255	"	"A/C"	"68,0/32,0"	"17/8"	25
controllo_3	"POPTR_0013s03700.1"	255	"	"C/A"	"66,0/33,6"	"157/80"	238	stress_12bis	"POPTR_0013s03700.1"	255	"	"C/A"	"52,2/47,8"	"24/22"	46
controllo_3	"POPTR_0013s03700.1"	255	"	"C/A"	"66,0/33,6"	"157/80"	238	stress_42	"POPTR_0013s03700.1"	255	"	"C/A"	"66,7/33,3"	"18/9"	27
controllo_3	"POPTR_0013s03700.1"	255	"	"C/A"	"66,0/33,6"	"157/80"	238	stress_45	"POPTR_0013s03700.1"	255	"	"A/C"	"52,1/47,9"	"25/23"	48
controllo_3	"POPTR_0005s11610.1"	1037	"	"G/A"	"66,0/34,0"	"68/35"	103	stress_42	"POPTR_0005s11610.1"	1037	"	"G/A"	"70,0/30,0"	"21/9"	30
controllo_3	"POPTR_0005s11610.1"	1037	"	"G/A"	"66,0/34,0"	"68/35"	103	stress_45	"POPTR_0005s11610.1"	1037	"	"A/G"	"50,0/50,0"	"24/24"	48
controllo_3	"POPTR_0005s11780.1"	184	"	"A/T"	"66,0/34,0"	"95/49"	144	stress_12bis	"POPTR_0005s11780.1"	184	"	"A/T"	"75,4/24,6"	"46/15"	61
controllo_3	"POPTR_0005s11780.1"	184	"	"A/T"	"66,0/34,0"	"95/49"	144	stress_42	"POPTR_0005s11780.1"	184	"	"A/T"	"54,7/45,3"	"35/29"	64
controllo_3	"POPTR_0005s11780.1"	184	"	"A/T"	"66,0/34,0"	"95/49"	144	stress_45	"POPTR_0005s11780.1"	184	"	"T/A"	"56,9/43,1"	"74/56"	130
controllo_3	"POPTR_0006s03660.1"	2040	"	"G/A"	"66,0/34,0"	"68/35"	103	stress_12bis	"POPTR_0006s03660.1"	2040	"	"A/G"	"52,2/47,8"	"12/11"	23
controllo_3	"POPTR_0006s03660.1"	2040	"	"G/A"	"66,0/34,0"	"68/35"	103	stress_45	"POPTR_0006s03660.1"	2040	"	"A/G"	"65,2/34,8"	"15/8"	23
controllo_3	"POPTR_0012s07270.1"	567	"	"G/A"	"66,0/34,0"	"95/49"	144	stress_12bis	"POPTR_0012s07270.1"	567	"	"G/A"	"72,2/27,8"	"39/15"	54
controllo_3	"POPTR_0012s07270.1"	567	"	"G/A"	"66,0/34,0"	"95/49"	144	stress_42	"POPTR_0012s07270.1"	567	"	"G/A"	"82,6/17,4"	"38/8"	46
controllo_3	"POPTR_0012s07270.1"	567	"	"G/A"	"66,0/34,0"	"95/49"	144	stress_45	"POPTR_0012s07270.1"	567	"	"G/A"	"69,6/30,4"	"55/24"	79
controllo_3	"POPTR_0010s08230.1"	429	"	"T/C"	"66,0/34,0"	"95/49"	144	stress_12bis	"POPTR_0010s08230.1"	429	"	"T/C"	"58,3/41,7"	"7/5"	12
controllo_3	"POPTR_0010s08230.1"	429	"	"T/C"	"66,0/34,0"	"95/49"	144	stress_45	"POPTR_0010s08230.1"	429	"	"C/T"	"75,0/25,0"	"30/10"	40
controllo_3	"POPTR_0002s08150.1"	105	"	"A/T"	"66,0/34,0"	"33/17"	50	stress_45	"POPTR_0002s08150.1"	105	"	"A/T"	"52,5/47,5"	"62/56"	118
controllo_3	"POPTR_0008s14480.1"	146	"	"G/A"	"66,0/34,0"	"161/83"	244	stress_12bis	"POPTR_0008s14480.1"	146	"	"A/G"	"51,6/48,4"	"33/31"	64
controllo_3	"POPTR_0008s14480.1"	146	"	"G/A"	"66,0/34,0"	"161/83"	244	stress_42	"POPTR_0008s14480.1"	146	"	"G/A"	"72,7/27,3"	"8/3"	11
controllo_3	"POPTR_0008s14480.1"	146	"	"G/A"	"66,0/34,0"	"161/83"	244	stress_45	"POPTR_0008s14480.1"	146	"	"A/G"	"52,0/48,0"	"13/12"	25
controllo_3	"POPTR_0006s28350.1"	636	"	"A/C"	"66,1/33,9"	"144/74"	218	stress_12bis	"POPTR_0006s28350.1"	636	"	"A/C"	"51,7/48,3"	"15/14"	29
controllo_3	"POPTR_0006s28350.1"	636	"	"A/C"	"66,1/33,9"	"144/74"	218	stress_42	"POPTR_0006s28350.1"	636	"	"A/C"	"54,5/45,5"	"6/5"	11
controllo_3	"POPTR_0006s28350.1"	636	"	"A/C"	"66,1/33,9"	"144/74"	218	stress_45	"POPTR_0006s28350.1"	636	"	"A/C"	"64,0/36,0"	"16/9"	25
controllo_3	"POPTR_0014s15710.1"	106	"	"T/C"	"66,1/33,9"	"289/148"	437	stress_12bis	"POPTR_0014s15710.1"	106	"	"C/T"	"50,5/49,5"	"51/50"	101
controllo_3	"POPTR_0014s15710.1"	106	"	"T/C"	"66,1/33,9"	"289/148"	437	stress_42	"POPTR_0014s15710.1"	106	"	"T/C"	"63,1/36,9"	"41/24"	65
controllo_3	"POPTR_0014s15710.1"	106	"	"T/C"	"66,1/33,9"	"289/148"	437	stress_45	"POPTR_0014s15710.1"	106	"	"T/C"	"59,7/40,3"	"43/29"	72
controllo_3	"POPTR_0004s19380.1"	978	"	"G/T"	"66,1/33,9"	"78/40"	118	stress_12bis	"POPTR_0004s19380.1"	978	"	"G/T"	"69,0/31,0"	"49/22"	71
controllo_3	"POPTR_0004s19380.1"	978	"	"G/T"	"66,1/33,9"	"78/40"	118	stress_42	"POPTR_0004s19380.1"	978	"	"G/T"	"66,7/33,3"	"12/6"	18
controllo_3	"POPTR_0004s19380.1"	978	"	"G/T"	"66,1/33,9"	"78/40"	118	stress_45	"POPTR_0004s19380.1"	978	"	"G/T"	"73,3/26,7"	"11/4"	15
controllo_3	"POPTR_0012s11570.1"	505	"	"G/A"	"66,1/33,9"	"76/39"	115	stress_12bis	"POPTR_0012s11570.1"	505	"	"G/A"	"54,2/45,8"	"32/27"	59
controllo_3	"POPTR_0012s11570.1"	505	"	"G/A"	"66,1/33,9"	"76/39"	115	stress_42	"POPTR_0012s11570.1"	505	"	"G/A"	"58,8/35,3"	"10/6"	17
controllo_3	"POPTR_0012s11570.1"	505	"	"G/A"	"66,1/33,9"	"76/39"	115	stress_45	"POPTR_0012s11570.1"	505	"	"A/G"	"56,2/43,8"	"18/14"	32
controllo_3	"POPTR_0011s17170.1"	128	"	"A/T"	"66,1/33,9"	"613/314"	927	stress_12bis	"POPTR_0011s17170.1"	128	"	"A/T"	"68,8/31,2"	"229/104"	333
controllo_3	"POPTR_0011s17170.1"	128	"	"A/T"	"66,1/33,9"	"613/314"	927	stress_42	"POPTR_0011s17170.1"	128	"	"A/T"	"65,5/34,5"	"78/41"	119
controllo_3	"POPTR_0011s17170.1"	128	"	"A/T"	"66,1/33,9"	"613/314"	927	stress_45	"POPTR_0011s17170.1"	128	"	"A/T"	"64,2/35,8"	"61/34"	95
controllo_3	"POPTR_0001s31700.1"	174	"	"T/C"	"66,1/33,9"	"168/86"	254	stress_12bis	"POPTR_0001s31700.1"	174	"	"T/C"	"68,1/31,9"	"49/23"	72
controllo_3	"POPTR_0001s31700.1"	174	"	"T/C"	"66,1/33,9"	"168/86"	254	stress_42	"POPTR_0001s31700.1"	174	"	"T/C"	"61,2/38,8"	"52/33"	85
controllo_3	"POPTR_0001s31700.1"	174	"	"T/C"	"66,1/33,9"	"168/86"	254	stress_45	"POPTR_0001s31700.1"	174	"	"T/C"	"64,3/35,0"	"90/49"	140
controllo_3	"POPTR_0010s08880.1"	354	"	"T/C"	"66,1/33,9"	"125/64"	189	stress_42	"POPTR_0010s08880.1"	354	"	"T/C"	"77,3/22,7"	"34/10"	44
controllo_3	"POPTR_0010s08880.1"	354	"	"T/C"	"66,1/33,9"	"125/64"	189	stress_45	"POPTR_0010s08880.1"	354	"	"T/C"	"72,9/27,1"	"43/16"	59
controllo_3	"POPTR_0016s06540.1"	865	"	"A/G"	"66,1/33,9"	"166/85"	251	stress_12bis	"POPTR_0016s06540.1"	865	"	"A/G"	"66,7/33,3"	"14/7"	21
controllo_3	"POPTR_0014s11580.1"	105	"	"G/C"	"66,2/33,8"	"96/49"	145	stress_12bis	"POPTR_0014s11580.1"	105	"	"G/C"	"73,9/26,1"	"17/6"	23
controllo_3	"POPTR_0014s11580.1"	105	"	"G/C"	"66,2/33,8"	"96/49"	145	stress_42	"POPTR_0014s11580.1"	105	"	"G/C"	"56,2/43,8"	"9/7"	16
controllo_3	"POPTR_0014s01970.1"	1044	"	"G/A"	"66,2/33,8"	"49/25"	74	stress_42	"POPTR_0014s01970.1"	1044	"	"A/G"	"51,8/48,2"	"58/54"	112
controllo_3	"POPTR_0014s01970.1"	1044	"	"G/A"	"66,2/33,8"	"49/25"	74	stress_45	"POPTR_0014s01970.1"	1044	"	"A/G"	"58,6/41,4"	"65/46"	111
controllo_3	"POPTR_0011s05670.1"	42	"	"C/A"	"66,2/33,8"	"104/53"	157	stress_12bis	"POPTR_0011s05670.1"	42	"	"C/A"	"53,5/46,5"	"23/20"	43
controllo_3	"POPTR_0011s05670.1"	42	"	"C/A"	"66,2/33,8"	"104/53"	157	stress_42	"POPTR_0011s05670.1"	42	"	"C/A"	"71,4/28,6"	"15/6"	21
controllo_3	"POPTR_0011s05670.1"	42	"	"C/A"	"66,2/33,8"	"104/53"	157	stress_45	"POPTR_0011s05670.1"	42	"	"C/A"	"68,8/31,2"	"22/10"	32
controllo_3	"POPTR_0001s37480.1"	774	"	"T/G"	"66,2/33,8"	"94/48"	142	stress_12bis	"POPTR_0001s37480.1"	774	"	"T/G"	"59,5/40,5"	"22/15"	37
controllo_3	"POPTR_0001s37480.1"	774	"	"T/G"	"66,2/33,8"	"94/48"	142	stress_42	"POPTR_0001s37480.1"	774	"	"T/G"	"63,8/36,2"	"30/17"	47
controllo_3	"POPTR_0001s37480.1"	774	"	"T/G"	"66,2/33,8"	"94/48"	142	stress_45	"POPTR_0001s37480.1"	774	"	"T/G"	"74,7/25,3"	"68/23"	91
controllo_3	"POPTR_0010s17400.1"	510	"	"C/T"	"66,2/33,8"	"106/54"	160	stress_42	"POPTR_0010s17400.1"	510	"	"C/T"	"76,9/23,1"	"20/6"	26
controllo_3	"POPTR_0008s11750.1"	228	"	"T/C"	"66,2/33,8"	"92/47"	139	stress_12bis	"POPTR_0008s11750.1"	228	"	"T/C"	"65,3/32,7"	"32/16"	49
controllo_3	"POPTR_0008s11750.1"	228	"	"T/C"	"66,2/33,8"	"92/47"	139	stress_42	"POPTR_0008s11750.1"	228	"	"T/C"	"67,9/32,1"	"19/9"	28
controllo_3	"POPTR_0008s11750.1"	228	"	"T/C"	"66,2/33,8"	"92/47"	139	stress_45	"POPTR_0008s11750.1"	228	"	"T/C"	"66,7/30,0"	"20/9"	30
controllo_3	"POPTR_0008s06580.1"	348	"	"C/T"	"66,3/33,6"	"915/464"	1380	stress_12bis	"POPTR_0008s06580.1"	348	"	"T/C"	"51,9/48,1"	"81/75"	156
controllo_3	"POPTR_0008s06580.1"	348	"	"C/T"	"66,3/33,6"	"915/464"	1380	stress_42	"POPTR_0008s06580.1"	348	"	"C/T"	"62,5/37,5"	"481/289"	770
controllo_3	"POPTR_0008s06580.1"	348	"	"C/T"	"66,3/33,6"	"915/464"	1380	stress_45	"POPTR_0008s06580.1"	348	"	"C/T"	"59,2/40,8"	"623/430"	1053
controllo_3	"POPTR_0006s14180.1"	288	"	"G/A"	"66,3/33,7"	"69/35"	104	stress_12bis	"POPTR_0006s14180.1"	288	"	"G/A"	"51,4/48,6"	"18/17"	35
controllo_3	"POPTR_0006s14180.1"	288	"	"G/A"	"66,3/33,7"	"69/35"	104	stress_45	"POPTR_0006s14180.1"	288	"	"G/A"	"57,1/42,9"	"8/6"	14
controllo_3	"POPTR_0019s14180.1"	1725	"	"G/C"	"66,3/33,7"	"67/34"	101	stress_12bis	"POPTR_0019s14180.1"	1725	"	"C/G"	"57,1/42,9"	"12/9"	21
controllo_3	"POPTR_0019s14180.1"	1725	"	"G/C"	"66,3/33,7"	"67/34"	101	stress_42	"POPTR_0019s14180.1"	1725	"	"C/G"	"52,6/47,4"	"10/9"	19
controllo_3	"POPTR_0019s14180.1"	1725	"	"G/C"	"66,3/33,7"	"67/34"	101	stress_45	"POPTR_0019s14180.1"	1725	"	"G/C"	"55,3/44,7"	"21/17"	38
controllo_3	"POPTR_0014s01970.1"	837	"	"A/G"	"66,3/33,7"	"55/28"	83	stress_42	"POPTR_0014s01970.1"	837	"	"A/G"	"53,8/46,2"	"63/54"	117
controllo_3	"POPTR_0014s01970.1"	837	"	"A/G"	"66,3/33,7"	"55/28"	83	stress_45	"POPTR_0014s01970.1"	837	"	"A/G"	"56,6/43,4"	"69/53"	122
controllo_3	"POPTR_0004s01940.1"	198	"	"T/C"	"66,3/33,7"	"414/210"	624	stress_12bis	"POPTR_0004s01940.1"	198	"	"T/C"	"50,3/49,7"	"99/98"	197
controllo_3	"POPTR_0004s01940.1"	198	"	"T/C"	"66,3/33,7"	"414/210"	624	stress_42	"POPTR_0004s01940.1"	198	"	"C/T"	"72,9/27,1"	"70/26"	96
controllo_3	"POPTR_0004s01940.1"	198	"	"T/C"	"66,3/33,7"	"414/210"	624	stress_45	"POPTR_0004s01940.1"	198	"	"C/T"	"83,1/16,9"	"69/14"	83
controllo_3	"POPTR_0010s21280.1"	245	"	"G/C"	"66,3/33,7"	"114/58"	172	stress_12bis	"POPTR_0010s21280.1"	245	"	"G/C"	"63,8/36,2"	"37/21"	58
controllo_3	"POPTR_0010s21280.1"	245	"	"G/C"	"66,3/33,7"	"114/58"	172	stress_42	"POPTR_0010s21280.1"	245	"	"G/C"	"61,5/38,5"	"16/10"	26
controllo_3	"POPTR_0010s21280.1"	245	"	"G/C"	"66,3/33,7"	"114/58"	172	stress_45	"POPTR_0010s21280.1"	245	"	"G/C"	"70,8/29,2"	"34/14"	48
controllo_3	"POPTR_0008s18230.1"	6	"	"C/T"	"66,3/33,7"	"108/55"	163	stress_12bis	"POPTR_0008s18230.1"	6	"	"T/C"	"52,6/47,4"	"30/27"	57
controllo_3	"POPTR_0008s18230.1"	6	"	"C/T"	"66,3/33,7"	"108/55"	163	stress_42	"POPTR_0008s18230.1"	6	"	"C/T"	"70,6/29,4"	"12/5"	17
controllo_3	"POPTR_0008s03950.1"	786	"	"C/T"	"66,3/33,7"	"715/364"	1079	stress_12bis	"POPTR_0008s03950.1"	786	"	"C/T"	"66,7/33,3"	"106/53"	159
controllo_3	"POPTR_0008s03950.1"	786	"	"C/T"	"66,3/33,7"	"715/364"	1079	stress_42	"POPTR_0008s03950.1"	786	"	"C/T"	"56,9/43,1"	"168/127"	295
controllo_3	"POPTR_0008s03950.1"	786	"	"C/T"	"66,3/33,7"	"715/364"	1079	stress_45	"POPTR_0008s03950.1"	786	"	"C/T"	"63,7/36,3"	"219/125"	344
controllo_3	"POPTR_0009s11920.1"	135	"	"A/T"	"66,4/31,6"	"162/77"	244	stress_12bis	"POPTR_0009s11920.1"	135	"	"T/A"	"53,1/46,9"	"34/30"	64
controllo_3	"POPTR_0009s11920.1"	135	"	"A/T"	"66,4/31,6"	"162/77"	244	stress_42	"POPTR_0009s11920.1"	135	"	"A/T"	"55,6/44,4"	"55/44"	99
controllo_3	"POPTR_0009s11920.1"	135	"	"A/T"	"66,4/31,6"	"162/77"	244	stress_45	"POPTR_0009s11920.1"	135	"	"T/A"	"53,4/46,1"	"103/89"	193
controllo_3	"POPTR_0006s08230.1"	180	"	"T/C"	"66,4/33,6"	"73/37"	110	stress_12bis	"POPTR_0006s08230.1"	180	"	"T/C"	"62,5/37,5"	"10/6"	16
controllo_3	"POPTR_0006s08230.1"	180	"	"T/C"	"66,4/33,6"	"73/37"	110	stress_42	"POPTR_0006s08230.1"	180	"	"T/C"	"61,5/38,5"	"16/10"	26
controllo_3	"POPTR_0006s08230.1"	180	"	"T/C"	"66,4/33,6"	"73/37"	110	stress_45	"POPTR_0006s08230.1"	180	"	"T/C"	"71,2/28,8"	"37/15"	52
controllo_3	"POPTR_0006s03920.1"	135	"	"T/A"	"66,4/33,6"	"77/39"	116	stress_45	"POPTR_0006s03920.1"	135	"	"T/A"	"63,2/36,8"	"12/7"	19
controllo_3	"POPTR_0006s10250.1"	564	"	"A/G"	"66,4/33,6"	"87/44"	131	stress_12bis	"POPTR_0006s10250.1"	564	"	"A/G"	"50,0/50,0"	"14/14"	28
controllo_3	"POPTR_0006s10250.1"	564	"	"A/G"	"66,4/33,6"	"87/44"	131	stress_42	"POPTR_0006s10250.1"	564	"	"G/A"	"63,6/36,4"	"7/4"	11
controllo_3	"POPTR_0006s10250.1"	564	"	"A/G"	"66,4/33,6"	"87/44"	131	stress_45	"POPTR_0006s10250.1"	564	"	"A/G"	"59,5/40,5"	"22/15"	37
controllo_3	"POPTR_0006s11420.1"	227	"	"C/T"	"66,4/33,6"	"73/37"	110	stress_12bis	"POPTR_0006s11420.1"	227	"	"C/T"	"70,0/30,0"	"21/9"	30
controllo_3	"POPTR_0006s11420.1"	227	"	"C/T"	"66,4/33,6"	"73/37"	110	stress_42	"POPTR_0006s11420.1"	227	"	"C/T"	"66,7/33,3"	"8/4"	12
controllo_3	"POPTR_0006s11420.1"	227	"	"C/T"	"66,4/33,6"	"73/37"	110	stress_45	"POPTR_0006s11420.1"	227	"	"C/T"	"62,1/37,9"	"18/11"	29
controllo_3	"POPTR_0003s08800.1"	2109	"	"A/G"	"66,4/33,6"	"71/36"	107	stress_12bis	"POPTR_0003s08800.1"	2109	"	"A/G"	"62,1/37,9"	"18/11"	29
controllo_3	"POPTR_0003s08800.1"	2109	"	"A/G"	"66,4/33,6"	"71/36"	107	stress_42	"POPTR_0003s08800.1"	2109	"	"A/G"	"64,3/35,7"	"9/5"	14
controllo_3	"POPTR_0003s08800.1"	2109	"	"A/G"	"66,4/33,6"	"71/36"	107	stress_45	"POPTR_0003s08800.1"	2109	"	"A/G"	"61,9/38,1"	"13/8"	21
controllo_3	"POPTR_0019s12320.1"	897	"	"A/G"	"66,4/33,6"	"81/41"	122	stress_12bis	"POPTR_0019s12320.1"	897	"	"A/G"	"71,9/28,1"	"23/9"	32
controllo_3	"POPTR_0014s15710.1"	105	"	"A/G"	"66,4/33,6"	"282/143"	425	stress_12bis	"POPTR_0014s15710.1"	105	"	"A/G"	"50,0/50,0"	"49/49"	98
controllo_3	"POPTR_0014s15710.1"	105	"	"A/G"	"66,4/33,6"	"282/143"	425	stress_42	"POPTR_0014s15710.1"	105	"	"A/G"	"61,9/38,1"	"39/24"	63
controllo_3	"POPTR_0014s15710.1"	105	"	"A/G"	"66,4/33,6"	"282/143"	425	stress_45	"POPTR_0014s15710.1"	105	"	"A/G"	"60,3/39,7"	"41/27"	68
controllo_3	"POPTR_0004s14960.1"	2379	"	"C/T"	"66,4/33,6"	"83/42"	125	stress_12bis	"POPTR_0004s14960.1"	2379	"	"C/T"	"48,8/46,5"	"21/20"	43
controllo_3	"POPTR_0004s14960.1"	2379	"	"C/T"	"66,4/33,6"	"83/42"	125	stress_42	"POPTR_0004s14960.1"	2379	"	"C/T"	"80,0/20,0"	"8/2"	10
controllo_3	"POPTR_0004s14960.1"	2379	"	"C/T"	"66,4/33,6"	"83/42"	125	stress_45	"POPTR_0004s14960.1"	2379	"	"C/T"	"59,1/40,9"	"13/9"	22
controllo_3	"POPTR_0004s01030.1"	327	"	"G/T"	"66,4/33,6"	"81/41"	122	stress_12bis	"POPTR_0004s01030.1"	327	"	"G/T"	"81,2/18,8"	"26/6"	32
controllo_3	"POPTR_0004s01030.1"	327	"	"G/T"	"66,4/33,6"	"81/41"	122	stress_42	"POPTR_0004s01030.1"	327	"	"G/T"	"68,4/31,6"	"13/6"	19
controllo_3	"POPTR_0004s01030.1"	327	"	"G/T"	"66,4/33,6"	"81/41"	122	stress_45	"POPTR_0004s01030.1"	327	"	"T/G"	"60,0/40,0"	"9/6"	15
controllo_3	"POPTR_0001s06910.1"	1122	"	"C/T"	"66,4/33,6"	"71/36"	107	stress_12bis	"POPTR_0001s06910.1"	1122	"	"C/T"	"85,0/15,0"	"17/3"	20
controllo_3	"POPTR_0001s06910.1"	1122	"	"C/T"	"66,4/33,6"	"71/36"	107	stress_42	"POPTR_0001s06910.1"	1122	"	"C/T"	"61,5/38,5"	"24/15"	39
controllo_3	"POPTR_0001s06910.1"	1122	"	"C/T"	"66,4/33,6"	"71/36"	107	stress_45	"POPTR_0001s06910.1"	1122	"	"C/T"	"71,4/28,6"	"40/16"	56
controllo_3	"POPTR_0010s19930.1"	518	"	"C/A"	"66,4/33,6"	"196/99"	295	stress_12bis	"POPTR_0010s19930.1"	518	"	"A/C"	"68,2/31,8"	"15/7"	22
controllo_3	"POPTR_0010s19930.1"	518	"	"C/A"	"66,4/33,6"	"196/99"	295	stress_42	"POPTR_0010s19930.1"	518	"	"A/C"	"58,3/41,7"	"81/58"	139
controllo_3	"POPTR_0010s19930.1"	518	"	"C/A"	"66,4/33,6"	"196/99"	295	stress_45	"POPTR_0010s19930.1"	518	"	"A/C"	"54,7/45,3"	"70/58"	128
controllo_3	"POPTR_0010s07560.1"	1404	"	"G/C"	"66,4/33,6"	"97/49"	146	stress_12bis	"POPTR_0010s07560.1"	1404	"	"G/C"	"60,8/39,2"	"31/20"	51
controllo_3	"POPTR_0010s07560.1"	1404	"	"G/C"	"66,4/33,6"	"97/49"	146	stress_42	"POPTR_0010s07560.1"	1404	"	"G/C"	"66,7/33,3"	"26/13"	39
controllo_3	"POPTR_0010s07560.1"	1404	"	"G/C"	"66,4/33,6"	"97/49"	146	stress_45	"POPTR_0010s07560.1"	1404	"	"G/C"	"65,2/34,8"	"43/23"	66
controllo_3	"POPTR_0010s11780.1"	703	"	"C/G"	"66,4/33,6"	"75/38"	113	stress_12bis	"POPTR_0010s11780.1"	703	"	"C/G"	"79,5/20,5"	"31/8"	39
controllo_3	"POPTR_0010s11780.1"	703	"	"C/G"	"66,4/33,6"	"75/38"	113	stress_42	"POPTR_0010s11780.1"	703	"	"G/C"	"53,6/46,4"	"52/45"	97
controllo_3	"POPTR_0010s11780.1"	703	"	"C/G"	"66,4/33,6"	"75/38"	113	stress_45	"POPTR_0010s11780.1"	703	"	"C/G"	"54,4/45,6"	"62/52"	114
controllo_3	"POPTR_0010s13860.1"	207	"	"T/C"	"66,4/33,6"	"77/39"	116	stress_12bis	"POPTR_0010s13860.1"	207	"	"T/C"	"58,9/41,1"	"33/23"	56
controllo_3	"POPTR_0010s13860.1"	207	"	"T/C"	"66,4/33,6"	"77/39"	116	stress_42	"POPTR_0010s13860.1"	207	"	"T/C"	"56,2/43,8"	"9/7"	16
controllo_3	"POPTR_0002s07390.1"	179	"	"A/G"	"66,4/33,6"	"97/49"	146	stress_12bis	"POPTR_0002s07390.1"	179	"	"A/G"	"64,5/35,5"	"20/11"	31
controllo_3	"POPTR_0002s20880.1"	135	"	"A/G"	"66,4/33,6"	"71/36"	107	stress_12bis	"POPTR_0002s20880.1"	135	"	"A/G"	"66,7/33,3"	"14/7"	21
controllo_3	"POPTR_0002s20880.1"	135	"	"A/G"	"66,4/33,6"	"71/36"	107	stress_45	"POPTR_0002s20880.1"	135	"	"A/G"	"72,2/27,8"	"13/5"	18
controllo_3	"POPTR_0008s20870.1"	411	"	"G/C"	"66,4/33,6"	"71/36"	107	stress_12bis	"POPTR_0008s20870.1"	411	"	"C/G"	"51,9/48,1"	"14/13"	27
controllo_3	"POPTR_0008s20870.1"	411	"	"G/C"	"66,4/33,6"	"71/36"	107	stress_42	"POPTR_0008s20870.1"	411	"	"C/G"	"70,4/29,6"	"19/8"	27
controllo_3	"POPTR_0008s20870.1"	411	"	"G/C"	"66,4/33,6"	"71/36"	107	stress_45	"POPTR_0008s20870.1"	411	"	"C/G"	"50,0/50,0"	"14/14"	28
controllo_3	"POPTR_0009s12420.1"	513	"	"C/T"	"66,5/32,3"	"107/52"	161	stress_42	"POPTR_0009s12420.1"	513	"	"C/T"	"73,3/26,7"	"165/60"	225
controllo_3	"POPTR_0009s12420.1"	513	"	"C/T"	"66,5/32,3"	"107/52"	161	stress_45	"POPTR_0009s12420.1"	513	"	"C/T"	"70,8/29,2"	"155/64"	219
controllo_3	"POPTR_0010s21280.1"	1686	"	"C/G"	"66,6/33,4"	"201/101"	302	stress_12bis	"POPTR_0010s21280.1"	1686	"	"C/G"	"75,4/24,6"	"89/29"	118
controllo_3	"POPTR_0010s21280.1"	1686	"	"C/G"	"66,6/33,4"	"201/101"	302	stress_42	"POPTR_0010s21280.1"	1686	"	"C/G"	"68,6/31,4"	"48/22"	70
controllo_3	"POPTR_0010s21280.1"	1686	"	"C/G"	"66,6/33,4"	"201/101"	302	stress_45	"POPTR_0010s21280.1"	1686	"	"C/G"	"68,3/31,7"	"56/26"	82
controllo_3	"POPTR_0008s20770.1"	436	"	"G/A"	"66,6/33,4"	"231/116"	347	stress_12bis	"POPTR_0008s20770.1"	436	"	"G/A"	"66,0/34,0"	"105/54"	159
controllo_3	"POPTR_0008s20770.1"	436	"	"G/A"	"66,6/33,4"	"231/116"	347	stress_42	"POPTR_0008s20770.1"	436	"	"A/G"	"62,1/37,9"	"64/39"	103
controllo_3	"POPTR_0008s20770.1"	436	"	"G/A"	"66,6/33,4"	"231/116"	347	stress_45	"POPTR_0008s20770.1"	436	"	"A/G"	"59,6/40,4"	"102/69"	171
controllo_3	"POPTR_0005s25540.1"	261	"	"A/G"	"66,7/33,3"	"329/164"	493	stress_12bis	"POPTR_0005s25540.1"	261	"	"A/G"	"78,0/22,0"	"46/13"	59
controllo_3	"POPTR_0006s14180.1"	269	"	"C/T"	"66,7/33,3"	"72/36"	108	stress_12bis	"POPTR_0006s14180.1"	269	"	"C/T"	"51,5/48,5"	"17/16"	33
controllo_3	"POPTR_0006s14180.1"	269	"	"C/T"	"66,7/33,3"	"72/36"	108	stress_45	"POPTR_0006s14180.1"	269	"	"C/T"	"66,7/33,3"	"10/5"	15
controllo_3	"POPTR_0006s00620.1"	2136	"	"A/C"	"66,7/33,3"	"68/34"	102	stress_12bis	"POPTR_0006s00620.1"	2136	"	"A/C"	"75,0/25,0"	"12/4"	16
controllo_3	"POPTR_0018s02230.1"	93	"	"C/T"	"66,7/33,3"	"72/36"	108	stress_12bis	"POPTR_0018s02230.1"	93	"	"C/T"	"71,8/28,2"	"28/11"	39
controllo_3	"POPTR_0018s02230.1"	93	"	"C/T"	"66,7/33,3"	"72/36"	108	stress_42	"POPTR_0018s02230.1"	93	"	"C/T"	"55,9/44,1"	"33/26"	59
controllo_3	"POPTR_0018s02230.1"	93	"	"C/T"	"66,7/33,3"	"72/36"	108	stress_45	"POPTR_0018s02230.1"	93	"	"C/T"	"60,0/40,0"	"63/42"	105
controllo_3	"POPTR_0018s02230.1"	389	"	"A/C"	"66,7/33,3"	"64/32"	96	stress_42	"POPTR_0018s02230.1"	389	"	"A/C"	"71,2/28,8"	"74/30"	104
controllo_3	"POPTR_0018s02230.1"	389	"	"A/C"	"66,7/33,3"	"64/32"	96	stress_45	"POPTR_0018s02230.1"	389	"	"A/C"	"70,1/29,9"	"82/35"	117
controllo_3	"POPTR_0003s18530.1"	66	"	"G/A"	"66,7/33,3"	"80/40"	120	stress_12bis	"POPTR_0003s18530.1"	66	"	"G/A"	"51,1/48,9"	"24/23"	47
controllo_3	"POPTR_0003s18530.1"	66	"	"G/A"	"66,7/33,3"	"80/40"	120	stress_42	"POPTR_0003s18530.1"	66	"	"G/A"	"70,8/29,2"	"17/7"	24
controllo_3	"POPTR_0003s18530.1"	66	"	"G/A"	"66,7/33,3"	"80/40"	120	stress_45	"POPTR_0003s18530.1"	66	"	"G/A"	"60,5/39,5"	"26/17"	43
controllo_3	"POPTR_0013s01080.1"	275	"	"G/T"	"66,7/33,3"	"70/35"	105	stress_12bis	"POPTR_0013s01080.1"	275	"	"G/T"	"63,4/36,6"	"26/15"	41
controllo_3	"POPTR_0013s01080.1"	275	"	"G/T"	"66,7/33,3"	"70/35"	105	stress_42	"POPTR_0013s01080.1"	275	"	"G/T"	"53,8/46,2"	"7/6"	13
controllo_3	"POPTR_0013s01080.1"	275	"	"G/T"	"66,7/33,3"	"70/35"	105	stress_45	"POPTR_0013s01080.1"	275	"	"G/T"	"61,1/38,9"	"11/7"	18
controllo_3	"POPTR_0014s09800.1"	482	"	"G/C"	"66,7/33,3"	"126/63"	189	stress_12bis	"POPTR_0014s09800.1"	482	"	"G/C"	"60,5/39,5"	"46/30"	76
controllo_3	"POPTR_0014s09800.1"	482	"	"G/C"	"66,7/33,3"	"126/63"	189	stress_42	"POPTR_0014s09800.1"	482	"	"G/C"	"71,4/28,6"	"10/4"	14
controllo_3	"POPTR_0014s09800.1"	482	"	"G/C"	"66,7/33,3"	"126/63"	189	stress_45	"POPTR_0014s09800.1"	482	"	"G/C"	"75,0/25,0"	"9/3"	12
controllo_3	"POPTR_0014s17610.1"	70	"	"T/G"	"66,7/33,3"	"78/39"	117	stress_12bis	"POPTR_0014s17610.1"	70	"	"T/G"	"61,0/39,0"	"25/16"	41
controllo_3	"POPTR_0014s17610.1"	70	"	"T/G"	"66,7/33,3"	"78/39"	117	stress_45	"POPTR_0014s17610.1"	70	"	"T/G"	"63,6/36,4"	"7/4"	11
controllo_3	"POPTR_0004s23310.1"	1092	"	"C/T"	"66,7/33,3"	"106/53"	159	stress_12bis	"POPTR_0004s23310.1"	1092	"	"C/T"	"65,6/34,4"	"21/11"	32
controllo_3	"POPTR_0004s23310.1"	1092	"	"C/T"	"66,7/33,3"	"106/53"	159	stress_42	"POPTR_0004s23310.1"	1092	"	"C/T"	"60,0/40,0"	"6/4"	10
controllo_3	"POPTR_0004s23310.1"	1092	"	"C/T"	"66,7/33,3"	"106/53"	159	stress_45	"POPTR_0004s23310.1"	1092	"	"C/T"	"50,0/50,0"	"13/13"	26
controllo_3	"POPTR_0015s08540.1"	408	"	"C/T"	"66,7/33,3"	"150/75"	225	stress_12bis	"POPTR_0015s08540.1"	408	"	"C/T"	"51,4/48,6"	"37/35"	72
controllo_3	"POPTR_0015s08540.1"	408	"	"C/T"	"66,7/33,3"	"150/75"	225	stress_45	"POPTR_0015s08540.1"	408	"	"T/C"	"54,2/45,8"	"13/11"	24
controllo_3	"POPTR_0001s25760.1"	642	"	"T/C"	"66,7/33,3"	"84/42"	126	stress_12bis	"POPTR_0001s25760.1"	642	"	"T/C"	"73,3/26,7"	"22/8"	30
controllo_3	"POPTR_0001s25760.1"	642	"	"T/C"	"66,7/33,3"	"84/42"	126	stress_42	"POPTR_0001s25760.1"	642	"	"C/T"	"50,0/50,0"	"5/5"	10
controllo_3	"POPTR_0001s25760.1"	642	"	"T/C"	"66,7/33,3"	"84/42"	126	stress_45	"POPTR_0001s25760.1"	642	"	"T/C"	"72,0/28,0"	"18/7"	25
controllo_3	"POPTR_0010s20060.1"	81	"	"G/A"	"66,7/33,3"	"146/73"	219	stress_12bis	"POPTR_0010s20060.1"	81	"	"G/A"	"72,4/27,6"	"63/24"	87
controllo_3	"POPTR_0010s20060.1"	81	"	"G/A"	"66,7/33,3"	"146/73"	219	stress_42	"POPTR_0010s20060.1"	81	"	"A/G"	"53,8/46,2"	"7/6"	13
controllo_3	"POPTR_0010s20060.1"	81	"	"G/A"	"66,7/33,3"	"146/73"	219	stress_45	"POPTR_0010s20060.1"	81	"	"G/A"	"53,6/46,4"	"15/13"	28
controllo_3	"POPTR_0007s00300.1"	434	"	"G/A"	"66,7/33,3"	"80/40"	120	stress_12bis	"POPTR_0007s00300.1"	434	"	"A/G"	"65,9/34,1"	"27/14"	41
controllo_3	"POPTR_0007s00300.1"	434	"	"G/A"	"66,7/33,3"	"80/40"	120	stress_42	"POPTR_0007s00300.1"	434	"	"G/A"	"57,1/42,9"	"12/9"	21
controllo_3	"POPTR_0007s00300.1"	434	"	"G/A"	"66,7/33,3"	"80/40"	120	stress_45	"POPTR_0007s00300.1"	434	"	"G/A"	"69,6/30,4"	"16/7"	23
controllo_3	"POPTR_0007s15300.1"	600	"	"A/G"	"66,7/33,3"	"22/11"	33	stress_42	"POPTR_0007s15300.1"	600	"	"A/G"	"57,3/42,7"	"59/44"	103
controllo_3	"POPTR_0002s08010.1"	580	"	"T/G"	"66,7/33,3"	"70/35"	105	stress_12bis	"POPTR_0002s08010.1"	580	"	"T/G"	"77,8/22,2"	"14/4"	18
controllo_3	"POPTR_0008s05640.1"	77	"	"C/T"	"66,7/33,3"	"86/43"	129	stress_12bis	"POPTR_0008s05640.1"	77	"	"C/T"	"60,0/40,0"	"18/12"	30
controllo_3	"POPTR_0008s05640.1"	77	"	"C/T"	"66,7/33,3"	"86/43"	129	stress_42	"POPTR_0008s05640.1"	77	"	"C/T"	"70,6/29,4"	"12/5"	17
controllo_3	"POPTR_0008s05640.1"	77	"	"C/T"	"66,7/33,3"	"86/43"	129	stress_45	"POPTR_0008s05640.1"	77	"	"T/C"	"56,5/43,5"	"13/10"	23
controllo_3	"POPTR_0008s03950.1"	675	"	"A/C"	"66,7/33,3"	"742/371"	1113	stress_12bis	"POPTR_0008s03950.1"	675	"	"A/C"	"69,8/30,2"	"118/51"	169
controllo_3	"POPTR_0008s03950.1"	675	"	"A/C"	"66,7/33,3"	"742/371"	1113	stress_42	"POPTR_0008s03950.1"	675	"	"A/C"	"64,5/35,2"	"194/106"	301
controllo_3	"POPTR_0008s03950.1"	675	"	"A/C"	"66,7/33,3"	"742/371"	1113	stress_45	"POPTR_0008s03950.1"	675	"	"A/C"	"68,5/31,5"	"252/116"	368
controllo_3	"POPTR_0016s12260.1"	771	"	"C/A"	"66,7/33,3"	"134/67"	201	stress_12bis	"POPTR_0016s12260.1"	771	"	"C/A"	"56,2/43,8"	"45/35"	80
controllo_3	"POPTR_0016s12260.1"	771	"	"C/A"	"66,7/33,3"	"134/67"	201	stress_42	"POPTR_0016s12260.1"	771	"	"C/A"	"73,9/26,1"	"34/12"	46
controllo_3	"POPTR_0016s12260.1"	771	"	"C/A"	"66,7/33,3"	"134/67"	201	stress_45	"POPTR_0016s12260.1"	771	"	"C/A"	"69,5/30,5"	"41/18"	59
controllo_3	"POPTR_0007s12070.1"	282	"	"A/T"	"66,8/33,0"	"504/249"	754	stress_12bis	"POPTR_0007s12070.1"	282	"	"A/T"	"65,8/34,2"	"223/116"	339
controllo_3	"POPTR_0007s12070.1"	282	"	"A/T"	"66,8/33,0"	"504/249"	754	stress_42	"POPTR_0007s12070.1"	282	"	"A/T"	"53,3/46,7"	"32/28"	60
controllo_3	"POPTR_0007s12070.1"	282	"	"A/T"	"66,8/33,0"	"504/249"	754	stress_45	"POPTR_0007s12070.1"	282	"	"A/T"	"63,9/36,1"	"53/30"	83
controllo_3	"POPTR_0006s10250.1"	1158	"	"C/T"	"66,8/33,2"	"123/61"	184	stress_12bis	"POPTR_0006s10250.1"	1158	"	"C/T"	"84,0/16,0"	"21/4"	25
controllo_3	"POPTR_0006s10250.1"	1158	"	"C/T"	"66,8/33,2"	"123/61"	184	stress_42	"POPTR_0006s10250.1"	1158	"	"C/T"	"64,3/35,7"	"9/5"	14
controllo_3	"POPTR_0006s10250.1"	1158	"	"C/T"	"66,8/33,2"	"123/61"	184	stress_45	"POPTR_0006s10250.1"	1158	"	"C/T"	"57,4/42,6"	"27/20"	47
controllo_3	"POPTR_0014s15710.1"	405	"	"C/T"	"66,8/33,2"	"378/188"	566	stress_12bis	"POPTR_0014s15710.1"	405	"	"C/T"	"55,5/44,5"	"66/53"	119
controllo_3	"POPTR_0014s15710.1"	405	"	"C/T"	"66,8/33,2"	"378/188"	566	stress_42	"POPTR_0014s15710.1"	405	"	"C/T"	"56,8/43,2"	"42/32"	74
controllo_3	"POPTR_0014s15710.1"	405	"	"C/T"	"66,8/33,2"	"378/188"	566	stress_45	"POPTR_0014s15710.1"	405	"	"C/T"	"66,9/33,1"	"89/44"	133
controllo_3	"POPTR_0011s12440.1"	356	"	"G/C"	"66,8/33,2"	"123/61"	184	stress_12bis	"POPTR_0011s12440.1"	356	"	"G/C"	"53,9/46,1"	"41/35"	76
controllo_3	"POPTR_0011s12440.1"	356	"	"G/C"	"66,8/33,2"	"123/61"	184	stress_45	"POPTR_0011s12440.1"	356	"	"G/C"	"69,2/30,8"	"18/8"	26
controllo_3	"POPTR_0011s12440.1"	361	"	"G/C"	"66,8/33,2"	"123/61"	184	stress_12bis	"POPTR_0011s12440.1"	361	"	"G/C"	"54,5/45,5"	"42/35"	77
controllo_3	"POPTR_0011s12440.1"	361	"	"G/C"	"66,8/33,2"	"123/61"	184	stress_42	"POPTR_0011s12440.1"	361	"	"G/C"	"76,9/15,4"	"10/2"	13
controllo_3	"POPTR_0011s12440.1"	361	"	"G/C"	"66,8/33,2"	"123/61"	184	stress_45	"POPTR_0011s12440.1"	361	"	"G/C"	"69,2/30,8"	"18/8"	26
controllo_3	"POPTR_0001s45350.1"	356	"	"A/G"	"66,8/33,2"	"165/82"	247	stress_12bis	"POPTR_0001s45350.1"	356	"	"A/G"	"58,3/41,7"	"7/5"	12
controllo_3	"POPTR_0010s26200.1"	89	"	"T/C"	"66,8/33,2"	"143/71"	214	stress_12bis	"POPTR_0010s26200.1"	89	"	"T/C"	"66,0/34,0"	"62/32"	94
controllo_3	"POPTR_0010s26200.1"	89	"	"T/C"	"66,8/33,2"	"143/71"	214	stress_42	"POPTR_0010s26200.1"	89	"	"T/C"	"79,3/20,7"	"23/6"	29
controllo_3	"POPTR_0007s08400.1"	1566	"	"T/C"	"66,8/33,2"	"179/89"	268	stress_12bis	"POPTR_0007s08400.1"	1566	"	"T/C"	"58,1/41,9"	"43/31"	74
controllo_3	"POPTR_0007s08400.1"	1566	"	"T/C"	"66,8/33,2"	"179/89"	268	stress_42	"POPTR_0007s08400.1"	1566	"	"T/C"	"64,4/34,5"	"56/30"	87
controllo_3	"POPTR_0007s08400.1"	1566	"	"T/C"	"66,8/33,2"	"179/89"	268	stress_45	"POPTR_0007s08400.1"	1566	"	"T/C"	"63,3/36,7"	"152/88"	240
controllo_3	"POPTR_0016s06540.1"	866	"	"T/C"	"66,8/33,2"	"171/85"	256	stress_12bis	"POPTR_0016s06540.1"	866	"	"T/C"	"68,2/31,8"	"15/7"	22
controllo_3	"POPTR_0001s35230.1"	321	"	"T/A"	"66,9/32,7"	"460/225"	688	stress_12bis	"POPTR_0001s35230.1"	321	"	"T/A"	"66,7/33,3"	"124/62"	186
controllo_3	"POPTR_0001s35230.1"	321	"	"T/A"	"66,9/32,7"	"460/225"	688	stress_42	"POPTR_0001s35230.1"	321	"	"T/A"	"66,2/33,8"	"43/22"	65
controllo_3	"POPTR_0001s35230.1"	321	"	"T/A"	"66,9/32,7"	"460/225"	688	stress_45	"POPTR_0001s35230.1"	321	"	"T/A"	"66,1/33,9"	"84/43"	127
controllo_3	"POPTR_0008s19370.1"	819	"	"C/T"	"66,9/33,0"	"1227/605"	1833	stress_12bis	"POPTR_0008s19370.1"	819	"	"C/T"	"67,2/32,7"	"730/355"	1086
controllo_3	"POPTR_0008s19370.1"	819	"	"C/T"	"66,9/33,0"	"1227/605"	1833	stress_42	"POPTR_0008s19370.1"	819	"	"C/T"	"80,2/19,8"	"69/17"	86
controllo_3	"POPTR_0008s19370.1"	819	"	"C/T"	"66,9/33,0"	"1227/605"	1833	stress_45	"POPTR_0008s19370.1"	819	"	"C/T"	"79,4/20,6"	"54/14"	68
controllo_3	"POPTR_0005s25540.1"	804	"	"T/G"	"66,9/33,1"	"350/173"	523	stress_12bis	"POPTR_0005s25540.1"	804	"	"T/G"	"78,9/21,1"	"60/16"	76
controllo_3	"POPTR_0006s06180.1"	639	"	"T/C"	"66,9/33,1"	"111/55"	166	stress_12bis	"POPTR_0006s06180.1"	639	"	"T/C"	"63,6/36,4"	"42/24"	66
controllo_3	"POPTR_0006s06180.1"	639	"	"T/C"	"66,9/33,1"	"111/55"	166	stress_42	"POPTR_0006s06180.1"	639	"	"T/C"	"72,2/27,8"	"13/5"	18
controllo_3	"POPTR_0006s06180.1"	639	"	"T/C"	"66,9/33,1"	"111/55"	166	stress_45	"POPTR_0006s06180.1"	639	"	"T/C"	"80,0/20,0"	"40/10"	50
controllo_3	"POPTR_0019s08610.1"	573	"	"C/G"	"66,9/33,1"	"89/44"	133	stress_12bis	"POPTR_0019s08610.1"	573	"	"G/C"	"57,1/42,9"	"8/6"	14
controllo_3	"POPTR_0019s08610.1"	573	"	"C/G"	"66,9/33,1"	"89/44"	133	stress_42	"POPTR_0019s08610.1"	573	"	"G/C"	"53,7/46,3"	"22/19"	41
controllo_3	"POPTR_0019s08610.1"	573	"	"C/G"	"66,9/33,1"	"89/44"	133	stress_45	"POPTR_0019s08610.1"	573	"	"C/G"	"58,9/41,1"	"33/23"	56
controllo_3	"POPTR_0004s01030.1"	216	"	"G/T"	"66,9/33,1"	"81/40"	121	stress_12bis	"POPTR_0004s01030.1"	216	"	"G/T"	"58,3/41,7"	"21/15"	36
controllo_3	"POPTR_0004s01030.1"	216	"	"G/T"	"66,9/33,1"	"81/40"	121	stress_42	"POPTR_0004s01030.1"	216	"	"G/T"	"53,3/46,7"	"8/7"	15
controllo_3	"POPTR_0004s01030.1"	216	"	"G/T"	"66,9/33,1"	"81/40"	121	stress_45	"POPTR_0004s01030.1"	216	"	"T/G"	"57,9/42,1"	"11/8"	19
controllo_3	"POPTR_0004s01030.1"	546	"	"T/C"	"66,9/33,1"	"93/46"	139	stress_12bis	"POPTR_0004s01030.1"	546	"	"T/C"	"51,9/48,1"	"14/13"	27
controllo_3	"POPTR_0004s01030.1"	546	"	"T/C"	"66,9/33,1"	"93/46"	139	stress_42	"POPTR_0004s01030.1"	546	"	"T/C"	"66,7/33,3"	"12/6"	18
controllo_3	"POPTR_0004s01030.1"	546	"	"T/C"	"66,9/33,1"	"93/46"	139	stress_45	"POPTR_0004s01030.1"	546	"	"T/C"	"64,7/35,3"	"11/6"	17
controllo_3	"POPTR_0009s01470.1"	970	"	"G/A"	"66,9/33,1"	"97/48"	145	stress_12bis	"POPTR_0009s01470.1"	970	"	"G/A"	"68,3/31,7"	"28/13"	41
controllo_3	"POPTR_0009s01470.1"	970	"	"G/A"	"66,9/33,1"	"97/48"	145	stress_42	"POPTR_0009s01470.1"	970	"	"G/A"	"61,5/38,5"	"8/5"	13
controllo_3	"POPTR_0009s01470.1"	970	"	"G/A"	"66,9/33,1"	"97/48"	145	stress_45	"POPTR_0009s01470.1"	970	"	"G/A"	"58,1/41,9"	"25/18"	43
controllo_3	"POPTR_0009s10780.1"	498	"	"C/T"	"66,9/33,1"	"85/42"	127	stress_12bis	"POPTR_0009s10780.1"	498	"	"C/T"	"58,3/41,7"	"7/5"	12
controllo_3	"POPTR_0010s15250.1"	632	"	"G/A"	"66,9/33,1"	"95/47"	142	stress_12bis	"POPTR_0010s15250.1"	632	"	"G/A"	"54,5/45,5"	"30/25"	55
controllo_3	"POPTR_0010s15250.1"	632	"	"G/A"	"66,9/33,1"	"95/47"	142	stress_42	"POPTR_0010s15250.1"	632	"	"A/G"	"60,0/40,0"	"21/14"	35
controllo_3	"POPTR_0010s15250.1"	632	"	"G/A"	"66,9/33,1"	"95/47"	142	stress_45	"POPTR_0010s15250.1"	632	"	"A/G"	"65,6/34,4"	"21/11"	32
controllo_3	"POPTR_0008s06580.1"	232	"	"G/T"	"66,9/33,1"	"635/314"	949	stress_12bis	"POPTR_0008s06580.1"	232	"	"T/G"	"51,5/48,5"	"52/49"	101
controllo_3	"POPTR_0008s06580.1"	232	"	"G/T"	"66,9/33,1"	"635/314"	949	stress_42	"POPTR_0008s06580.1"	232	"	"G/T"	"60,7/39,3"	"324/210"	534
controllo_3	"POPTR_0008s06580.1"	232	"	"G/T"	"66,9/33,1"	"635/314"	949	stress_45	"POPTR_0008s06580.1"	232	"	"G/T"	"57,8/42,2"	"413/302"	715
controllo_3	"POPTR_0005s02580.1"	612	"	"T/C"	"67,0/33,0"	"75/37"	112	stress_12bis	"POPTR_0005s02580.1"	612	"	"T/C"	"65,1/34,9"	"28/15"	43
controllo_3	"POPTR_0005s02580.1"	612	"	"T/C"	"67,0/33,0"	"75/37"	112	stress_42	"POPTR_0005s02580.1"	612	"	"T/C"	"63,3/36,7"	"38/22"	60
controllo_3	"POPTR_0005s02580.1"	612	"	"T/C"	"67,0/33,0"	"75/37"	112	stress_45	"POPTR_0005s02580.1"	612	"	"C/T"	"52,8/47,2"	"28/25"	53
controllo_3	"POPTR_0018s02230.1"	92	"	"T/C"	"67,0/33,0"	"71/35"	106	stress_12bis	"POPTR_0018s02230.1"	92	"	"T/C"	"71,4/28,6"	"25/10"	35
controllo_3	"POPTR_0018s02230.1"	92	"	"T/C"	"67,0/33,0"	"71/35"	106	stress_42	"POPTR_0018s02230.1"	92	"	"T/C"	"56,9/43,1"	"33/25"	58
controllo_3	"POPTR_0018s02230.1"	92	"	"T/C"	"67,0/33,0"	"71/35"	106	stress_45	"POPTR_0018s02230.1"	92	"	"T/C"	"60,2/39,8"	"62/41"	103
controllo_3	"POPTR_0018s09380.1"	945	"	"T/C"	"67,0/33,0"	"71/35"	106	stress_12bis	"POPTR_0018s09380.1"	945	"	"T/C"	"72,2/27,8"	"13/5"	18
controllo_3	"POPTR_0018s09380.1"	945	"	"T/C"	"67,0/33,0"	"71/35"	106	stress_42	"POPTR_0018s09380.1"	945	"	"T/C"	"64,3/35,7"	"36/20"	56
controllo_3	"POPTR_0018s09380.1"	945	"	"T/C"	"67,0/33,0"	"71/35"	106	stress_45	"POPTR_0018s09380.1"	945	"	"T/C"	"70,6/29,4"	"48/20"	68
controllo_3	"POPTR_0003s10660.1"	861	"	"T/C"	"67,0/33,0"	"77/38"	115	stress_12bis	"POPTR_0003s10660.1"	861	"	"T/C"	"70,6/29,4"	"12/5"	17
controllo_3	"POPTR_0004s17610.1"	99	"	"C/T"	"67,0/33,0"	"65/32"	97	stress_42	"POPTR_0004s17610.1"	99	"	"C/T"	"69,3/30,7"	"95/42"	137
controllo_3	"POPTR_0004s17610.1"	99	"	"C/T"	"67,0/33,0"	"65/32"	97	stress_45	"POPTR_0004s17610.1"	99	"	"C/T"	"65,3/33,9"	"162/84"	248
controllo_3	"POPTR_0009s03330.1"	60	"	"G/A"	"67,0/33,0"	"77/38"	115	stress_12bis	"POPTR_0009s03330.1"	60	"	"G/A"	"51,7/48,3"	"15/14"	29
controllo_3	"POPTR_0009s03330.1"	60	"	"G/A"	"67,0/33,0"	"77/38"	115	stress_42	"POPTR_0009s03330.1"	60	"	"G/A"	"51,5/48,5"	"17/16"	33
controllo_3	"POPTR_0009s03330.1"	60	"	"G/A"	"67,0/33,0"	"77/38"	115	stress_45	"POPTR_0009s03330.1"	60	"	"G/A"	"60,4/39,6"	"29/19"	48
controllo_3	"POPTR_0011s09370.1"	4809	"	"T/C"	"67,0/33,0"	"73/36"	109	stress_12bis	"POPTR_0011s09370.1"	4809	"	"T/C"	"60,6/39,4"	"20/13"	33
controllo_3	"POPTR_0011s09370.1"	4809	"	"T/C"	"67,0/33,0"	"73/36"	109	stress_42	"POPTR_0011s09370.1"	4809	"	"T/C"	"61,5/38,5"	"8/5"	13
controllo_3	"POPTR_0011s09370.1"	4809	"	"T/C"	"67,0/33,0"	"73/36"	109	stress_45	"POPTR_0011s09370.1"	4809	"	"C/T"	"50,0/50,0"	"13/13"	26
controllo_3	"POPTR_0015s07630.1"	246	"	"A/G"	"67,0/33,0"	"69/34"	103	stress_12bis	"POPTR_0015s07630.1"	246	"	"A/G"	"57,7/42,3"	"15/11"	26
controllo_3	"POPTR_0015s07630.1"	246	"	"A/G"	"67,0/33,0"	"69/34"	103	stress_42	"POPTR_0015s07630.1"	246	"	"A/G"	"52,0/48,0"	"13/12"	25
controllo_3	"POPTR_0015s07630.1"	246	"	"A/G"	"67,0/33,0"	"69/34"	103	stress_45	"POPTR_0015s07630.1"	246	"	"A/G"	"50,0/50,0"	"19/19"	38
controllo_3	"POPTR_0001s40700.1"	443	"	"G/A"	"67,0/33,0"	"156/77"	233	stress_12bis	"POPTR_0001s40700.1"	443	"	"G/A"	"84,1/15,9"	"58/11"	69
controllo_3	"POPTR_0001s40700.1"	443	"	"G/A"	"67,0/33,0"	"156/77"	233	stress_42	"POPTR_0001s40700.1"	443	"	"G/A"	"76,7/23,3"	"46/14"	60
controllo_3	"POPTR_0001s40700.1"	443	"	"G/A"	"67,0/33,0"	"156/77"	233	stress_45	"POPTR_0001s40700.1"	443	"	"G/A"	"79,2/20,8"	"57/15"	72
controllo_3	"POPTR_0001s02040.1"	717	"	"C/T"	"67,0/33,0"	"126/62"	188	stress_12bis	"POPTR_0001s02040.1"	717	"	"C/T"	"64,3/35,7"	"36/20"	56
controllo_3	"POPTR_0001s02040.1"	717	"	"C/T"	"67,0/33,0"	"126/62"	188	stress_42	"POPTR_0001s02040.1"	717	"	"C/T"	"65,8/34,2"	"25/13"	38
controllo_3	"POPTR_0001s02040.1"	717	"	"C/T"	"67,0/33,0"	"126/62"	188	stress_45	"POPTR_0001s02040.1"	717	"	"C/T"	"53,2/46,8"	"25/22"	47
controllo_3	"POPTR_0010s16860.1"	286	"	"G/A"	"67,0/33,0"	"675/333"	1008	stress_12bis	"POPTR_0010s16860.1"	286	"	"G/A"	"70,6/29,3"	"405/168"	574
controllo_3	"POPTR_0010s16860.1"	286	"	"G/A"	"67,0/33,0"	"675/333"	1008	stress_42	"POPTR_0010s16860.1"	286	"	"G/A"	"77,6/22,4"	"45/13"	58
controllo_3	"POPTR_0010s16860.1"	286	"	"G/A"	"67,0/33,0"	"675/333"	1008	stress_45	"POPTR_0010s16860.1"	286	"	"G/A"	"72,7/27,3"	"48/18"	66
controllo_3	"POPTR_0007s14960.1"	1500	"	"T/C"	"67,0/33,0"	"71/35"	106	stress_12bis	"POPTR_0007s14960.1"	1500	"	"T/C"	"55,0/45,0"	"11/9"	20
controllo_3	"POPTR_0007s14960.1"	1500	"	"T/C"	"67,0/33,0"	"71/35"	106	stress_45	"POPTR_0007s14960.1"	1500	"	"T/C"	"67,9/32,1"	"38/18"	56
controllo_3	"POPTR_0008s12000.1"	48	"	"C/T"	"67,0/33,0"	"77/38"	115	stress_12bis	"POPTR_0008s12000.1"	48	"	"C/T"	"74,2/25,8"	"23/8"	31
controllo_3	"POPTR_0008s12000.1"	48	"	"C/T"	"67,0/33,0"	"77/38"	115	stress_45	"POPTR_0008s12000.1"	48	"	"T/C"	"75,0/25,0"	"12/4"	16
controllo_3	"POPTR_0010s26130.1"	1449	"	"T/G"	"67,1/32,5"	"153/74"	228	stress_12bis	"POPTR_0010s26130.1"	1449	"	"T/G"	"63,2/36,8"	"67/39"	106
controllo_3	"POPTR_0005s08610.1"	385	"	"A/T"	"67,1/32,9"	"96/47"	143	stress_12bis	"POPTR_0005s08610.1"	385	"	"A/T"	"73,0/27,0"	"54/20"	74
controllo_3	"POPTR_0005s08610.1"	385	"	"A/T"	"67,1/32,9"	"96/47"	143	stress_42	"POPTR_0005s08610.1"	385	"	"A/T"	"66,7/33,3"	"16/8"	24
controllo_3	"POPTR_0005s08610.1"	385	"	"A/T"	"67,1/32,9"	"96/47"	143	stress_45	"POPTR_0005s08610.1"	385	"	"A/T"	"66,0/34,0"	"33/17"	50
controllo_3	"POPTR_0005s21750.1"	640	"	"A/G"	"67,1/32,9"	"149/73"	222	stress_12bis	"POPTR_0005s21750.1"	640	"	"G/A"	"65,2/34,8"	"88/47"	135
controllo_3	"POPTR_0005s21750.1"	640	"	"A/G"	"67,1/32,9"	"149/73"	222	stress_42	"POPTR_0005s21750.1"	640	"	"G/A"	"65,5/34,5"	"114/60"	174
controllo_3	"POPTR_0005s21750.1"	640	"	"A/G"	"67,1/32,9"	"149/73"	222	stress_45	"POPTR_0005s21750.1"	640	"	"G/A"	"68,9/31,1"	"91/41"	132
controllo_3	"POPTR_0022s00530.1"	1749	"	"T/G"	"67,1/32,9"	"143/70"	213	stress_12bis	"POPTR_0022s00530.1"	1749	"	"T/G"	"72,7/27,3"	"32/12"	44
controllo_3	"POPTR_0022s00530.1"	1749	"	"T/G"	"67,1/32,9"	"143/70"	213	stress_42	"POPTR_0022s00530.1"	1749	"	"T/G"	"82,1/17,9"	"32/7"	39
controllo_3	"POPTR_0022s00530.1"	1749	"	"T/G"	"67,1/32,9"	"143/70"	213	stress_45	"POPTR_0022s00530.1"	1749	"	"T/G"	"69,1/30,9"	"47/21"	68
controllo_3	"POPTR_0004s16740.1"	783	"	"T/C"	"67,1/32,9"	"151/74"	225	stress_12bis	"POPTR_0004s16740.1"	783	"	"T/C"	"67,6/32,4"	"48/23"	71
controllo_3	"POPTR_0004s16740.1"	783	"	"T/C"	"67,1/32,9"	"151/74"	225	stress_42	"POPTR_0004s16740.1"	783	"	"T/C"	"60,0/40,0"	"63/42"	105
controllo_3	"POPTR_0004s16740.1"	783	"	"T/C"	"67,1/32,9"	"151/74"	225	stress_45	"POPTR_0004s16740.1"	783	"	"T/C"	"72,7/27,3"	"88/33"	121
controllo_3	"POPTR_0012s07270.1"	45	"	"T/G"	"67,1/32,9"	"104/51"	155	stress_12bis	"POPTR_0012s07270.1"	45	"	"T/G"	"54,5/45,5"	"24/20"	44
controllo_3	"POPTR_0012s07270.1"	45	"	"T/G"	"67,1/32,9"	"104/51"	155	stress_42	"POPTR_0012s07270.1"	45	"	"G/T"	"66,7/33,3"	"22/11"	33
controllo_3	"POPTR_0012s07270.1"	45	"	"T/G"	"67,1/32,9"	"104/51"	155	stress_45	"POPTR_0012s07270.1"	45	"	"T/G"	"53,2/46,8"	"33/29"	62
controllo_3	"POPTR_0001s21140.1"	639	"	"C/A"	"67,1/32,9"	"330/162"	492	stress_12bis	"POPTR_0001s21140.1"	639	"	"C/A"	"65,1/34,9"	"114/61"	175
controllo_3	"POPTR_0001s21140.1"	639	"	"C/A"	"67,1/32,9"	"330/162"	492	stress_42	"POPTR_0001s21140.1"	639	"	"C/A"	"76,7/23,3"	"33/10"	43
controllo_3	"POPTR_0001s21140.1"	639	"	"C/A"	"67,1/32,9"	"330/162"	492	stress_45	"POPTR_0001s21140.1"	639	"	"C/A"	"80,8/19,2"	"21/5"	26
controllo_3	"POPTR_0001s45350.1"	258	"	"C/A"	"67,2/31,0"	"156/72"	232	stress_12bis	"POPTR_0001s45350.1"	258	"	"C/A"	"58,3/41,7"	"7/5"	12
controllo_3	"POPTR_0001s26970.1"	987	"	"G/C"	"67,2/31,6"	"119/56"	177	stress_12bis	"POPTR_0001s26970.1"	987	"	"G/C"	"68,6/28,6"	"48/20"	70
controllo_3	"POPTR_0001s26970.1"	987	"	"G/C"	"67,2/31,6"	"119/56"	177	stress_42	"POPTR_0001s26970.1"	987	"	"G/C"	"72,7/27,3"	"16/6"	22
controllo_3	"POPTR_0006s04230.1"	243	"	"C/A"	"67,2/32,3"	"127/61"	189	stress_12bis	"POPTR_0006s04230.1"	243	"	"A/C"	"50,4/49,6"	"60/59"	119
controllo_3	"POPTR_0006s04230.1"	243	"	"C/A"	"67,2/32,3"	"127/61"	189	stress_42	"POPTR_0006s04230.1"	243	"	"A/C"	"69,7/30,3"	"23/10"	33
controllo_3	"POPTR_0006s04230.1"	243	"	"C/A"	"67,2/32,3"	"127/61"	189	stress_45	"POPTR_0006s04230.1"	243	"	"A/C"	"56,8/43,2"	"42/32"	74
controllo_3	"POPTR_0008s03950.1"	414	"	"G/T"	"67,2/32,6"	"646/314"	962	stress_12bis	"POPTR_0008s03950.1"	414	"	"G/T"	"68,3/31,7"	"82/38"	120
controllo_3	"POPTR_0008s03950.1"	414	"	"G/T"	"67,2/32,6"	"646/314"	962	stress_42	"POPTR_0008s03950.1"	414	"	"G/T"	"68,0/32,0"	"121/57"	178
controllo_3	"POPTR_0008s03950.1"	414	"	"G/T"	"67,2/32,6"	"646/314"	962	stress_45	"POPTR_0008s03950.1"	414	"	"G/T"	"65,5/34,5"	"190/100"	290
controllo_3	"POPTR_0003s20870.1"	372	"	"G/A"	"67,2/32,8"	"131/64"	195	stress_12bis	"POPTR_0003s20870.1"	372	"	"G/A"	"61,8/38,2"	"21/13"	34
controllo_3	"POPTR_0003s20870.1"	372	"	"G/A"	"67,2/32,8"	"131/64"	195	stress_42	"POPTR_0003s20870.1"	372	"	"G/A"	"63,6/36,4"	"7/4"	11
controllo_3	"POPTR_0003s20870.1"	372	"	"G/A"	"67,2/32,8"	"131/64"	195	stress_45	"POPTR_0003s20870.1"	372	"	"A/G"	"62,1/37,9"	"18/11"	29
controllo_3	"POPTR_0004s00480.1"	181	"	"A/G"	"67,2/32,8"	"121/59"	180	stress_12bis	"POPTR_0004s00480.1"	181	"	"A/G"	"72,7/27,3"	"64/24"	88
controllo_3	"POPTR_0004s00480.1"	181	"	"A/G"	"67,2/32,8"	"121/59"	180	stress_42	"POPTR_0004s00480.1"	181	"	"A/G"	"64,6/35,4"	"31/17"	48
controllo_3	"POPTR_0004s00480.1"	181	"	"A/G"	"67,2/32,8"	"121/59"	180	stress_45	"POPTR_0004s00480.1"	181	"	"A/G"	"75,3/24,7"	"61/20"	81
controllo_3	"POPTR_0001s42970.1"	138	"	"C/T"	"67,2/32,8"	"863/422"	1285	stress_12bis	"POPTR_0001s42970.1"	138	"	"C/T"	"72,7/27,3"	"364/137"	501
controllo_3	"POPTR_0001s42970.1"	138	"	"C/T"	"67,2/32,8"	"863/422"	1285	stress_42	"POPTR_0001s42970.1"	138	"	"C/T"	"79,8/20,2"	"83/21"	104
controllo_3	"POPTR_0001s42970.1"	138	"	"C/T"	"67,2/32,8"	"863/422"	1285	stress_45	"POPTR_0001s42970.1"	138	"	"C/T"	"63,2/36,8"	"36/21"	57
controllo_3	"POPTR_0010s21840.1"	201	"	"C/T"	"67,2/32,8"	"88/43"	131	stress_12bis	"POPTR_0010s21840.1"	201	"	"T/C"	"53,7/46,3"	"22/19"	41
controllo_3	"POPTR_0010s21840.1"	201	"	"C/T"	"67,2/32,8"	"88/43"	131	stress_42	"POPTR_0010s21840.1"	201	"	"T/C"	"70,0/30,0"	"14/6"	20
controllo_3	"POPTR_0010s21840.1"	201	"	"C/T"	"67,2/32,8"	"88/43"	131	stress_45	"POPTR_0010s21840.1"	201	"	"T/C"	"60,7/39,3"	"17/11"	28
controllo_3	"POPTR_0010s17400.1"	192	"	"T/C"	"67,2/32,8"	"137/67"	204	stress_12bis	"POPTR_0010s17400.1"	192	"	"T/C"	"79,5/20,5"	"62/16"	78
controllo_3	"POPTR_0010s17400.1"	192	"	"T/C"	"67,2/32,8"	"137/67"	204	stress_42	"POPTR_0010s17400.1"	192	"	"T/C"	"80,0/20,0"	"20/5"	25
controllo_3	"POPTR_0010s17400.1"	192	"	"T/C"	"67,2/32,8"	"137/67"	204	stress_45	"POPTR_0010s17400.1"	192	"	"T/C"	"80,0/20,0"	"24/6"	30
controllo_3	"POPTR_0002s08150.1"	537	"	"T/C"	"67,2/32,8"	"43/21"	64	stress_45	"POPTR_0002s08150.1"	537	"	"C/T"	"53,0/46,3"	"71/62"	134
controllo_3	"POPTR_0008s05480.1"	384	"	"T/C"	"67,2/32,8"	"242/118"	360	stress_12bis	"POPTR_0008s05480.1"	384	"	"T/C"	"63,2/36,8"	"74/43"	117
controllo_3	"POPTR_0008s05480.1"	384	"	"T/C"	"67,2/32,8"	"242/118"	360	stress_42	"POPTR_0008s05480.1"	384	"	"C/T"	"59,3/40,7"	"32/22"	54
controllo_3	"POPTR_0008s05480.1"	384	"	"T/C"	"67,2/32,8"	"242/118"	360	stress_45	"POPTR_0008s05480.1"	384	"	"T/C"	"56,5/43,5"	"118/91"	209
controllo_3	"POPTR_0014s14200.1"	504	"	"C/A"	"67,3/32,3"	"146/70"	217	stress_12bis	"POPTR_0014s14200.1"	504	"	"C/A"	"69,6/30,4"	"16/7"	23
controllo_3	"POPTR_0014s14200.1"	504	"	"C/A"	"67,3/32,3"	"146/70"	217	stress_42	"POPTR_0014s14200.1"	504	"	"C/A"	"71,4/28,6"	"20/8"	28
controllo_3	"POPTR_0014s14200.1"	504	"	"C/A"	"67,3/32,3"	"146/70"	217	stress_45	"POPTR_0014s14200.1"	504	"	"C/A"	"61,6/38,4"	"53/33"	86
controllo_3	"POPTR_0005s26930.1"	318	"	"G/A"	"67,3/32,7"	"105/51"	156	stress_12bis	"POPTR_0005s26930.1"	318	"	"G/A"	"79,5/20,5"	"31/8"	39
controllo_3	"POPTR_0003s21070.1"	276	"	"T/C"	"67,3/32,7"	"72/35"	107	stress_12bis	"POPTR_0003s21070.1"	276	"	"C/T"	"55,6/44,4"	"10/8"	18
controllo_3	"POPTR_0003s21070.1"	276	"	"T/C"	"67,3/32,7"	"72/35"	107	stress_45	"POPTR_0003s21070.1"	276	"	"T/C"	"75,0/25,0"	"9/3"	12
controllo_3	"POPTR_0001s14280.1"	216	"	"T/C"	"67,3/32,7"	"35/17"	52	stress_45	"POPTR_0001s14280.1"	216	"	"T/C"	"55,8/44,2"	"63/50"	113
controllo_3	"POPTR_0001s07850.1"	1071	"	"A/G"	"67,3/32,7"	"150/73"	223	stress_12bis	"POPTR_0001s07850.1"	1071	"	"A/G"	"76,0/24,0"	"19/6"	25
controllo_3	"POPTR_0001s07850.1"	1071	"	"A/G"	"67,3/32,7"	"150/73"	223	stress_42	"POPTR_0001s07850.1"	1071	"	"A/G"	"71,4/28,6"	"50/20"	70
controllo_3	"POPTR_0001s07850.1"	1071	"	"A/G"	"67,3/32,7"	"150/73"	223	stress_45	"POPTR_0001s07850.1"	1071	"	"A/G"	"69,1/30,9"	"38/17"	55
controllo_3	"POPTR_0010s10330.1"	37	"	"G/A"	"67,3/32,7"	"72/35"	107	stress_12bis	"POPTR_0010s10330.1"	37	"	"G/A"	"55,6/44,4"	"20/16"	36
controllo_3	"POPTR_0010s10330.1"	37	"	"G/A"	"67,3/32,7"	"72/35"	107	stress_42	"POPTR_0010s10330.1"	37	"	"A/G"	"50,0/50,0"	"6/6"	12
controllo_3	"POPTR_0010s10330.1"	37	"	"G/A"	"67,3/32,7"	"72/35"	107	stress_45	"POPTR_0010s10330.1"	37	"	"A/G"	"55,6/44,4"	"10/8"	18
controllo_3	"POPTR_0002s21420.1"	2171	"	"C/T"	"67,3/32,7"	"70/34"	104	stress_12bis	"POPTR_0002s21420.1"	2171	"	"C/T"	"70,4/29,6"	"19/8"	27
controllo_3	"POPTR_0002s21420.1"	2171	"	"C/T"	"67,3/32,7"	"70/34"	104	stress_42	"POPTR_0002s21420.1"	2171	"	"T/C"	"63,0/37,0"	"17/10"	27
controllo_3	"POPTR_0002s21420.1"	2171	"	"C/T"	"67,3/32,7"	"70/34"	104	stress_45	"POPTR_0002s21420.1"	2171	"	"T/C"	"57,1/42,9"	"20/15"	35
controllo_3	"POPTR_0002s14730.1"	1836	"	"T/A"	"67,4/19,7"	"610/178"	905	stress_12bis	"POPTR_0002s14730.1"	1836	"	"T/A"	"65,6/20,4"	"183/57"	279
controllo_3	"POPTR_0002s14730.1"	1836	"	"T/A"	"67,4/19,7"	"610/178"	905	stress_42	"POPTR_0002s14730.1"	1836	"	"A/T/	"36,7/34,2/29,2"	"44/41/35"	120
controllo_3	"POPTR_0002s14730.1"	1836	"	"T/A"	"67,4/19,7"	"610/178"	905	stress_45	"POPTR_0002s14730.1"	1836	"	"A/T/	"38,7/33,5/27,7"	"60/52/43"	155
controllo_3	"POPTR_0017s06920.1"	180	"	"C/T"	"67,4/32,6"	"326/158"	484	stress_12bis	"POPTR_0017s06920.1"	180	"	"C/T"	"74,3/25,7"	"107/37"	144
controllo_3	"POPTR_0006s06180.1"	1755	"	"G/A"	"67,4/32,6"	"163/79"	242	stress_12bis	"POPTR_0006s06180.1"	1755	"	"G/A"	"79,6/20,4"	"74/19"	93
controllo_3	"POPTR_0006s06180.1"	1755	"	"G/A"	"67,4/32,6"	"163/79"	242	stress_45	"POPTR_0006s06180.1"	1755	"	"G/A"	"75,3/24,7"	"64/21"	85
controllo_3	"POPTR_0006s06180.1"	1938	"	"A/G"	"67,4/32,6"	"192/93"	285	stress_12bis	"POPTR_0006s06180.1"	1938	"	"A/G"	"66,7/33,3"	"74/37"	111
controllo_3	"POPTR_0006s06180.1"	1938	"	"A/G"	"67,4/32,6"	"192/93"	285	stress_42	"POPTR_0006s06180.1"	1938	"	"A/G"	"71,9/28,1"	"46/18"	64
controllo_3	"POPTR_0006s06180.1"	1938	"	"A/G"	"67,4/32,6"	"192/93"	285	stress_45	"POPTR_0006s06180.1"	1938	"	"A/G"	"76,4/23,6"	"84/26"	110
controllo_3	"POPTR_0006s24520.1"	702	"	"A/G"	"67,4/32,6"	"120/58"	178	stress_12bis	"POPTR_0006s24520.1"	702	"	"A/G"	"53,3/46,7"	"16/14"	30
controllo_3	"POPTR_0014s09800.1"	155	"	"C/T"	"67,4/32,6"	"122/59"	181	stress_12bis	"POPTR_0014s09800.1"	155	"	"C/T"	"54,1/45,9"	"40/34"	74
controllo_3	"POPTR_0014s09800.1"	155	"	"C/T"	"67,4/32,6"	"122/59"	181	stress_42	"POPTR_0014s09800.1"	155	"	"C/T"	"82,4/17,6"	"14/3"	17
controllo_3	"POPTR_0014s09800.1"	155	"	"C/T"	"67,4/32,6"	"122/59"	181	stress_45	"POPTR_0014s09800.1"	155	"	"C/T"	"66,7/33,3"	"14/7"	21
controllo_3	"POPTR_0004s01320.1"	189	"	"C/G"	"67,4/32,6"	"91/44"	135	stress_12bis	"POPTR_0004s01320.1"	189	"	"C/G"	"65,7/34,3"	"46/24"	70
controllo_3	"POPTR_0004s01320.1"	189	"	"C/G"	"67,4/32,6"	"91/44"	135	stress_42	"POPTR_0004s01320.1"	189	"	"C/G"	"53,8/46,2"	"14/12"	26
controllo_3	"POPTR_0004s01320.1"	189	"	"C/G"	"67,4/32,6"	"91/44"	135	stress_45	"POPTR_0004s01320.1"	189	"	"C/G"	"61,1/38,9"	"22/14"	36
controllo_3	"POPTR_0009s06530.1"	1161	"	"G/T"	"67,4/32,6"	"95/46"	141	stress_12bis	"POPTR_0009s06530.1"	1161	"	"G/T"	"64,3/35,7"	"27/15"	42
controllo_3	"POPTR_0009s06530.1"	1161	"	"G/T"	"67,4/32,6"	"95/46"	141	stress_42	"POPTR_0009s06530.1"	1161	"	"G/T"	"72,7/27,3"	"8/3"	11
controllo_3	"POPTR_0009s06530.1"	1161	"	"G/T"	"67,4/32,6"	"95/46"	141	stress_45	"POPTR_0009s06530.1"	1161	"	"G/T"	"61,1/38,9"	"11/7"	18
controllo_3	"POPTR_0012s04560.1"	100	"	"A/T"	"67,4/32,6"	"87/42"	129	stress_12bis	"POPTR_0012s04560.1"	100	"	"A/T"	"64,7/35,3"	"22/12"	34
controllo_3	"POPTR_0012s04560.1"	100	"	"A/T"	"67,4/32,6"	"87/42"	129	stress_42	"POPTR_0012s04560.1"	100	"	"A/T"	"66,7/33,3"	"8/4"	12
controllo_3	"POPTR_0012s04560.1"	100	"	"A/T"	"67,4/32,6"	"87/42"	129	stress_45	"POPTR_0012s04560.1"	100	"	"A/T"	"76,2/23,8"	"16/5"	21
controllo_3	"POPTR_0007s13800.1"	383	"	"G/C"	"67,4/32,6"	"151/73"	224	stress_12bis	"POPTR_0007s13800.1"	383	"	"G/C"	"67,6/32,4"	"25/12"	37
controllo_3	"POPTR_0002s00840.1"	666	"	"C/T"	"67,4/32,6"	"557/269"	826	stress_12bis	"POPTR_0002s00840.1"	666	"	"C/T"	"62,2/37,8"	"168/102"	270
controllo_3	"POPTR_0002s00840.1"	666	"	"C/T"	"67,4/32,6"	"557/269"	826	stress_42	"POPTR_0002s00840.1"	666	"	"C/T"	"68,3/31,7"	"28/13"	41
controllo_3	"POPTR_0002s00840.1"	666	"	"C/T"	"67,4/32,6"	"557/269"	826	stress_45	"POPTR_0002s00840.1"	666	"	"C/T"	"69,6/30,4"	"32/14"	46
controllo_3	"POPTR_0002s05840.1"	657	"	"G/A"	"67,4/32,6"	"155/75"	230	stress_12bis	"POPTR_0002s05840.1"	657	"	"G/A"	"65,2/34,8"	"45/24"	69
controllo_3	"POPTR_0002s05840.1"	657	"	"G/A"	"67,4/32,6"	"155/75"	230	stress_42	"POPTR_0002s05840.1"	657	"	"G/A"	"56,8/43,2"	"92/70"	162
controllo_3	"POPTR_0002s05840.1"	657	"	"G/A"	"67,4/32,6"	"155/75"	230	stress_45	"POPTR_0002s05840.1"	657	"	"G/A"	"60,8/39,2"	"107/69"	176
controllo_3	"POPTR_0016s06540.1"	273	"	"C/T"	"67,4/32,6"	"97/47"	144	stress_12bis	"POPTR_0016s06540.1"	273	"	"C/T"	"52,9/47,1"	"9/8"	17
controllo_3	"POPTR_0005s21750.1"	188	"	"G/A"	"67,5/32,5"	"129/62"	191	stress_12bis	"POPTR_0005s21750.1"	188	"	"G/A"	"51,6/48,4"	"48/45"	93
controllo_3	"POPTR_0005s21750.1"	188	"	"G/A"	"67,5/32,5"	"129/62"	191	stress_42	"POPTR_0005s21750.1"	188	"	"A/G"	"50,0/50,0"	"44/44"	88
controllo_3	"POPTR_0005s21750.1"	188	"	"G/A"	"67,5/32,5"	"129/62"	191	stress_45	"POPTR_0005s21750.1"	188	"	"A/G"	"63,5/36,5"	"61/35"	96
controllo_3	"POPTR_0006s23890.1"	35	"	"C/T"	"67,5/32,5"	"324/156"	480	stress_12bis	"POPTR_0006s23890.1"	35	"	"C/T"	"74,8/25,2"	"110/37"	147
controllo_3	"POPTR_0006s23890.1"	35	"	"C/T"	"67,5/32,5"	"324/156"	480	stress_42	"POPTR_0006s23890.1"	35	"	"C/T"	"70,1/29,9"	"54/23"	77
controllo_3	"POPTR_0006s23890.1"	35	"	"C/T"	"67,5/32,5"	"324/156"	480	stress_45	"POPTR_0006s23890.1"	35	"	"C/T"	"75,4/24,6"	"52/17"	69
controllo_3	"POPTR_0013s04210.1"	851	"	"T/G"	"67,5/32,5"	"79/38"	117	stress_12bis	"POPTR_0013s04210.1"	851	"	"G/T"	"54,5/45,5"	"24/20"	44
controllo_3	"POPTR_0013s04210.1"	851	"	"T/G"	"67,5/32,5"	"79/38"	117	stress_42	"POPTR_0013s04210.1"	851	"	"T/G"	"61,5/38,5"	"8/5"	13
controllo_3	"POPTR_0013s04210.1"	851	"	"T/G"	"67,5/32,5"	"79/38"	117	stress_45	"POPTR_0013s04210.1"	851	"	"T/G"	"54,5/45,5"	"18/15"	33
controllo_3	"POPTR_0014s01240.1"	549	"	"A/G"	"67,5/32,5"	"81/39"	120	stress_12bis	"POPTR_0014s01240.1"	549	"	"A/G"	"60,0/40,0"	"33/22"	55
controllo_3	"POPTR_0014s01240.1"	549	"	"A/G"	"67,5/32,5"	"81/39"	120	stress_42	"POPTR_0014s01240.1"	549	"	"A/G"	"51,3/48,7"	"20/19"	39
controllo_3	"POPTR_0014s01240.1"	549	"	"A/G"	"67,5/32,5"	"81/39"	120	stress_45	"POPTR_0014s01240.1"	549	"	"A/G"	"56,7/43,3"	"17/13"	30
controllo_3	"POPTR_0010s21270.1"	375	"	"A/G"	"67,5/32,5"	"191/92"	283	stress_12bis	"POPTR_0010s21270.1"	375	"	"A/G"	"64,0/36,0"	"55/31"	86
controllo_3	"POPTR_0010s21270.1"	375	"	"A/G"	"67,5/32,5"	"191/92"	283	stress_42	"POPTR_0010s21270.1"	375	"	"A/G"	"69,0/31,0"	"20/9"	29
controllo_3	"POPTR_0010s21270.1"	375	"	"A/G"	"67,5/32,5"	"191/92"	283	stress_45	"POPTR_0010s21270.1"	375	"	"A/G"	"57,7/42,3"	"56/41"	97
controllo_3	"POPTR_0010s21700.1"	450	"	"G/A"	"67,5/32,5"	"141/68"	209	stress_42	"POPTR_0010s21700.1"	450	"	"G/A"	"54,9/45,1"	"28/23"	51
controllo_3	"POPTR_0010s21700.1"	450	"	"G/A"	"67,5/32,5"	"141/68"	209	stress_45	"POPTR_0010s21700.1"	450	"	"G/A"	"57,1/42,9"	"12/9"	21
controllo_3	"POPTR_0008s13780.1"	831	"	"A/G"	"67,5/32,5"	"218/105"	323	stress_12bis	"POPTR_0008s13780.1"	831	"	"A/G"	"56,8/43,2"	"25/19"	44
controllo_3	"POPTR_0008s13780.1"	831	"	"A/G"	"67,5/32,5"	"218/105"	323	stress_42	"POPTR_0008s13780.1"	831	"	"A/G"	"66,7/33,3"	"22/11"	33
controllo_3	"POPTR_0008s13780.1"	831	"	"A/G"	"67,5/32,5"	"218/105"	323	stress_45	"POPTR_0008s13780.1"	831	"	"A/G"	"68,4/31,6"	"13/6"	19
controllo_3	"POPTR_0005s13860.1"	176	"	"G/A"	"67,6/32,2"	"441/210"	652	stress_12bis	"POPTR_0005s13860.1"	176	"	"G/A"	"71,6/28,4"	"144/57"	201
controllo_3	"POPTR_0005s13860.1"	176	"	"G/A"	"67,6/32,2"	"441/210"	652	stress_42	"POPTR_0005s13860.1"	176	"	"G/A"	"80,0/20,0"	"32/8"	40
controllo_3	"POPTR_0005s13860.1"	176	"	"G/A"	"67,6/32,2"	"441/210"	652	stress_45	"POPTR_0005s13860.1"	176	"	"G/A"	"83,8/16,2"	"67/13"	80
controllo_3	"POPTR_0005s04090.1"	191	"	"G/A"	"67,6/32,4"	"115/55"	170	stress_12bis	"POPTR_0005s04090.1"	191	"	"G/A"	"65,3/34,7"	"32/17"	49
controllo_3	"POPTR_0017s08610.1"	1431	"	"C/T"	"67,6/32,4"	"25/12"	37	stress_45	"POPTR_0017s08610.1"	1431	"	"C/T"	"80,9/19,1"	"89/21"	110
controllo_3	"POPTR_0018s07160.1"	291	"	"G/A"	"67,6/32,4"	"119/57"	176	stress_12bis	"POPTR_0018s07160.1"	291	"	"G/A"	"56,0/44,0"	"28/22"	50
controllo_3	"POPTR_0018s07160.1"	291	"	"G/A"	"67,6/32,4"	"119/57"	176	stress_42	"POPTR_0018s07160.1"	291	"	"A/G"	"53,3/46,7"	"8/7"	15
controllo_3	"POPTR_0018s02770.1"	70	"	"C/A"	"67,6/32,4"	"96/46"	142	stress_12bis	"POPTR_0018s02770.1"	70	"	"C/A"	"79,2/20,8"	"42/11"	53
controllo_3	"POPTR_0018s02770.1"	70	"	"C/A"	"67,6/32,4"	"96/46"	142	stress_42	"POPTR_0018s02770.1"	70	"	"A/C"	"53,7/46,3"	"22/19"	41
controllo_3	"POPTR_0018s02770.1"	70	"	"C/A"	"67,6/32,4"	"96/46"	142	stress_45	"POPTR_0018s02770.1"	70	"	"A/C"	"78,8/21,2"	"26/7"	33
controllo_3	"POPTR_0014s12470.1"	214	"	"T/G"	"67,6/32,4"	"94/45"	139	stress_12bis	"POPTR_0014s12470.1"	214	"	"T/G"	"59,3/40,7"	"35/24"	59
controllo_3	"POPTR_0014s12470.1"	214	"	"T/G"	"67,6/32,4"	"94/45"	139	stress_42	"POPTR_0014s12470.1"	214	"	"G/T"	"60,5/37,2"	"26/16"	43
controllo_3	"POPTR_0014s12470.1"	214	"	"T/G"	"67,6/32,4"	"94/45"	139	stress_45	"POPTR_0014s12470.1"	214	"	"G/T"	"62,1/37,9"	"36/22"	58
controllo_3	"POPTR_0004s07620.1"	559	"	"A/G"	"67,6/32,4"	"96/46"	142	stress_12bis	"POPTR_0004s07620.1"	559	"	"A/G"	"73,0/27,0"	"54/20"	74
controllo_3	"POPTR_0004s07620.1"	559	"	"A/G"	"67,6/32,4"	"96/46"	142	stress_42	"POPTR_0004s07620.1"	559	"	"A/G"	"69,4/30,6"	"43/19"	62
controllo_3	"POPTR_0004s07620.1"	559	"	"A/G"	"67,6/32,4"	"96/46"	142	stress_45	"POPTR_0004s07620.1"	559	"	"A/G"	"61,2/38,8"	"41/26"	67
controllo_3	"POPTR_0012s08790.1"	28	"	"T/C"	"67,6/32,4"	"144/69"	213	stress_12bis	"POPTR_0012s08790.1"	28	"	"T/C"	"69,6/30,4"	"48/21"	69
controllo_3	"POPTR_0012s08790.1"	28	"	"T/C"	"67,6/32,4"	"144/69"	213	stress_42	"POPTR_0012s08790.1"	28	"	"T/C"	"54,8/45,2"	"23/19"	42
controllo_3	"POPTR_0012s08790.1"	28	"	"T/C"	"67,6/32,4"	"144/69"	213	stress_45	"POPTR_0012s08790.1"	28	"	"T/C"	"73,7/26,3"	"14/5"	19
controllo_3	"POPTR_0015s11940.1"	126	"	"C/T"	"67,6/32,4"	"123/59"	182	stress_12bis	"POPTR_0015s11940.1"	126	"	"C/T"	"66,7/33,3"	"24/12"	36
controllo_3	"POPTR_0015s11940.1"	126	"	"C/T"	"67,6/32,4"	"123/59"	182	stress_42	"POPTR_0015s11940.1"	126	"	"C/T"	"73,9/26,1"	"17/6"	23
controllo_3	"POPTR_0015s11940.1"	126	"	"C/T"	"67,6/32,4"	"123/59"	182	stress_45	"POPTR_0015s11940.1"	126	"	"C/T"	"72,0/28,0"	"18/7"	25
controllo_3	"POPTR_0001s44870.1"	851	"	"A/G"	"67,6/32,4"	"96/46"	142	stress_12bis	"POPTR_0001s44870.1"	851	"	"A/G"	"62,5/37,5"	"15/9"	24
controllo_3	"POPTR_0001s44870.1"	851	"	"A/G"	"67,6/32,4"	"96/46"	142	stress_42	"POPTR_0001s44870.1"	851	"	"A/G"	"72,7/27,3"	"24/9"	33
controllo_3	"POPTR_0001s44870.1"	851	"	"A/G"	"67,6/32,4"	"96/46"	142	stress_45	"POPTR_0001s44870.1"	851	"	"A/G"	"54,5/45,5"	"12/10"	22
controllo_3	"POPTR_0010s21280.1"	250	"	"G/A"	"67,6/32,4"	"121/58"	179	stress_12bis	"POPTR_0010s21280.1"	250	"	"G/A"	"70,7/29,3"	"41/17"	58
controllo_3	"POPTR_0010s21280.1"	250	"	"G/A"	"67,6/32,4"	"121/58"	179	stress_42	"POPTR_0010s21280.1"	250	"	"G/A"	"53,8/46,2"	"14/12"	26
controllo_3	"POPTR_0010s21280.1"	250	"	"G/A"	"67,6/32,4"	"121/58"	179	stress_45	"POPTR_0010s21280.1"	250	"	"G/A"	"71,4/28,6"	"30/12"	42
controllo_3	"POPTR_0010s21270.1"	199	"	"G/A"	"67,6/32,4"	"165/79"	244	stress_12bis	"POPTR_0010s21270.1"	199	"	"G/A"	"51,9/48,1"	"42/39"	81
controllo_3	"POPTR_0010s21270.1"	199	"	"G/A"	"67,6/32,4"	"165/79"	244	stress_42	"POPTR_0010s21270.1"	199	"	"G/A"	"65,4/34,6"	"17/9"	26
controllo_3	"POPTR_0010s21270.1"	199	"	"G/A"	"67,6/32,4"	"165/79"	244	stress_45	"POPTR_0010s21270.1"	199	"	"G/A"	"60,0/38,5"	"39/25"	65
controllo_3	"POPTR_0010s11780.1"	679	"	"G/C"	"67,6/32,4"	"73/35"	108	stress_12bis	"POPTR_0010s11780.1"	679	"	"G/C"	"75,0/25,0"	"27/9"	36
controllo_3	"POPTR_0010s11780.1"	679	"	"G/C"	"67,6/32,4"	"73/35"	108	stress_42	"POPTR_0010s11780.1"	679	"	"C/G"	"50,0/50,0"	"39/39"	78
controllo_3	"POPTR_0010s11780.1"	679	"	"G/C"	"67,6/32,4"	"73/35"	108	stress_45	"POPTR_0010s11780.1"	679	"	"G/C"	"56,2/43,8"	"73/57"	130
controllo_3	"POPTR_0008s13780.1"	66	"	"C/T"	"67,6/32,4"	"200/96"	296	stress_12bis	"POPTR_0008s13780.1"	66	"	"C/T"	"66,7/33,3"	"30/15"	45
controllo_3	"POPTR_0008s13780.1"	66	"	"C/T"	"67,6/32,4"	"200/96"	296	stress_45	"POPTR_0008s13780.1"	66	"	"C/T"	"64,3/35,7"	"9/5"	14
controllo_3	"POPTR_0006s16030.1"	209	"	"T/C"	"67,7/31,5"	"84/39"	124	stress_42	"POPTR_0006s16030.1"	209	"	"T/C"	"72,7/27,3"	"8/3"	11
controllo_3	"POPTR_0005s26930.1"	396	"	"C/T"	"67,7/32,3"	"176/84"	260	stress_12bis	"POPTR_0005s26930.1"	396	"	"T/C"	"52,3/47,7"	"34/31"	65
controllo_3	"POPTR_0005s26930.1"	396	"	"C/T"	"67,7/32,3"	"176/84"	260	stress_42	"POPTR_0005s26930.1"	396	"	"T/C"	"53,3/46,7"	"16/14"	30
controllo_3	"POPTR_0005s26930.1"	396	"	"C/T"	"67,7/32,3"	"176/84"	260	stress_45	"POPTR_0005s26930.1"	396	"	"T/C"	"65,0/35,0"	"13/7"	20
controllo_3	"POPTR_0006s10550.1"	316	"	"T/A"	"67,7/32,3"	"113/54"	167	stress_12bis	"POPTR_0006s10550.1"	316	"	"T/A"	"81,4/18,6"	"35/8"	43
controllo_3	"POPTR_0006s10550.1"	316	"	"T/A"	"67,7/32,3"	"113/54"	167	stress_42	"POPTR_0006s10550.1"	316	"	"T/A"	"63,8/36,2"	"37/21"	58
controllo_3	"POPTR_0006s10550.1"	316	"	"T/A"	"67,7/32,3"	"113/54"	167	stress_45	"POPTR_0006s10550.1"	316	"	"T/A"	"69,4/30,6"	"25/11"	36
controllo_3	"POPTR_0004s01030.1"	969	"	"T/C"	"67,7/32,3"	"88/42"	130	stress_12bis	"POPTR_0004s01030.1"	969	"	"T/C"	"79,4/20,6"	"27/7"	34
controllo_3	"POPTR_0004s01030.1"	969	"	"T/C"	"67,7/32,3"	"88/42"	130	stress_42	"POPTR_0004s01030.1"	969	"	"T/C"	"63,2/36,8"	"12/7"	19
controllo_3	"POPTR_0004s01030.1"	969	"	"T/C"	"67,7/32,3"	"88/42"	130	stress_45	"POPTR_0004s01030.1"	969	"	"T/C"	"52,2/47,8"	"12/11"	23
controllo_3	"POPTR_0012s09570.1"	963	"	"A/C"	"67,7/32,3"	"226/108"	334	stress_12bis	"POPTR_0012s09570.1"	963	"	"A/C"	"68,4/31,6"	"39/18"	57
controllo_3	"POPTR_0012s09570.1"	963	"	"A/C"	"67,7/32,3"	"226/108"	334	stress_42	"POPTR_0012s09570.1"	963	"	"A/C"	"63,0/37,0"	"75/44"	119
controllo_3	"POPTR_0012s09570.1"	963	"	"A/C"	"67,7/32,3"	"226/108"	334	stress_45	"POPTR_0012s09570.1"	963	"	"A/C"	"71,2/28,8"	"94/38"	132
controllo_3	"POPTR_0013s03320.1"	142	"	"C/A"	"67,8/32,2"	"213/101"	314	stress_12bis	"POPTR_0013s03320.1"	142	"	"C/A"	"81,1/18,9"	"30/7"	37
controllo_3	"POPTR_0013s03320.1"	142	"	"C/A"	"67,8/32,2"	"213/101"	314	stress_45	"POPTR_0013s03320.1"	142	"	"C/A"	"69,3/28,1"	"79/32"	114
controllo_3	"POPTR_0004s16740.1"	786	"	"A/G"	"67,8/32,2"	"154/73"	227	stress_12bis	"POPTR_0004s16740.1"	786	"	"A/G"	"68,1/31,9"	"49/23"	72
controllo_3	"POPTR_0004s16740.1"	786	"	"A/G"	"67,8/32,2"	"154/73"	227	stress_42	"POPTR_0004s16740.1"	786	"	"A/G"	"60,6/39,4"	"60/39"	99
controllo_3	"POPTR_0004s16740.1"	786	"	"A/G"	"67,8/32,2"	"154/73"	227	stress_45	"POPTR_0004s16740.1"	786	"	"A/G"	"74,4/25,6"	"90/31"	121
controllo_3	"POPTR_0001s31220.1"	552	"	"T/G"	"67,8/32,2"	"40/19"	59	stress_42	"POPTR_0001s31220.1"	552	"	"T/G"	"67,2/32,8"	"82/40"	122
controllo_3	"POPTR_0008s19370.1"	321	"	"C/T"	"67,8/32,2"	"1080/513"	1594	stress_12bis	"POPTR_0008s19370.1"	321	"	"C/T"	"73,3/26,7"	"659/240"	899
controllo_3	"POPTR_0017s00850.1"	773	"	"A/G"	"67,9/32,1"	"129/61"	190	stress_12bis	"POPTR_0017s00850.1"	773	"	"A/G"	"75,0/25,0"	"15/5"	20
controllo_3	"POPTR_0017s00850.1"	773	"	"A/G"	"67,9/32,1"	"129/61"	190	stress_42	"POPTR_0017s00850.1"	773	"	"G/A"	"58,7/41,3"	"64/45"	109
controllo_3	"POPTR_0017s00850.1"	773	"	"A/G"	"67,9/32,1"	"129/61"	190	stress_45	"POPTR_0017s00850.1"	773	"	"A/G"	"51,2/48,8"	"63/60"	123
controllo_3	"POPTR_0015s11640.1"	9	"	"A/G"	"67,9/32,1"	"106/50"	156	stress_12bis	"POPTR_0015s11640.1"	9	"	"A/G"	"68,2/31,8"	"30/14"	44
controllo_3	"POPTR_0015s11640.1"	9	"	"A/G"	"67,9/32,1"	"106/50"	156	stress_42	"POPTR_0015s11640.1"	9	"	"A/G"	"76,5/23,5"	"13/4"	17
controllo_3	"POPTR_0015s11640.1"	9	"	"A/G"	"67,9/32,1"	"106/50"	156	stress_45	"POPTR_0015s11640.1"	9	"	"A/G"	"84,8/15,2"	"28/5"	33
controllo_3	"POPTR_0001s32780.1"	60	"	"T/C"	"67,9/32,1"	"108/51"	159	stress_42	"POPTR_0001s32780.1"	60	"	"C/T"	"53,0/47,0"	"35/31"	66
controllo_3	"POPTR_0001s32780.1"	60	"	"T/C"	"67,9/32,1"	"108/51"	159	stress_45	"POPTR_0001s32780.1"	60	"	"T/C"	"52,3/47,7"	"80/73"	153
controllo_3	"POPTR_0001s21140.1"	651	"	"G/A"	"67,9/32,1"	"359/170"	529	stress_12bis	"POPTR_0001s21140.1"	651	"	"G/A"	"67,1/32,9"	"114/56"	170
controllo_3	"POPTR_0001s21140.1"	651	"	"G/A"	"67,9/32,1"	"359/170"	529	stress_42	"POPTR_0001s21140.1"	651	"	"G/A"	"77,3/22,7"	"34/10"	44
controllo_3	"POPTR_0001s21140.1"	651	"	"G/A"	"67,9/32,1"	"359/170"	529	stress_45	"POPTR_0001s21140.1"	651	"	"G/A"	"70,0/30,0"	"14/6"	20
controllo_3	"POPTR_0002s19060.1"	1053	"	"G/A"	"67,9/32,1"	"36/17"	53	stress_45	"POPTR_0002s19060.1"	1053	"	"G/A"	"52,8/47,2"	"57/51"	108
controllo_3	"POPTR_0008s03950.1"	447	"	"C/T"	"67,9/32,1"	"705/334"	1039	stress_12bis	"POPTR_0008s03950.1"	447	"	"C/T"	"76,6/23,4"	"82/25"	107
controllo_3	"POPTR_0008s03950.1"	447	"	"C/T"	"67,9/32,1"	"705/334"	1039	stress_42	"POPTR_0008s03950.1"	447	"	"C/T"	"69,9/30,1"	"121/52"	173
controllo_3	"POPTR_0008s03950.1"	447	"	"C/T"	"67,9/32,1"	"705/334"	1039	stress_45	"POPTR_0008s03950.1"	447	"	"C/T"	"69,1/30,9"	"208/93"	301
controllo_3	"POPTR_0007s06620.1"	1440	"	"C/T"	"68,0/31,4"	"117/54"	172	stress_12bis	"POPTR_0007s06620.1"	1440	"	"C/T"	"74,2/25,8"	"23/8"	31
controllo_3	"POPTR_0007s06620.1"	1440	"	"C/T"	"68,0/31,4"	"117/54"	172	stress_45	"POPTR_0007s06620.1"	1440	"	"C/T"	"50,0/50,0"	"8/8"	16
controllo_3	"POPTR_0018s09030.1"	216	"	"A/T"	"68,0/31,6"	"170/79"	250	stress_12bis	"POPTR_0018s09030.1"	216	"	"A/T"	"73,2/26,8"	"115/42"	157
controllo_3	"POPTR_0018s09030.1"	216	"	"A/T"	"68,0/31,6"	"170/79"	250	stress_42	"POPTR_0018s09030.1"	216	"	"A/T"	"58,9/41,1"	"89/62"	151
controllo_3	"POPTR_0018s09030.1"	216	"	"A/T"	"68,0/31,6"	"170/79"	250	stress_45	"POPTR_0018s09030.1"	216	"	"T/A"	"51,2/48,8"	"63/60"	123
controllo_3	"POPTR_0006s22700.1"	139	"	"A/C"	"68,0/32,0"	"70/33"	103	stress_12bis	"POPTR_0006s22700.1"	139	"	"C/A"	"76,9/23,1"	"10/3"	13
controllo_3	"POPTR_0006s22700.1"	139	"	"A/C"	"68,0/32,0"	"70/33"	103	stress_42	"POPTR_0006s22700.1"	139	"	"A/C"	"50,0/50,0"	"6/6"	12
controllo_3	"POPTR_0006s22700.1"	139	"	"A/C"	"68,0/32,0"	"70/33"	103	stress_45	"POPTR_0006s22700.1"	139	"	"A/C"	"65,5/34,5"	"19/10"	29
controllo_3	"POPTR_0003s21070.1"	519	"	"T/A"	"68,0/32,0"	"87/41"	128	stress_12bis	"POPTR_0003s21070.1"	519	"	"T/A"	"66,7/33,3"	"16/8"	24
controllo_3	"POPTR_0003s21070.1"	519	"	"T/A"	"68,0/32,0"	"87/41"	128	stress_45	"POPTR_0003s21070.1"	519	"	"T/A"	"77,3/22,7"	"17/5"	22
controllo_3	"POPTR_0013s00850.1"	252	"	"T/C"	"68,0/32,0"	"202/95"	297	stress_12bis	"POPTR_0013s00850.1"	252	"	"T/C"	"56,9/43,1"	"58/44"	102
controllo_3	"POPTR_0013s00850.1"	252	"	"T/C"	"68,0/32,0"	"202/95"	297	stress_42	"POPTR_0013s00850.1"	252	"	"T/C"	"55,7/44,3"	"187/149"	336
controllo_3	"POPTR_0013s00850.1"	252	"	"T/C"	"68,0/32,0"	"202/95"	297	stress_45	"POPTR_0013s00850.1"	252	"	"T/C"	"60,0/40,0"	"129/86"	215
controllo_3	"POPTR_0001s07850.1"	694	"	"T/C"	"68,0/32,0"	"85/40"	125	stress_42	"POPTR_0001s07850.1"	694	"	"T/C"	"75,0/25,0"	"18/6"	24
controllo_3	"POPTR_0001s07850.1"	694	"	"T/C"	"68,0/32,0"	"85/40"	125	stress_45	"POPTR_0001s07850.1"	694	"	"T/C"	"57,6/42,4"	"19/14"	33
controllo_3	"POPTR_0002s03020.1"	573	"	"T/C"	"68,0/32,0"	"282/133"	415	stress_12bis	"POPTR_0002s03020.1"	573	"	"T/C"	"59,0/41,0"	"59/41"	100
controllo_3	"POPTR_0002s03020.1"	573	"	"T/C"	"68,0/32,0"	"282/133"	415	stress_42	"POPTR_0002s03020.1"	573	"	"T/C"	"82,1/17,9"	"170/37"	207
controllo_3	"POPTR_0002s03020.1"	573	"	"T/C"	"68,0/32,0"	"282/133"	415	stress_45	"POPTR_0002s03020.1"	573	"	"T/C"	"84,6/15,4"	"318/58"	376
controllo_3	"POPTR_0008s15760.1"	367	"	"C/G"	"68,0/32,0"	"361/170"	531	stress_12bis	"POPTR_0008s15760.1"	367	"	"C/G"	"78,0/21,3"	"234/64"	300
controllo_3	"POPTR_0008s15760.1"	367	"	"C/G"	"68,0/32,0"	"361/170"	531	stress_42	"POPTR_0008s15760.1"	367	"	"C/G"	"50,3/49,7"	"79/78"	157
controllo_3	"POPTR_0008s15760.1"	367	"	"C/G"	"68,0/32,0"	"361/170"	531	stress_45	"POPTR_0008s15760.1"	367	"	"C/G"	"67,6/32,4"	"144/69"	213
controllo_3	"POPTR_0008s06580.1"	378	"	"G/A"	"68,0/32,0"	"830/391"	1221	stress_12bis	"POPTR_0008s06580.1"	378	"	"A/G"	"53,2/46,8"	"99/87"	186
controllo_3	"POPTR_0008s06580.1"	378	"	"G/A"	"68,0/32,0"	"830/391"	1221	stress_42	"POPTR_0008s06580.1"	378	"	"G/A"	"62,8/37,2"	"484/287"	771
controllo_3	"POPTR_0008s06580.1"	378	"	"G/A"	"68,0/32,0"	"830/391"	1221	stress_45	"POPTR_0008s06580.1"	378	"	"G/A"	"60,0/39,9"	"576/383"	960
controllo_3	"POPTR_0014s13560.1"	1659	"	"T/C"	"68,1/31,1"	"280/128"	411	stress_12bis	"POPTR_0014s13560.1"	1659	"	"T/C"	"69,6/30,4"	"103/45"	148
controllo_3	"POPTR_0014s13560.1"	1659	"	"T/C"	"68,1/31,1"	"280/128"	411	stress_42	"POPTR_0014s13560.1"	1659	"	"T/C"	"71,8/27,1"	"61/23"	85
controllo_3	"POPTR_0014s13560.1"	1659	"	"T/C"	"68,1/31,1"	"280/128"	411	stress_45	"POPTR_0014s13560.1"	1659	"	"T/C"	"74,6/24,6"	"94/31"	126
controllo_3	"POPTR_0001s37480.1"	645	"	"A/T"	"68,1/31,6"	"209/97"	307	stress_12bis	"POPTR_0001s37480.1"	645	"	"A/T"	"77,2/22,8"	"44/13"	57
controllo_3	"POPTR_0001s37480.1"	645	"	"A/T"	"68,1/31,6"	"209/97"	307	stress_42	"POPTR_0001s37480.1"	645	"	"A/T"	"75,9/22,4"	"44/13"	58
controllo_3	"POPTR_0001s37480.1"	645	"	"A/T"	"68,1/31,6"	"209/97"	307	stress_45	"POPTR_0001s37480.1"	645	"	"A/T"	"73,6/26,4"	"81/29"	110
controllo_3	"POPTR_0391s00200.1"	170	"	"G/C"	"68,1/31,9"	"96/45"	141	stress_12bis	"POPTR_0391s00200.1"	170	"	"G/C"	"76,9/23,1"	"10/3"	13
controllo_3	"POPTR_0006s03320.1"	372	"	"T/C"	"68,1/31,9"	"81/38"	119	stress_12bis	"POPTR_0006s03320.1"	372	"	"T/C"	"84,9/15,1"	"79/14"	93
controllo_3	"POPTR_0006s03320.1"	372	"	"T/C"	"68,1/31,9"	"81/38"	119	stress_42	"POPTR_0006s03320.1"	372	"	"C/T"	"52,6/47,4"	"20/18"	38
controllo_3	"POPTR_0006s03320.1"	372	"	"T/C"	"68,1/31,9"	"81/38"	119	stress_45	"POPTR_0006s03320.1"	372	"	"T/C"	"77,8/22,2"	"28/8"	36
controllo_3	"POPTR_0006s03920.1"	127	"	"T/G"	"68,1/31,9"	"81/38"	119	stress_45	"POPTR_0006s03920.1"	127	"	"T/G"	"63,2/36,8"	"12/7"	19
controllo_3	"POPTR_0006s10250.1"	95	"	"G/C"	"68,1/31,9"	"130/61"	191	stress_12bis	"POPTR_0006s10250.1"	95	"	"G/C"	"59,1/40,9"	"13/9"	22
controllo_3	"POPTR_0006s10250.1"	95	"	"G/C"	"68,1/31,9"	"130/61"	191	stress_42	"POPTR_0006s10250.1"	95	"	"C/G"	"50,0/50,0"	"6/6"	12
controllo_3	"POPTR_0006s10250.1"	95	"	"G/C"	"68,1/31,9"	"130/61"	191	stress_45	"POPTR_0006s10250.1"	95	"	"G/C"	"60,0/40,0"	"12/8"	20
controllo_3	"POPTR_0006s02750.1"	96	"	"A/G"	"68,1/31,9"	"126/59"	185	stress_12bis	"POPTR_0006s02750.1"	96	"	"A/G"	"50,0/50,0"	"21/21"	42
controllo_3	"POPTR_0006s02750.1"	96	"	"A/G"	"68,1/31,9"	"126/59"	185	stress_42	"POPTR_0006s02750.1"	96	"	"A/G"	"80,9/19,1"	"55/13"	68
controllo_3	"POPTR_0006s02750.1"	96	"	"A/G"	"68,1/31,9"	"126/59"	185	stress_45	"POPTR_0006s02750.1"	96	"	"A/G"	"74,3/25,7"	"55/19"	74
controllo_3	"POPTR_0003s12870.1"	564	"	"T/C"	"68,1/31,9"	"139/65"	204	stress_12bis	"POPTR_0003s12870.1"	564	"	"T/C"	"61,3/38,7"	"19/12"	31
controllo_3	"POPTR_0003s12870.1"	564	"	"T/C"	"68,1/31,9"	"139/65"	204	stress_42	"POPTR_0003s12870.1"	564	"	"T/C"	"70,5/29,5"	"31/13"	44
controllo_3	"POPTR_0003s12870.1"	564	"	"T/C"	"68,1/31,9"	"139/65"	204	stress_45	"POPTR_0003s12870.1"	564	"	"T/C"	"62,7/37,3"	"32/19"	51
controllo_3	"POPTR_0013s00730.1"	249	"	"T/C"	"68,1/31,9"	"81/38"	119	stress_12bis	"POPTR_0013s00730.1"	249	"	"T/C"	"56,0/44,0"	"28/22"	50
controllo_3	"POPTR_0013s00730.1"	249	"	"T/C"	"68,1/31,9"	"81/38"	119	stress_42	"POPTR_0013s00730.1"	249	"	"T/C"	"55,0/45,0"	"11/9"	20
controllo_3	"POPTR_0013s00730.1"	249	"	"T/C"	"68,1/31,9"	"81/38"	119	stress_45	"POPTR_0013s00730.1"	249	"	"T/C"	"54,8/45,2"	"17/14"	31
controllo_3	"POPTR_0013s02710.1"	171	"	"T/A"	"68,1/31,9"	"160/75"	235	stress_12bis	"POPTR_0013s02710.1"	171	"	"T/A"	"69,4/30,6"	"43/19"	62
controllo_3	"POPTR_0013s02710.1"	171	"	"T/A"	"68,1/31,9"	"160/75"	235	stress_45	"POPTR_0013s02710.1"	171	"	"T/A"	"85,0/15,0"	"17/3"	20
controllo_3	"POPTR_0014s01840.1"	129	"	"T/C"	"68,1/31,9"	"98/46"	144	stress_42	"POPTR_0014s01840.1"	129	"	"T/C"	"58,9/41,1"	"43/30"	73
controllo_3	"POPTR_0014s01840.1"	129	"	"T/C"	"68,1/31,9"	"98/46"	144	stress_45	"POPTR_0014s01840.1"	129	"	"T/C"	"60,7/39,3"	"34/22"	56
controllo_3	"POPTR_0001s36870.1"	1972	"	"C/T"	"68,1/31,9"	"113/53"	166	stress_12bis	"POPTR_0001s36870.1"	1972	"	"C/T"	"59,0/41,0"	"23/16"	39
controllo_3	"POPTR_0001s36870.1"	1972	"	"C/T"	"68,1/31,9"	"113/53"	166	stress_42	"POPTR_0001s36870.1"	1972	"	"C/T"	"64,9/35,1"	"37/20"	57
controllo_3	"POPTR_0001s36870.1"	1972	"	"C/T"	"68,1/31,9"	"113/53"	166	stress_45	"POPTR_0001s36870.1"	1972	"	"C/T"	"66,7/33,3"	"20/10"	30
controllo_3	"POPTR_0001s07520.1"	1110	"	"C/G"	"68,1/31,9"	"160/75"	235	stress_12bis	"POPTR_0001s07520.1"	1110	"	"C/G"	"71,8/28,2"	"51/20"	71
controllo_3	"POPTR_0001s07520.1"	1110	"	"C/G"	"68,1/31,9"	"160/75"	235	stress_42	"POPTR_0001s07520.1"	1110	"	"C/G"	"70,8/29,2"	"68/28"	96
controllo_3	"POPTR_0001s07520.1"	1110	"	"C/G"	"68,1/31,9"	"160/75"	235	stress_45	"POPTR_0001s07520.1"	1110	"	"C/G"	"69,7/30,3"	"85/37"	122
controllo_3	"POPTR_0001s07520.1"	1111	"	"A/G"	"68,1/31,9"	"158/74"	232	stress_12bis	"POPTR_0001s07520.1"	1111	"	"A/G"	"71,2/28,8"	"52/21"	73
controllo_3	"POPTR_0001s07520.1"	1111	"	"A/G"	"68,1/31,9"	"158/74"	232	stress_42	"POPTR_0001s07520.1"	1111	"	"A/G"	"71,4/28,6"	"70/28"	98
controllo_3	"POPTR_0001s07520.1"	1111	"	"A/G"	"68,1/31,9"	"158/74"	232	stress_45	"POPTR_0001s07520.1"	1111	"	"A/G"	"69,9/30,1"	"86/37"	123
controllo_3	"POPTR_0001s01630.1"	609	"	"T/C"	"68,1/31,9"	"171/80"	251	stress_12bis	"POPTR_0001s01630.1"	609	"	"T/C"	"71,1/28,9"	"27/11"	38
controllo_3	"POPTR_0007s13800.1"	1000	"	"T/G"	"68,1/31,9"	"188/88"	276	stress_12bis	"POPTR_0007s13800.1"	1000	"	"T/G"	"65,5/34,5"	"38/20"	58
controllo_3	"POPTR_0002s21420.1"	1941	"	"C/T"	"68,1/31,9"	"94/44"	138	stress_12bis	"POPTR_0002s21420.1"	1941	"	"C/T"	"72,4/27,6"	"21/8"	29
controllo_3	"POPTR_0002s21420.1"	1941	"	"C/T"	"68,1/31,9"	"94/44"	138	stress_42	"POPTR_0002s21420.1"	1941	"	"T/C"	"52,6/47,4"	"20/18"	38
controllo_3	"POPTR_0002s21420.1"	1941	"	"C/T"	"68,1/31,9"	"94/44"	138	stress_45	"POPTR_0002s21420.1"	1941	"	"T/C"	"55,9/44,1"	"33/26"	59
controllo_3	"POPTR_0002s08010.1"	420	"	"A/T"	"68,1/31,9"	"96/45"	141	stress_12bis	"POPTR_0002s08010.1"	420	"	"A/T"	"56,2/43,8"	"18/14"	32
controllo_3	"POPTR_0018s01830.1"	150	"	"C/G"	"68,2/31,6"	"345/160"	506	stress_12bis	"POPTR_0018s01830.1"	150	"	"C/G"	"68,8/31,2"	"121/55"	176
controllo_3	"POPTR_0018s01830.1"	150	"	"C/G"	"68,2/31,6"	"345/160"	506	stress_42	"POPTR_0018s01830.1"	150	"	"C/G"	"65,9/34,1"	"29/15"	44
controllo_3	"POPTR_0018s01830.1"	150	"	"C/G"	"68,2/31,6"	"345/160"	506	stress_45	"POPTR_0018s01830.1"	150	"	"C/G"	"53,5/46,5"	"38/33"	71
controllo_3	"POPTR_0006s00780.1"	1039	"	"T/C"	"68,2/31,8"	"73/34"	107	stress_12bis	"POPTR_0006s00780.1"	1039	"	"C/T"	"56,5/43,5"	"13/10"	23
controllo_3	"POPTR_0013s14520.1"	462	"	"T/C"	"68,2/31,8"	"180/84"	264	stress_12bis	"POPTR_0013s14520.1"	462	"	"T/C"	"75,0/25,0"	"69/23"	92
controllo_3	"POPTR_0011s17170.1"	97	"	"A/C"	"68,2/31,8"	"654/305"	959	stress_12bis	"POPTR_0011s17170.1"	97	"	"A/C"	"72,1/27,9"	"209/81"	290
controllo_3	"POPTR_0011s17170.1"	97	"	"A/C"	"68,2/31,8"	"654/305"	959	stress_42	"POPTR_0011s17170.1"	97	"	"A/C"	"67,0/31,9"	"61/29"	91
controllo_3	"POPTR_0011s17170.1"	97	"	"A/C"	"68,2/31,8"	"654/305"	959	stress_45	"POPTR_0011s17170.1"	97	"	"A/C"	"66,4/33,6"	"71/36"	107
controllo_3	"POPTR_0001s30840.1"	378	"	"A/C"	"68,2/31,8"	"105/49"	154	stress_12bis	"POPTR_0001s30840.1"	378	"	"A/C"	"79,5/20,5"	"35/9"	44
controllo_3	"POPTR_0001s30840.1"	378	"	"A/C"	"68,2/31,8"	"105/49"	154	stress_42	"POPTR_0001s30840.1"	378	"	"A/C"	"66,7/33,3"	"18/9"	27
controllo_3	"POPTR_0001s30840.1"	378	"	"A/C"	"68,2/31,8"	"105/49"	154	stress_45	"POPTR_0001s30840.1"	378	"	"A/C"	"76,9/23,1"	"20/6"	26
controllo_3	"POPTR_0010s20060.1"	88	"	"A/G"	"68,2/31,8"	"131/61"	192	stress_12bis	"POPTR_0010s20060.1"	88	"	"A/G"	"71,4/28,6"	"60/24"	84
controllo_3	"POPTR_0010s20060.1"	88	"	"A/G"	"68,2/31,8"	"131/61"	192	stress_42	"POPTR_0010s20060.1"	88	"	"A/G"	"58,3/41,7"	"7/5"	12
controllo_3	"POPTR_0010s20060.1"	88	"	"A/G"	"68,2/31,8"	"131/61"	192	stress_45	"POPTR_0010s20060.1"	88	"	"G/A"	"53,1/46,9"	"17/15"	32
controllo_3	"POPTR_0003s12160.1"	1440	"	"C/A"	"68,3/30,0"	"82/36"	120	stress_12bis	"POPTR_0003s12160.1"	1440	"	"C/A"	"61,0/39,0"	"25/16"	41
controllo_3	"POPTR_0003s12160.1"	1440	"	"C/A"	"68,3/30,0"	"82/36"	120	stress_42	"POPTR_0003s12160.1"	1440	"	"A/C"	"54,5/36,4"	"6/4"	11
controllo_3	"POPTR_0003s12160.1"	1440	"	"C/A"	"68,3/30,0"	"82/36"	120	stress_45	"POPTR_0003s12160.1"	1440	"	"C/A"	"60,0/40,0"	"9/6"	15
controllo_3	"POPTR_0010s20060.1"	588	"	"T/A"	"68,3/31,0"	"302/137"	442	stress_12bis	"POPTR_0010s20060.1"	588	"	"T/A"	"71,9/28,1"	"97/38"	135
controllo_3	"POPTR_0002s22560.1"	247	"	"G/A"	"68,3/31,5"	"314/145"	460	stress_12bis	"POPTR_0002s22560.1"	247	"	"G/A"	"68,0/32,0"	"136/64"	200
controllo_3	"POPTR_0002s22560.1"	247	"	"G/A"	"68,3/31,5"	"314/145"	460	stress_42	"POPTR_0002s22560.1"	247	"	"G/A"	"68,6/31,4"	"24/11"	35
controllo_3	"POPTR_0002s22560.1"	247	"	"G/A"	"68,3/31,5"	"314/145"	460	stress_45	"POPTR_0002s22560.1"	247	"	"G/A"	"70,9/29,1"	"39/16"	55
controllo_3	"POPTR_0005s02580.1"	318	"	"G/A"	"68,3/31,7"	"95/44"	139	stress_12bis	"POPTR_0005s02580.1"	318	"	"G/A"	"57,7/42,3"	"30/22"	52
controllo_3	"POPTR_0005s02580.1"	318	"	"G/A"	"68,3/31,7"	"95/44"	139	stress_42	"POPTR_0005s02580.1"	318	"	"G/A"	"67,7/32,3"	"42/20"	62
controllo_3	"POPTR_0005s02580.1"	318	"	"G/A"	"68,3/31,7"	"95/44"	139	stress_45	"POPTR_0005s02580.1"	318	"	"G/A"	"60,5/39,5"	"46/30"	76
controllo_3	"POPTR_0005s18890.1"	885	"	"A/G"	"68,3/31,7"	"82/38"	120	stress_12bis	"POPTR_0005s18890.1"	885	"	"A/G"	"63,0/37,0"	"17/10"	27
controllo_3	"POPTR_0005s18890.1"	885	"	"A/G"	"68,3/31,7"	"82/38"	120	stress_42	"POPTR_0005s18890.1"	885	"	"A/G"	"65,4/34,6"	"17/9"	26
controllo_3	"POPTR_0005s18890.1"	885	"	"A/G"	"68,3/31,7"	"82/38"	120	stress_45	"POPTR_0005s18890.1"	885	"	"A/G"	"69,0/31,0"	"20/9"	29
controllo_3	"POPTR_0006s06180.1"	2154	"	"T/C"	"68,3/31,7"	"86/40"	126	stress_12bis	"POPTR_0006s06180.1"	2154	"	"T/C"	"82,3/17,7"	"51/11"	62
controllo_3	"POPTR_0006s06180.1"	2154	"	"T/C"	"68,3/31,7"	"86/40"	126	stress_42	"POPTR_0006s06180.1"	2154	"	"T/C"	"83,7/16,3"	"36/7"	43
controllo_3	"POPTR_0006s06180.1"	2154	"	"T/C"	"68,3/31,7"	"86/40"	126	stress_45	"POPTR_0006s06180.1"	2154	"	"T/C"	"80,0/18,0"	"40/9"	50
controllo_3	"POPTR_0019s13210.1"	450	"	"T/C"	"68,3/31,7"	"71/33"	104	stress_12bis	"POPTR_0019s13210.1"	450	"	"T/C"	"69,2/30,8"	"18/8"	26
controllo_3	"POPTR_0019s13210.1"	450	"	"T/C"	"68,3/31,7"	"71/33"	104	stress_45	"POPTR_0019s13210.1"	450	"	"T/C"	"72,7/27,3"	"8/3"	11
controllo_3	"POPTR_0014s15710.1"	156	"	"A/G"	"68,3/31,7"	"423/196"	619	stress_12bis	"POPTR_0014s15710.1"	156	"	"A/G"	"51,7/48,3"	"74/69"	143
controllo_3	"POPTR_0014s15710.1"	156	"	"A/G"	"68,3/31,7"	"423/196"	619	stress_42	"POPTR_0014s15710.1"	156	"	"A/G"	"71,2/28,8"	"52/21"	73
controllo_3	"POPTR_0014s15710.1"	156	"	"A/G"	"68,3/31,7"	"423/196"	619	stress_45	"POPTR_0014s15710.1"	156	"	"A/G"	"71,3/28,7"	"82/33"	115
controllo_3	"POPTR_0010s05170.1"	837	"	"C/T"	"68,3/31,7"	"284/132"	416	stress_12bis	"POPTR_0010s05170.1"	837	"	"C/T"	"73,1/26,9"	"19/7"	26
controllo_3	"POPTR_0002s19060.1"	1097	"	"T/A"	"68,3/31,7"	"41/19"	60	stress_45	"POPTR_0002s19060.1"	1097	"	"T/A"	"57,1/42,9"	"72/54"	126
controllo_3	"POPTR_0002s08010.1"	1242	"	"C/T"	"68,3/31,7"	"71/33"	104	stress_12bis	"POPTR_0002s08010.1"	1242	"	"C/T"	"77,8/22,2"	"14/4"	18
controllo_3	"POPTR_0002s08010.1"	1242	"	"C/T"	"68,3/31,7"	"71/33"	104	stress_45	"POPTR_0002s08010.1"	1242	"	"C/T"	"80,0/20,0"	"8/2"	10
controllo_3	"POPTR_0008s05470.1"	375	"	"C/A"	"68,3/31,7"	"82/38"	120	stress_12bis	"POPTR_0008s05470.1"	375	"	"C/A"	"64,3/35,7"	"18/10"	28
controllo_3	"POPTR_0008s05470.1"	375	"	"C/A"	"68,3/31,7"	"82/38"	120	stress_42	"POPTR_0008s05470.1"	375	"	"A/C"	"70,0/30,0"	"7/3"	10
controllo_3	"POPTR_0008s05470.1"	375	"	"C/A"	"68,3/31,7"	"82/38"	120	stress_45	"POPTR_0008s05470.1"	375	"	"A/C"	"50,0/50,0"	"6/6"	12
controllo_3	"POPTR_0008s10740.1"	1818	"	"G/T"	"68,3/31,7"	"82/38"	120	stress_12bis	"POPTR_0008s10740.1"	1818	"	"G/T"	"63,2/36,8"	"55/32"	87
controllo_3	"POPTR_0008s10740.1"	1818	"	"G/T"	"68,3/31,7"	"82/38"	120	stress_42	"POPTR_0008s10740.1"	1818	"	"G/T"	"67,0/33,0"	"63/31"	94
controllo_3	"POPTR_0008s10740.1"	1818	"	"G/T"	"68,3/31,7"	"82/38"	120	stress_45	"POPTR_0008s10740.1"	1818	"	"G/T"	"65,6/34,4"	"63/33"	96
controllo_3	"POPTR_0016s02440.1"	1132	"	"C/T"	"68,3/31,7"	"82/38"	120	stress_12bis	"POPTR_0016s02440.1"	1132	"	"C/T"	"76,2/23,8"	"16/5"	21
controllo_3	"POPTR_0016s02440.1"	1132	"	"C/T"	"68,3/31,7"	"82/38"	120	stress_42	"POPTR_0016s02440.1"	1132	"	"T/C"	"68,8/31,2"	"11/5"	16
controllo_3	"POPTR_0016s02440.1"	1132	"	"C/T"	"68,3/31,7"	"82/38"	120	stress_45	"POPTR_0016s02440.1"	1132	"	"C/T"	"63,6/36,4"	"14/8"	22
controllo_3	"POPTR_0014s13560.1"	2055	"	"T/C"	"68,4/30,7"	"154/69"	225	stress_12bis	"POPTR_0014s13560.1"	2055	"	"T/C"	"72,5/27,5"	"50/19"	69
controllo_3	"POPTR_0014s13560.1"	2055	"	"T/C"	"68,4/30,7"	"154/69"	225	stress_42	"POPTR_0014s13560.1"	2055	"	"T/C"	"69,8/28,3"	"37/15"	53
controllo_3	"POPTR_0014s13560.1"	2055	"	"T/C"	"68,4/30,7"	"154/69"	225	stress_45	"POPTR_0014s13560.1"	2055	"	"T/C"	"74,1/25,9"	"43/15"	58
controllo_3	"POPTR_0005s08610.1"	439	"	"T/C"	"68,4/31,6"	"128/59"	187	stress_12bis	"POPTR_0005s08610.1"	439	"	"T/C"	"69,5/30,5"	"57/25"	82
controllo_3	"POPTR_0005s08610.1"	439	"	"T/C"	"68,4/31,6"	"128/59"	187	stress_42	"POPTR_0005s08610.1"	439	"	"C/T"	"50,8/49,2"	"31/30"	61
controllo_3	"POPTR_0005s08610.1"	439	"	"T/C"	"68,4/31,6"	"128/59"	187	stress_45	"POPTR_0005s08610.1"	439	"	"T/C"	"60,0/40,0"	"27/18"	45
controllo_3	"POPTR_0013s00850.1"	282	"	"T/C"	"68,4/31,6"	"162/75"	237	stress_12bis	"POPTR_0013s00850.1"	282	"	"T/C"	"57,1/42,9"	"40/30"	70
controllo_3	"POPTR_0013s00850.1"	282	"	"T/C"	"68,4/31,6"	"162/75"	237	stress_42	"POPTR_0013s00850.1"	282	"	"T/C"	"53,2/46,8"	"140/123"	263
controllo_3	"POPTR_0013s00850.1"	282	"	"T/C"	"68,4/31,6"	"162/75"	237	stress_45	"POPTR_0013s00850.1"	282	"	"T/C"	"57,8/42,2"	"107/78"	185
controllo_3	"POPTR_0013s15560.1"	390	"	"A/G"	"68,4/31,6"	"39/18"	57	stress_42	"POPTR_0013s15560.1"	390	"	"G/A"	"56,0/44,0"	"61/48"	109
controllo_3	"POPTR_0013s15560.1"	390	"	"A/G"	"68,4/31,6"	"39/18"	57	stress_45	"POPTR_0013s15560.1"	390	"	"A/G"	"52,1/47,0"	"61/55"	117
controllo_3	"POPTR_0001s07520.1"	1161	"	"A/T"	"68,4/31,6"	"134/62"	196	stress_12bis	"POPTR_0001s07520.1"	1161	"	"A/T"	"60,0/40,0"	"36/24"	60
controllo_3	"POPTR_0001s07520.1"	1161	"	"A/T"	"68,4/31,6"	"134/62"	196	stress_42	"POPTR_0001s07520.1"	1161	"	"A/T"	"65,3/34,7"	"47/25"	72
controllo_3	"POPTR_0001s07520.1"	1161	"	"A/T"	"68,4/31,6"	"134/62"	196	stress_45	"POPTR_0001s07520.1"	1161	"	"A/T"	"63,6/35,6"	"75/42"	118
controllo_3	"POPTR_0010s08290.1"	411	"	"A/T"	"68,4/31,6"	"234/108"	342	stress_12bis	"POPTR_0010s08290.1"	411	"	"A/T"	"58,6/41,2"	"229/161"	391
controllo_3	"POPTR_0010s08290.1"	411	"	"A/T"	"68,4/31,6"	"234/108"	342	stress_42	"POPTR_0010s08290.1"	411	"	"A/T"	"63,4/36,5"	"1555/895"	2452
controllo_3	"POPTR_0010s08290.1"	411	"	"A/T"	"68,4/31,6"	"234/108"	342	stress_45	"POPTR_0010s08290.1"	411	"	"A/T"	"63,8/36,1"	"1623/919"	2545
controllo_3	"POPTR_0007s13800.1"	869	"	"A/G"	"68,4/31,6"	"223/103"	326	stress_12bis	"POPTR_0007s13800.1"	869	"	"A/G"	"67,2/32,8"	"39/19"	58
controllo_3	"POPTR_0002s14730.1"	1449	"	"C/A"	"68,4/31,6"	"329/152"	481	stress_12bis	"POPTR_0002s14730.1"	1449	"	"C/A"	"65,4/34,6"	"85/45"	130
controllo_3	"POPTR_0002s14730.1"	1449	"	"C/A"	"68,4/31,6"	"329/152"	481	stress_42	"POPTR_0002s14730.1"	1449	"	"C/A"	"74,2/25,8"	"23/8"	31
controllo_3	"POPTR_0002s14730.1"	1449	"	"C/A"	"68,4/31,6"	"329/152"	481	stress_45	"POPTR_0002s14730.1"	1449	"	"C/A"	"70,6/29,4"	"36/15"	51
controllo_3	"POPTR_0002s14730.1"	1467	"	"C/T"	"68,4/31,6"	"346/160"	506	stress_12bis	"POPTR_0002s14730.1"	1467	"	"C/T"	"63,2/36,8"	"96/56"	152
controllo_3	"POPTR_0002s14730.1"	1467	"	"C/T"	"68,4/31,6"	"346/160"	506	stress_42	"POPTR_0002s14730.1"	1467	"	"C/T"	"69,7/30,3"	"23/10"	33
controllo_3	"POPTR_0002s14730.1"	1467	"	"C/T"	"68,4/31,6"	"346/160"	506	stress_45	"POPTR_0002s14730.1"	1467	"	"C/T"	"71,8/28,2"	"28/11"	39
controllo_3	"POPTR_0002s14730.1"	1714	"	"T/C"	"68,4/31,6"	"314/145"	459	stress_12bis	"POPTR_0002s14730.1"	1714	"	"T/C"	"65,0/35,0"	"78/42"	120
controllo_3	"POPTR_0002s14730.1"	1714	"	"T/C"	"68,4/31,6"	"314/145"	459	stress_42	"POPTR_0002s14730.1"	1714	"	"T/C"	"61,3/38,7"	"19/12"	31
controllo_3	"POPTR_0002s14730.1"	1714	"	"T/C"	"68,4/31,6"	"314/145"	459	stress_45	"POPTR_0002s14730.1"	1714	"	"T/C"	"55,9/44,1"	"19/15"	34
controllo_3	"POPTR_0008s05470.1"	1683	"	"C/T"	"68,4/31,6"	"206/95"	301	stress_12bis	"POPTR_0008s05470.1"	1683	"	"C/T"	"70,5/29,5"	"31/13"	44
controllo_3	"POPTR_0008s05470.1"	1683	"	"C/T"	"68,4/31,6"	"206/95"	301	stress_42	"POPTR_0008s05470.1"	1683	"	"C/T"	"55,3/44,7"	"21/17"	38
controllo_3	"POPTR_0008s05470.1"	1683	"	"C/T"	"68,4/31,6"	"206/95"	301	stress_45	"POPTR_0008s05470.1"	1683	"	"C/T"	"69,5/30,5"	"57/25"	82
controllo_3	"POPTR_0009s11920.1"	126	"	"T/G"	"68,5/30,5"	"146/65"	213	stress_12bis	"POPTR_0009s11920.1"	126	"	"T/G"	"51,7/48,3"	"31/29"	60
controllo_3	"POPTR_0009s11920.1"	126	"	"T/G"	"68,5/30,5"	"146/65"	213	stress_42	"POPTR_0009s11920.1"	126	"	"T/G"	"54,4/45,6"	"49/41"	90
controllo_3	"POPTR_0009s11920.1"	126	"	"T/G"	"68,5/30,5"	"146/65"	213	stress_45	"POPTR_0009s11920.1"	126	"	"G/T"	"53,1/46,9"	"95/84"	179
controllo_3	"POPTR_0005s26740.1"	72	"	"C/T"	"68,5/31,5"	"392/180"	572	stress_12bis	"POPTR_0005s26740.1"	72	"	"C/T"	"79,6/20,4"	"164/42"	206
controllo_3	"POPTR_0005s26740.1"	72	"	"C/T"	"68,5/31,5"	"392/180"	572	stress_42	"POPTR_0005s26740.1"	72	"	"C/T"	"71,0/29,0"	"76/31"	107
controllo_3	"POPTR_0005s26740.1"	72	"	"C/T"	"68,5/31,5"	"392/180"	572	stress_45	"POPTR_0005s26740.1"	72	"	"C/T"	"78,7/21,3"	"122/33"	155
controllo_3	"POPTR_0006s06180.1"	1167	"	"C/G"	"68,5/31,5"	"135/62"	197	stress_12bis	"POPTR_0006s06180.1"	1167	"	"C/G"	"77,1/22,9"	"54/16"	70
controllo_3	"POPTR_0006s06180.1"	1167	"	"C/G"	"68,5/31,5"	"135/62"	197	stress_42	"POPTR_0006s06180.1"	1167	"	"C/G"	"74,1/25,9"	"20/7"	27
controllo_3	"POPTR_0006s06180.1"	1167	"	"C/G"	"68,5/31,5"	"135/62"	197	stress_45	"POPTR_0006s06180.1"	1167	"	"C/G"	"79,4/20,6"	"50/13"	63
controllo_3	"POPTR_0006s08750.1"	626	"	"A/G"	"68,5/31,5"	"74/34"	108	stress_12bis	"POPTR_0006s08750.1"	626	"	"A/G"	"52,2/47,8"	"36/33"	69
controllo_3	"POPTR_0006s08750.1"	626	"	"A/G"	"68,5/31,5"	"74/34"	108	stress_42	"POPTR_0006s08750.1"	626	"	"G/A"	"73,3/26,7"	"22/8"	30
controllo_3	"POPTR_0006s08750.1"	626	"	"A/G"	"68,5/31,5"	"74/34"	108	stress_45	"POPTR_0006s08750.1"	626	"	"G/A"	"52,8/47,2"	"19/17"	36
controllo_3	"POPTR_0018s01830.1"	162	"	"C/T"	"68,5/31,5"	"449/206"	655	stress_12bis	"POPTR_0018s01830.1"	162	"	"C/T"	"70,1/29,9"	"136/58"	194
controllo_3	"POPTR_0018s01830.1"	162	"	"C/T"	"68,5/31,5"	"449/206"	655	stress_42	"POPTR_0018s01830.1"	162	"	"C/T"	"63,6/36,4"	"35/20"	55
controllo_3	"POPTR_0018s01830.1"	162	"	"C/T"	"68,5/31,5"	"449/206"	655	stress_45	"POPTR_0018s01830.1"	162	"	"C/T"	"55,3/44,7"	"47/38"	85
controllo_3	"POPTR_0003s21900.1"	465	"	"A/G"	"68,5/31,5"	"74/34"	108	stress_12bis	"POPTR_0003s21900.1"	465	"	"A/G"	"50,0/50,0"	"5/5"	10
controllo_3	"POPTR_0019s14190.1"	231	"	"C/A"	"68,5/31,5"	"61/28"	89	stress_45	"POPTR_0019s14190.1"	231	"	"A/C"	"53,4/46,6"	"62/54"	116
controllo_3	"POPTR_0013s03320.1"	209	"	"A/G"	"68,5/31,5"	"213/98"	311	stress_12bis	"POPTR_0013s03320.1"	209	"	"A/G"	"83,9/16,1"	"47/9"	56
controllo_3	"POPTR_0013s03320.1"	209	"	"A/G"	"68,5/31,5"	"213/98"	311	stress_42	"POPTR_0013s03320.1"	209	"	"A/G"	"80,2/19,8"	"97/24"	121
controllo_3	"POPTR_0013s03320.1"	209	"	"A/G"	"68,5/31,5"	"213/98"	311	stress_45	"POPTR_0013s03320.1"	209	"	"A/G"	"72,4/27,6"	"76/29"	105
controllo_3	"POPTR_0013s01080.1"	192	"	"G/C"	"68,5/31,5"	"74/34"	108	stress_12bis	"POPTR_0013s01080.1"	192	"	"G/C"	"64,5/35,5"	"20/11"	31
controllo_3	"POPTR_0013s01080.1"	192	"	"G/C"	"68,5/31,5"	"74/34"	108	stress_42	"POPTR_0013s01080.1"	192	"	"G/C"	"64,3/35,7"	"9/5"	14
controllo_3	"POPTR_0013s01080.1"	192	"	"G/C"	"68,5/31,5"	"74/34"	108	stress_45	"POPTR_0013s01080.1"	192	"	"G/C"	"58,8/35,3"	"10/6"	17
controllo_3	"POPTR_0009s13210.1"	558	"	"C/T"	"68,5/31,5"	"85/39"	124	stress_12bis	"POPTR_0009s13210.1"	558	"	"C/T"	"74,3/25,7"	"26/9"	35
controllo_3	"POPTR_0009s13210.1"	558	"	"C/T"	"68,5/31,5"	"85/39"	124	stress_42	"POPTR_0009s13210.1"	558	"	"C/T"	"53,3/46,7"	"8/7"	15
controllo_3	"POPTR_0009s13210.1"	558	"	"C/T"	"68,5/31,5"	"85/39"	124	stress_45	"POPTR_0009s13210.1"	558	"	"T/C"	"54,5/45,5"	"6/5"	11
controllo_3	"POPTR_0015s00510.1"	294	"	"A/C"	"68,5/31,5"	"98/45"	143	stress_45	"POPTR_0015s00510.1"	294	"	"C/A"	"67,9/32,1"	"19/9"	28
controllo_3	"POPTR_0007s13800.1"	585	"	"C/T"	"68,5/31,5"	"204/94"	298	stress_12bis	"POPTR_0007s13800.1"	585	"	"C/T"	"61,4/38,6"	"27/17"	44
controllo_3	"POPTR_0005s19400.1"	154	"	"G/T"	"68,6/30,8"	"118/53"	172	stress_12bis	"POPTR_0005s19400.1"	154	"	"G/T"	"55,7/44,3"	"39/31"	70
controllo_3	"POPTR_0005s19400.1"	154	"	"G/T"	"68,6/30,8"	"118/53"	172	stress_42	"POPTR_0005s19400.1"	154	"	"G/T"	"50,0/50,0"	"10/10"	20
controllo_3	"POPTR_0005s19400.1"	154	"	"G/T"	"68,6/30,8"	"118/53"	172	stress_45	"POPTR_0005s19400.1"	154	"	"G/T"	"50,0/50,0"	"8/8"	16
controllo_3	"POPTR_0006s00780.1"	2085	"	"T/C"	"68,6/30,9"	"129/58"	188	stress_12bis	"POPTR_0006s00780.1"	2085	"	"C/T"	"65,0/35,0"	"13/7"	20
controllo_3	"POPTR_0006s00780.1"	2085	"	"T/C"	"68,6/30,9"	"129/58"	188	stress_45	"POPTR_0006s00780.1"	2085	"	"T/C"	"58,8/41,2"	"10/7"	17
controllo_3	"POPTR_0006s23890.1"	39	"	"G/A"	"68,6/31,4"	"398/182"	580	stress_12bis	"POPTR_0006s23890.1"	39	"	"G/A"	"71,5/28,5"	"128/51"	179
controllo_3	"POPTR_0006s23890.1"	39	"	"G/A"	"68,6/31,4"	"398/182"	580	stress_42	"POPTR_0006s23890.1"	39	"	"G/A"	"72,0/28,0"	"72/28"	100
controllo_3	"POPTR_0006s23890.1"	39	"	"G/A"	"68,6/31,4"	"398/182"	580	stress_45	"POPTR_0006s23890.1"	39	"	"G/A"	"77,1/22,9"	"64/19"	83
controllo_3	"POPTR_0006s00780.1"	1311	"	"C/G"	"68,6/31,4"	"70/32"	102	stress_12bis	"POPTR_0006s00780.1"	1311	"	"C/G"	"50,0/50,0"	"10/10"	20
controllo_3	"POPTR_0013s14450.1"	462	"	"G/A"	"68,6/31,4"	"83/38"	121	stress_12bis	"POPTR_0013s14450.1"	462	"	"G/A"	"76,1/23,9"	"35/11"	46
controllo_3	"POPTR_0013s14450.1"	462	"	"G/A"	"68,6/31,4"	"83/38"	121	stress_42	"POPTR_0013s14450.1"	462	"	"G/A"	"51,3/48,7"	"20/19"	39
controllo_3	"POPTR_0013s14450.1"	462	"	"G/A"	"68,6/31,4"	"83/38"	121	stress_45	"POPTR_0013s14450.1"	462	"	"G/A"	"75,0/25,0"	"39/13"	52
controllo_3	"POPTR_0004s01940.1"	342	"	"T/A"	"68,6/31,4"	"470/215"	685	stress_12bis	"POPTR_0004s01940.1"	342	"	"A/T"	"50,9/48,7"	"116/111"	228
controllo_3	"POPTR_0004s01940.1"	342	"	"T/A"	"68,6/31,4"	"470/215"	685	stress_42	"POPTR_0004s01940.1"	342	"	"A/T"	"80,0/20,0"	"80/20"	100
controllo_3	"POPTR_0004s01940.1"	342	"	"T/A"	"68,6/31,4"	"470/215"	685	stress_45	"POPTR_0004s01940.1"	342	"	"A/T"	"69,9/30,1"	"51/22"	73
controllo_3	"POPTR_0009s12420.1"	882	"	"G/T"	"68,6/31,4"	"127/58"	185	stress_12bis	"POPTR_0009s12420.1"	882	"	"G/T"	"66,7/33,3"	"34/17"	51
controllo_3	"POPTR_0009s12420.1"	882	"	"G/T"	"68,6/31,4"	"127/58"	185	stress_42	"POPTR_0009s12420.1"	882	"	"G/T"	"69,2/30,5"	"227/100"	328
controllo_3	"POPTR_0009s12420.1"	882	"	"G/T"	"68,6/31,4"	"127/58"	185	stress_45	"POPTR_0009s12420.1"	882	"	"G/T"	"66,2/33,4"	"210/106"	317
controllo_3	"POPTR_0001s25760.1"	1032	"	"A/T"	"68,6/31,4"	"181/83"	264	stress_12bis	"POPTR_0001s25760.1"	1032	"	"A/T"	"61,4/38,6"	"35/22"	57
controllo_3	"POPTR_0001s25760.1"	1032	"	"A/T"	"68,6/31,4"	"181/83"	264	stress_42	"POPTR_0001s25760.1"	1032	"	"A/T"	"69,2/30,8"	"18/8"	26
controllo_3	"POPTR_0001s25760.1"	1032	"	"A/T"	"68,6/31,4"	"181/83"	264	stress_45	"POPTR_0001s25760.1"	1032	"	"A/T"	"58,6/41,4"	"34/24"	58
controllo_3	"POPTR_0006s03660.1"	3216	"	"C/T"	"68,7/31,3"	"90/41"	131	stress_12bis	"POPTR_0006s03660.1"	3216	"	"C/T"	"70,8/29,2"	"17/7"	24
controllo_3	"POPTR_0006s03660.1"	3216	"	"C/T"	"68,7/31,3"	"90/41"	131	stress_42	"POPTR_0006s03660.1"	3216	"	"C/T"	"78,6/21,4"	"11/3"	14
controllo_3	"POPTR_0006s03660.1"	3216	"	"C/T"	"68,7/31,3"	"90/41"	131	stress_45	"POPTR_0006s03660.1"	3216	"	"C/T"	"70,0/30,0"	"14/6"	20
controllo_3	"POPTR_0013s03320.1"	584	"	"G/A"	"68,7/31,3"	"213/97"	310	stress_12bis	"POPTR_0013s03320.1"	584	"	"G/A"	"66,7/33,3"	"28/14"	42
controllo_3	"POPTR_0013s03320.1"	584	"	"G/A"	"68,7/31,3"	"213/97"	310	stress_42	"POPTR_0013s03320.1"	584	"	"G/A"	"81,2/18,8"	"91/21"	112
controllo_3	"POPTR_0013s03320.1"	584	"	"G/A"	"68,7/31,3"	"213/97"	310	stress_45	"POPTR_0013s03320.1"	584	"	"G/A"	"79,5/20,5"	"70/18"	88
controllo_3	"POPTR_0014s13560.1"	543	"	"A/G"	"68,7/31,3"	"204/93"	297	stress_12bis	"POPTR_0014s13560.1"	543	"	"A/G"	"58,7/41,3"	"61/43"	104
controllo_3	"POPTR_0014s13560.1"	543	"	"A/G"	"68,7/31,3"	"204/93"	297	stress_42	"POPTR_0014s13560.1"	543	"	"A/G"	"67,4/32,6"	"29/14"	43
controllo_3	"POPTR_0014s13560.1"	543	"	"A/G"	"68,7/31,3"	"204/93"	297	stress_45	"POPTR_0014s13560.1"	543	"	"A/G"	"65,3/34,7"	"47/25"	72
controllo_3	"POPTR_0010s21980.1"	350	"	"C/T"	"68,7/31,3"	"90/41"	131	stress_12bis	"POPTR_0010s21980.1"	350	"	"C/T"	"53,6/46,4"	"15/13"	28
controllo_3	"POPTR_0010s21980.1"	350	"	"C/T"	"68,7/31,3"	"90/41"	131	stress_42	"POPTR_0010s21980.1"	350	"	"C/T"	"77,5/22,5"	"31/9"	40
controllo_3	"POPTR_0010s21980.1"	350	"	"C/T"	"68,7/31,3"	"90/41"	131	stress_45	"POPTR_0010s21980.1"	350	"	"C/T"	"70,4/29,6"	"38/16"	54
controllo_3	"POPTR_0001s36870.1"	1699	"	"C/A"	"68,8/28,0"	"86/35"	125	stress_12bis	"POPTR_0001s36870.1"	1699	"	"C/A"	"60,0/40,0"	"18/12"	30
controllo_3	"POPTR_0001s36870.1"	1699	"	"C/A"	"68,8/28,0"	"86/35"	125	stress_42	"POPTR_0001s36870.1"	1699	"	"C/A"	"60,5/39,5"	"23/15"	38
controllo_3	"POPTR_0001s36870.1"	1699	"	"C/A"	"68,8/28,0"	"86/35"	125	stress_45	"POPTR_0001s36870.1"	1699	"	"C/A"	"72,5/27,5"	"29/11"	40
controllo_3	"POPTR_0006s27170.1"	347	"	"A/G"	"68,8/31,1"	"596/269"	866	stress_12bis	"POPTR_0006s27170.1"	347	"	"A/G"	"66,2/33,8"	"204/104"	308
controllo_3	"POPTR_0006s27170.1"	347	"	"A/G"	"68,8/31,1"	"596/269"	866	stress_42	"POPTR_0006s27170.1"	347	"	"A/G"	"51,6/48,4"	"16/15"	31
controllo_3	"POPTR_0006s27170.1"	347	"	"A/G"	"68,8/31,1"	"596/269"	866	stress_45	"POPTR_0006s27170.1"	347	"	"A/G"	"50,9/49,1"	"28/27"	55
controllo_3	"POPTR_0005s26220.1"	24	"	"A/G"	"68,8/31,2"	"33/15"	48	stress_42	"POPTR_0005s26220.1"	24	"	"A/G"	"67,0/33,0"	"73/36"	109
controllo_3	"POPTR_0005s26220.1"	24	"	"A/G"	"68,8/31,2"	"33/15"	48	stress_45	"POPTR_0005s26220.1"	24	"	"A/G"	"73,5/26,5"	"83/30"	113
controllo_3	"POPTR_0017s14470.1"	1371	"	"G/A"	"68,8/31,2"	"22/10"	32	stress_45	"POPTR_0017s14470.1"	1371	"	"G/A"	"57,8/42,2"	"59/43"	102
controllo_3	"POPTR_0018s09810.1"	1257	"	"C/A"	"68,8/31,2"	"86/39"	125	stress_12bis	"POPTR_0018s09810.1"	1257	"	"C/A"	"54,5/45,5"	"18/15"	33
controllo_3	"POPTR_0018s09810.1"	1257	"	"C/A"	"68,8/31,2"	"86/39"	125	stress_42	"POPTR_0018s09810.1"	1257	"	"A/C"	"61,5/38,5"	"8/5"	13
controllo_3	"POPTR_0018s09810.1"	1257	"	"C/A"	"68,8/31,2"	"86/39"	125	stress_45	"POPTR_0018s09810.1"	1257	"	"C/A"	"63,0/37,0"	"17/10"	27
controllo_3	"POPTR_0013s03320.1"	183	"	"C/T"	"68,8/31,2"	"170/77"	247	stress_42	"POPTR_0013s03320.1"	183	"	"C/T"	"73,9/26,1"	"65/23"	88
controllo_3	"POPTR_0013s03320.1"	183	"	"C/T"	"68,8/31,2"	"170/77"	247	stress_45	"POPTR_0013s03320.1"	183	"	"C/T"	"77,0/23,0"	"47/14"	61
controllo_3	"POPTR_0014s15710.1"	285	"	"C/T"	"68,8/31,2"	"391/177"	568	stress_12bis	"POPTR_0014s15710.1"	285	"	"C/T"	"56,0/44,0"	"65/51"	116
controllo_3	"POPTR_0014s15710.1"	285	"	"C/T"	"68,8/31,2"	"391/177"	568	stress_42	"POPTR_0014s15710.1"	285	"	"C/T"	"72,9/27,1"	"51/19"	70
controllo_3	"POPTR_0014s15710.1"	285	"	"C/T"	"68,8/31,2"	"391/177"	568	stress_45	"POPTR_0014s15710.1"	285	"	"C/T"	"66,3/33,7"	"65/33"	98
controllo_3	"POPTR_0004s16740.1"	966	"	"A/T"	"68,8/31,2"	"201/91"	292	stress_12bis	"POPTR_0004s16740.1"	966	"	"A/T"	"68,4/31,6"	"52/24"	76
controllo_3	"POPTR_0004s16740.1"	966	"	"A/T"	"68,8/31,2"	"201/91"	292	stress_42	"POPTR_0004s16740.1"	966	"	"A/T"	"60,2/39,8"	"74/49"	123
controllo_3	"POPTR_0004s16740.1"	966	"	"A/T"	"68,8/31,2"	"201/91"	292	stress_45	"POPTR_0004s16740.1"	966	"	"A/T"	"65,3/34,7"	"77/41"	118
controllo_3	"POPTR_0004s00800.1"	752	"	"A/T"	"68,8/31,2"	"75/34"	109	stress_12bis	"POPTR_0004s00800.1"	752	"	"A/T"	"56,7/43,3"	"17/13"	30
controllo_3	"POPTR_0004s00800.1"	752	"	"A/T"	"68,8/31,2"	"75/34"	109	stress_45	"POPTR_0004s00800.1"	752	"	"T/A"	"58,3/41,7"	"7/5"	12
controllo_3	"POPTR_0001s25760.1"	471	"	"T/G"	"68,8/31,2"	"75/34"	109	stress_12bis	"POPTR_0001s25760.1"	471	"	"T/G"	"61,5/38,5"	"16/10"	26
controllo_3	"POPTR_0001s25760.1"	471	"	"T/G"	"68,8/31,2"	"75/34"	109	stress_45	"POPTR_0001s25760.1"	471	"	"G/T"	"50,0/50,0"	"11/11"	22
controllo_3	"POPTR_0001s25760.1"	1020	"	"T/C"	"68,8/31,2"	"185/84"	269	stress_12bis	"POPTR_0001s25760.1"	1020	"	"T/C"	"62,3/37,7"	"38/23"	61
controllo_3	"POPTR_0001s25760.1"	1020	"	"T/C"	"68,8/31,2"	"185/84"	269	stress_42	"POPTR_0001s25760.1"	1020	"	"T/C"	"69,2/30,8"	"18/8"	26
controllo_3	"POPTR_0001s25760.1"	1020	"	"T/C"	"68,8/31,2"	"185/84"	269	stress_45	"POPTR_0001s25760.1"	1020	"	"T/C"	"55,6/44,4"	"30/24"	54
controllo_3	"POPTR_0001s36870.1"	1231	"	"A/T"	"68,8/31,2"	"77/35"	112	stress_12bis	"POPTR_0001s36870.1"	1231	"	"A/T"	"70,6/29,4"	"24/10"	34
controllo_3	"POPTR_0001s36870.1"	1231	"	"A/T"	"68,8/31,2"	"77/35"	112	stress_42	"POPTR_0001s36870.1"	1231	"	"A/T"	"75,0/25,0"	"15/5"	20
controllo_3	"POPTR_0001s36870.1"	1231	"	"A/T"	"68,8/31,2"	"77/35"	112	stress_45	"POPTR_0001s36870.1"	1231	"	"A/T"	"68,4/31,6"	"13/6"	19
controllo_3	"POPTR_0010s14660.1"	1443	"	"A/G"	"68,8/31,2"	"75/34"	109	stress_12bis	"POPTR_0010s14660.1"	1443	"	"A/G"	"63,9/36,1"	"23/13"	36
controllo_3	"POPTR_0010s14660.1"	1443	"	"A/G"	"68,8/31,2"	"75/34"	109	stress_45	"POPTR_0010s14660.1"	1443	"	"A/G"	"78,6/21,4"	"11/3"	14
controllo_3	"POPTR_0008s03810.1"	924	"	"G/C"	"68,8/31,2"	"75/34"	109	stress_42	"POPTR_0008s03810.1"	924	"	"G/C"	"58,8/41,2"	"10/7"	17
controllo_3	"POPTR_0008s03810.1"	924	"	"G/C"	"68,8/31,2"	"75/34"	109	stress_45	"POPTR_0008s03810.1"	924	"	"G/C"	"76,9/23,1"	"10/3"	13
controllo_3	"POPTR_0016s07220.1"	402	"	"G/T"	"68,8/31,2"	"128/58"	186	stress_12bis	"POPTR_0016s07220.1"	402	"	"G/T"	"56,2/43,8"	"18/14"	32
controllo_3	"POPTR_0016s07220.1"	402	"	"G/T"	"68,8/31,2"	"128/58"	186	stress_42	"POPTR_0016s07220.1"	402	"	"G/T"	"54,2/45,8"	"13/11"	24
controllo_3	"POPTR_0016s07220.1"	402	"	"G/T"	"68,8/31,2"	"128/58"	186	stress_45	"POPTR_0016s07220.1"	402	"	"G/T"	"55,6/44,4"	"15/12"	27
controllo_3	"POPTR_0008s06580.1"	645	"	"G/T"	"68,9/30,9"	"646/290"	937	stress_12bis	"POPTR_0008s06580.1"	645	"	"G/T"	"54,2/45,8"	"64/54"	118
controllo_3	"POPTR_0008s06580.1"	645	"	"G/T"	"68,9/30,9"	"646/290"	937	stress_42	"POPTR_0008s06580.1"	645	"	"G/T"	"63,5/36,2"	"412/235"	649
controllo_3	"POPTR_0008s06580.1"	645	"	"G/T"	"68,9/30,9"	"646/290"	937	stress_45	"POPTR_0008s06580.1"	645	"	"G/T"	"64,9/35,1"	"472/255"	727
controllo_3	"POPTR_0001s29660.1"	612	"	"A/T"	"68,9/31,1"	"73/33"	106	stress_12bis	"POPTR_0001s29660.1"	612	"	"A/T"	"72,7/27,3"	"32/12"	44
controllo_3	"POPTR_0001s29660.1"	612	"	"A/T"	"68,9/31,1"	"73/33"	106	stress_42	"POPTR_0001s29660.1"	612	"	"A/T"	"58,3/41,7"	"14/10"	24
controllo_3	"POPTR_0001s29660.1"	612	"	"A/T"	"68,9/31,1"	"73/33"	106	stress_45	"POPTR_0001s29660.1"	612	"	"A/T"	"80,0/20,0"	"12/3"	15
controllo_3	"POPTR_0008s03280.1"	1725	"	"C/T"	"68,9/31,1"	"73/33"	106	stress_42	"POPTR_0008s03280.1"	1725	"	"C/T"	"61,9/38,1"	"13/8"	21
controllo_3	"POPTR_0008s03280.1"	1725	"	"C/T"	"68,9/31,1"	"73/33"	106	stress_45	"POPTR_0008s03280.1"	1725	"	"C/T"	"76,5/23,5"	"13/4"	17
controllo_3	"POPTR_0007s06620.1"	657	"	"C/G"	"69,0/30,4"	"118/52"	171	stress_12bis	"POPTR_0007s06620.1"	657	"	"C/G"	"63,9/36,1"	"23/13"	36
controllo_3	"POPTR_0007s06620.1"	657	"	"C/G"	"69,0/30,4"	"118/52"	171	stress_45	"POPTR_0007s06620.1"	657	"	"C/G"	"72,2/27,8"	"13/5"	18
controllo_3	"POPTR_0008s06580.1"	294	"	"A/G"	"69,0/30,9"	"776/347"	1124	stress_12bis	"POPTR_0008s06580.1"	294	"	"A/G"	"59,6/40,4"	"81/55"	136
controllo_3	"POPTR_0008s06580.1"	294	"	"A/G"	"69,0/30,9"	"776/347"	1124	stress_42	"POPTR_0008s06580.1"	294	"	"A/G"	"61,7/38,1"	"421/260"	682
controllo_3	"POPTR_0008s06580.1"	294	"	"A/G"	"69,0/30,9"	"776/347"	1124	stress_45	"POPTR_0008s06580.1"	294	"	"A/G"	"58,4/41,5"	"518/368"	887
controllo_3	"POPTR_0006s24520.1"	882	"	"T/C"	"69,0/31,0"	"80/36"	116	stress_12bis	"POPTR_0006s24520.1"	882	"	"T/C"	"76,2/23,8"	"16/5"	21
controllo_3	"POPTR_0006s11420.1"	101	"	"T/G"	"69,0/31,0"	"100/45"	145	stress_12bis	"POPTR_0006s11420.1"	101	"	"T/G"	"65,4/34,6"	"34/18"	52
controllo_3	"POPTR_0006s11420.1"	101	"	"T/G"	"69,0/31,0"	"100/45"	145	stress_42	"POPTR_0006s11420.1"	101	"	"T/G"	"75,0/25,0"	"15/5"	20
controllo_3	"POPTR_0006s11420.1"	101	"	"T/G"	"69,0/31,0"	"100/45"	145	stress_45	"POPTR_0006s11420.1"	101	"	"T/G"	"74,4/25,6"	"29/10"	39
controllo_3	"POPTR_0006s00780.1"	2122	"	"G/T"	"69,0/31,0"	"118/53"	171	stress_12bis	"POPTR_0006s00780.1"	2122	"	"T/G"	"55,6/44,4"	"15/12"	27
controllo_3	"POPTR_0022s00530.1"	1751	"	"A/G"	"69,0/31,0"	"145/65"	210	stress_12bis	"POPTR_0022s00530.1"	1751	"	"A/G"	"68,9/31,1"	"31/14"	45
controllo_3	"POPTR_0022s00530.1"	1751	"	"A/G"	"69,0/31,0"	"145/65"	210	stress_45	"POPTR_0022s00530.1"	1751	"	"A/G"	"69,7/30,3"	"46/20"	66
controllo_3	"POPTR_0019s12320.1"	456	"	"T/A"	"69,0/31,0"	"80/36"	116	stress_12bis	"POPTR_0019s12320.1"	456	"	"T/A"	"71,8/28,2"	"28/11"	39
controllo_3	"POPTR_0004s01030.1"	581	"	"T/C"	"69,0/31,0"	"107/48"	155	stress_12bis	"POPTR_0004s01030.1"	581	"	"T/C"	"63,6/36,4"	"14/8"	22
controllo_3	"POPTR_0004s01030.1"	581	"	"T/C"	"69,0/31,0"	"107/48"	155	stress_42	"POPTR_0004s01030.1"	581	"	"T/C"	"72,7/27,3"	"16/6"	22
controllo_3	"POPTR_0004s01030.1"	581	"	"T/C"	"69,0/31,0"	"107/48"	155	stress_45	"POPTR_0004s01030.1"	581	"	"C/T"	"58,3/41,7"	"14/10"	24
controllo_3	"POPTR_0009s13210.1"	141	"	"C/T"	"69,0/31,0"	"80/36"	116	stress_12bis	"POPTR_0009s13210.1"	141	"	"C/T"	"75,0/25,0"	"24/8"	32
controllo_3	"POPTR_0009s13210.1"	141	"	"C/T"	"69,0/31,0"	"80/36"	116	stress_45	"POPTR_0009s13210.1"	141	"	"C/T"	"65,0/35,0"	"13/7"	20
controllo_3	"POPTR_0012s07270.1"	558	"	"C/T"	"69,0/31,0"	"98/44"	142	stress_12bis	"POPTR_0012s07270.1"	558	"	"C/T"	"70,9/29,1"	"39/16"	55
controllo_3	"POPTR_0012s07270.1"	558	"	"C/T"	"69,0/31,0"	"98/44"	142	stress_42	"POPTR_0012s07270.1"	558	"	"C/T"	"77,8/22,2"	"42/12"	54
controllo_3	"POPTR_0012s07270.1"	558	"	"C/T"	"69,0/31,0"	"98/44"	142	stress_45	"POPTR_0012s07270.1"	558	"	"C/T"	"72,0/28,0"	"54/21"	75
controllo_3	"POPTR_0001s36870.1"	1509	"	"A/G"	"69,0/31,0"	"98/44"	142	stress_12bis	"POPTR_0001s36870.1"	1509	"	"A/G"	"52,5/47,5"	"21/19"	40
controllo_3	"POPTR_0001s36870.1"	1509	"	"A/G"	"69,0/31,0"	"98/44"	142	stress_42	"POPTR_0001s36870.1"	1509	"	"G/A"	"61,5/38,5"	"16/10"	26
controllo_3	"POPTR_0001s36870.1"	1509	"	"A/G"	"69,0/31,0"	"98/44"	142	stress_45	"POPTR_0001s36870.1"	1509	"	"A/G"	"65,4/34,6"	"17/9"	26
controllo_3	"POPTR_0010s07730.1"	270	"	"A/G"	"69,0/31,0"	"381/171"	552	stress_12bis	"POPTR_0010s07730.1"	270	"	"A/G"	"71,8/28,2"	"153/60"	213
controllo_3	"POPTR_0010s07730.1"	270	"	"A/G"	"69,0/31,0"	"381/171"	552	stress_42	"POPTR_0010s07730.1"	270	"	"A/G"	"71,3/28,7"	"67/27"	94
controllo_3	"POPTR_0010s07730.1"	270	"	"A/G"	"69,0/31,0"	"381/171"	552	stress_45	"POPTR_0010s07730.1"	270	"	"A/G"	"65,8/34,2"	"52/27"	79
controllo_3	"POPTR_0002s08010.1"	765	"	"C/T"	"69,0/31,0"	"87/39"	126	stress_12bis	"POPTR_0002s08010.1"	765	"	"C/T"	"60,0/40,0"	"15/10"	25
controllo_3	"POPTR_0002s08010.1"	765	"	"C/T"	"69,0/31,0"	"87/39"	126	stress_45	"POPTR_0002s08010.1"	765	"	"C/T"	"64,7/35,3"	"11/6"	17
controllo_3	"POPTR_0010s16860.1"	387	"	"G/T"	"69,1/30,4"	"541/238"	783	stress_12bis	"POPTR_0010s16860.1"	387	"	"G/T"	"74,3/25,4"	"307/105"	413
controllo_3	"POPTR_0010s16860.1"	387	"	"G/T"	"69,1/30,4"	"541/238"	783	stress_42	"POPTR_0010s16860.1"	387	"	"G/T"	"77,2/22,8"	"44/13"	57
controllo_3	"POPTR_0010s16860.1"	387	"	"G/T"	"69,1/30,4"	"541/238"	783	stress_45	"POPTR_0010s16860.1"	387	"	"G/T"	"73,5/26,5"	"25/9"	34
controllo_3	"POPTR_0005s26930.1"	585	"	"G/A"	"69,1/30,6"	"201/89"	291	stress_12bis	"POPTR_0005s26930.1"	585	"	"G/A"	"58,4/41,6"	"52/37"	89
controllo_3	"POPTR_0005s26930.1"	585	"	"G/A"	"69,1/30,6"	"201/89"	291	stress_42	"POPTR_0005s26930.1"	585	"	"G/A"	"51,6/48,4"	"16/15"	31
controllo_3	"POPTR_0005s26930.1"	585	"	"G/A"	"69,1/30,6"	"201/89"	291	stress_45	"POPTR_0005s26930.1"	585	"	"A/G"	"59,1/40,9"	"13/9"	22
controllo_3	"POPTR_0006s27170.1"	526	"	"A/C"	"69,1/30,8"	"864/385"	1250	stress_12bis	"POPTR_0006s27170.1"	526	"	"A/C"	"70,6/29,4"	"257/107"	364
controllo_3	"POPTR_0006s27170.1"	526	"	"A/C"	"69,1/30,8"	"864/385"	1250	stress_42	"POPTR_0006s27170.1"	526	"	"A/C"	"80,8/19,2"	"42/10"	52
controllo_3	"POPTR_0006s27170.1"	526	"	"A/C"	"69,1/30,8"	"864/385"	1250	stress_45	"POPTR_0006s27170.1"	526	"	"A/C"	"81,3/17,6"	"74/16"	91
controllo_3	"POPTR_0008s06580.1"	495	"	"T/A"	"69,1/30,8"	"779/347"	1127	stress_12bis	"POPTR_0008s06580.1"	495	"	"T/A"	"52,9/47,1"	"82/73"	155
controllo_3	"POPTR_0008s06580.1"	495	"	"T/A"	"69,1/30,8"	"779/347"	1127	stress_42	"POPTR_0008s06580.1"	495	"	"T/A"	"63,2/36,8"	"439/256"	695
controllo_3	"POPTR_0008s06580.1"	495	"	"T/A"	"69,1/30,8"	"779/347"	1127	stress_45	"POPTR_0008s06580.1"	495	"	"T/A"	"64,6/35,0"	"553/300"	856
controllo_3	"POPTR_0005s25540.1"	1080	"	"A/T"	"69,1/30,9"	"206/92"	298	stress_12bis	"POPTR_0005s25540.1"	1080	"	"A/T"	"78,8/21,2"	"26/7"	33
controllo_3	"POPTR_0014s13560.1"	1638	"	"A/T"	"69,1/30,9"	"250/112"	362	stress_12bis	"POPTR_0014s13560.1"	1638	"	"A/T"	"69,2/30,8"	"92/41"	133
controllo_3	"POPTR_0014s13560.1"	1638	"	"A/T"	"69,1/30,9"	"250/112"	362	stress_42	"POPTR_0014s13560.1"	1638	"	"A/T"	"73,6/26,4"	"67/24"	91
controllo_3	"POPTR_0014s13560.1"	1638	"	"A/T"	"69,1/30,9"	"250/112"	362	stress_45	"POPTR_0014s13560.1"	1638	"	"A/T"	"72,8/27,2"	"75/28"	103
controllo_3	"POPTR_0009s12420.1"	40	"	"T/C"	"69,1/30,9"	"65/29"	94	stress_45	"POPTR_0009s12420.1"	40	"	"T/C"	"72,3/27,7"	"94/36"	130
controllo_3	"POPTR_0001s03980.1"	1314	"	"G/A"	"69,1/30,9"	"94/42"	136	stress_12bis	"POPTR_0001s03980.1"	1314	"	"G/A"	"65,2/34,8"	"30/16"	46
controllo_3	"POPTR_0001s03980.1"	1314	"	"G/A"	"69,1/30,9"	"94/42"	136	stress_42	"POPTR_0001s03980.1"	1314	"	"G/A"	"66,7/33,3"	"16/8"	24
controllo_3	"POPTR_0001s03980.1"	1314	"	"G/A"	"69,1/30,9"	"94/42"	136	stress_45	"POPTR_0001s03980.1"	1314	"	"G/A"	"57,4/42,6"	"35/26"	61
controllo_3	"POPTR_0007s09630.1"	681	"	"G/A"	"69,1/30,9"	"76/34"	110	stress_12bis	"POPTR_0007s09630.1"	681	"	"G/A"	"57,1/42,9"	"12/9"	21
controllo_3	"POPTR_0007s15080.1"	1407	"	"G/A"	"69,1/30,9"	"159/71"	230	stress_12bis	"POPTR_0007s15080.1"	1407	"	"G/A"	"74,6/25,4"	"47/16"	63
controllo_3	"POPTR_0007s15080.1"	1407	"	"G/A"	"69,1/30,9"	"159/71"	230	stress_45	"POPTR_0007s15080.1"	1407	"	"G/A"	"71,4/28,6"	"20/8"	28
controllo_3	"POPTR_0005s21750.1"	570	"	"C/T"	"69,2/30,8"	"164/73"	237	stress_12bis	"POPTR_0005s21750.1"	570	"	"C/T"	"50,0/50,0"	"66/66"	132
controllo_3	"POPTR_0005s21750.1"	570	"	"C/T"	"69,2/30,8"	"164/73"	237	stress_42	"POPTR_0005s21750.1"	570	"	"T/C"	"62,8/36,2"	"118/68"	188
controllo_3	"POPTR_0005s21750.1"	570	"	"C/T"	"69,2/30,8"	"164/73"	237	stress_45	"POPTR_0005s21750.1"	570	"	"T/C"	"57,8/42,2"	"104/76"	180
controllo_3	"POPTR_0017s00850.1"	779	"	"C/A"	"69,2/30,8"	"126/56"	182	stress_12bis	"POPTR_0017s00850.1"	779	"	"C/A"	"72,2/27,8"	"13/5"	18
controllo_3	"POPTR_0017s00850.1"	779	"	"C/A"	"69,2/30,8"	"126/56"	182	stress_42	"POPTR_0017s00850.1"	779	"	"A/C"	"57,1/41,9"	"60/44"	105
controllo_3	"POPTR_0017s00850.1"	779	"	"C/A"	"69,2/30,8"	"126/56"	182	stress_45	"POPTR_0017s00850.1"	779	"	"C/A"	"51,7/48,3"	"60/56"	116
controllo_3	"POPTR_0006s23580.1"	464	"	"T/C"	"69,2/30,8"	"135/60"	195	stress_12bis	"POPTR_0006s23580.1"	464	"	"T/C"	"69,0/31,0"	"29/13"	42
controllo_3	"POPTR_0006s23580.1"	464	"	"T/C"	"69,2/30,8"	"135/60"	195	stress_42	"POPTR_0006s23580.1"	464	"	"T/C"	"58,2/41,8"	"57/41"	98
controllo_3	"POPTR_0006s23580.1"	464	"	"T/C"	"69,2/30,8"	"135/60"	195	stress_45	"POPTR_0006s23580.1"	464	"	"T/C"	"58,7/41,3"	"74/52"	126
controllo_3	"POPTR_0006s24520.1"	404	"	"A/G"	"69,2/30,8"	"126/56"	182	stress_12bis	"POPTR_0006s24520.1"	404	"	"A/G"	"53,3/46,7"	"16/14"	30
controllo_3	"POPTR_0004s15960.1"	1104	"	"T/A"	"69,2/30,8"	"83/37"	120	stress_42	"POPTR_0004s15960.1"	1104	"	"T/A"	"70,6/29,4"	"12/5"	17
controllo_3	"POPTR_0004s15960.1"	1104	"	"T/A"	"69,2/30,8"	"83/37"	120	stress_45	"POPTR_0004s15960.1"	1104	"	"T/A"	"84,2/15,8"	"16/3"	19
controllo_3	"POPTR_0011s05670.1"	88	"	"C/T"	"69,2/30,8"	"146/65"	211	stress_12bis	"POPTR_0011s05670.1"	88	"	"C/T"	"59,3/40,7"	"35/24"	59
controllo_3	"POPTR_0011s05670.1"	88	"	"C/T"	"69,2/30,8"	"146/65"	211	stress_42	"POPTR_0011s05670.1"	88	"	"C/T"	"56,2/43,8"	"9/7"	16
controllo_3	"POPTR_0011s05670.1"	88	"	"C/T"	"69,2/30,8"	"146/65"	211	stress_45	"POPTR_0011s05670.1"	88	"	"C/T"	"64,0/36,0"	"32/18"	50
controllo_3	"POPTR_0001s36870.1"	1053	"	"T/A"	"69,2/30,8"	"72/32"	104	stress_12bis	"POPTR_0001s36870.1"	1053	"	"A/T"	"53,8/46,2"	"14/12"	26
controllo_3	"POPTR_0001s36870.1"	1053	"	"T/A"	"69,2/30,8"	"72/32"	104	stress_42	"POPTR_0001s36870.1"	1053	"	"T/A"	"66,7/33,3"	"10/5"	15
controllo_3	"POPTR_0001s36870.1"	1053	"	"T/A"	"69,2/30,8"	"72/32"	104	stress_45	"POPTR_0001s36870.1"	1053	"	"T/A"	"54,5/45,5"	"12/10"	22
controllo_3	"POPTR_0002s14730.1"	93	"	"C/T"	"69,2/30,8"	"222/99"	321	stress_12bis	"POPTR_0002s14730.1"	93	"	"C/T"	"72,2/27,8"	"57/22"	79
controllo_3	"POPTR_0002s14730.1"	93	"	"C/T"	"69,2/30,8"	"222/99"	321	stress_42	"POPTR_0002s14730.1"	93	"	"C/T"	"54,5/45,5"	"6/5"	11
controllo_3	"POPTR_0002s14730.1"	93	"	"C/T"	"69,2/30,8"	"222/99"	321	stress_45	"POPTR_0002s14730.1"	93	"	"C/T"	"60,0/40,0"	"12/8"	20
controllo_3	"POPTR_0008s15770.1"	93	"	"T/C"	"69,2/30,8"	"1507/671"	2178	stress_12bis	"POPTR_0008s15770.1"	93	"	"T/C"	"54,5/45,4"	"532/444"	977
controllo_3	"POPTR_0008s15770.1"	93	"	"T/C"	"69,2/30,8"	"1507/671"	2178	stress_42	"POPTR_0008s15770.1"	93	"	"T/C"	"79,0/21,0"	"588/156"	744
controllo_3	"POPTR_0008s15770.1"	93	"	"T/C"	"69,2/30,8"	"1507/671"	2178	stress_45	"POPTR_0008s15770.1"	93	"	"T/C"	"70,6/29,4"	"660/275"	935
controllo_3	"POPTR_0005s05360.1"	825	"	"C/T"	"69,3/30,7"	"70/31"	101	stress_12bis	"POPTR_0005s05360.1"	825	"	"C/T"	"63,6/36,4"	"14/8"	22
controllo_3	"POPTR_0005s05360.1"	825	"	"C/T"	"69,3/30,7"	"70/31"	101	stress_42	"POPTR_0005s05360.1"	825	"	"T/C"	"54,5/45,5"	"6/5"	11
controllo_3	"POPTR_0005s05360.1"	825	"	"C/T"	"69,3/30,7"	"70/31"	101	stress_45	"POPTR_0005s05360.1"	825	"	"T/C"	"64,3/35,7"	"9/5"	14
controllo_3	"POPTR_0017s00850.1"	282	"	"A/T"	"69,3/30,7"	"88/39"	127	stress_12bis	"POPTR_0017s00850.1"	282	"	"A/T"	"83,3/16,7"	"15/3"	18
controllo_3	"POPTR_0017s00850.1"	282	"	"A/T"	"69,3/30,7"	"88/39"	127	stress_42	"POPTR_0017s00850.1"	282	"	"A/T"	"54,8/45,2"	"34/28"	62
controllo_3	"POPTR_0017s00850.1"	282	"	"A/T"	"69,3/30,7"	"88/39"	127	stress_45	"POPTR_0017s00850.1"	282	"	"A/T"	"58,2/41,8"	"53/38"	91
controllo_3	"POPTR_0006s00470.1"	348	"	"C/T"	"69,3/30,7"	"70/31"	101	stress_12bis	"POPTR_0006s00470.1"	348	"	"C/T"	"81,0/19,0"	"17/4"	21
controllo_3	"POPTR_0006s00470.1"	348	"	"C/T"	"69,3/30,7"	"70/31"	101	stress_45	"POPTR_0006s00470.1"	348	"	"C/T"	"68,0/32,0"	"17/8"	25
controllo_3	"POPTR_0006s16030.1"	219	"	"G/A"	"69,3/30,7"	"79/35"	114	stress_45	"POPTR_0006s16030.1"	219	"	"G/A"	"70,0/30,0"	"7/3"	10
controllo_3	"POPTR_0009s09240.1"	141	"	"G/A"	"69,3/30,7"	"79/35"	114	stress_12bis	"POPTR_0009s09240.1"	141	"	"G/A"	"59,1/40,9"	"26/18"	44
controllo_3	"POPTR_0009s09240.1"	141	"	"G/A"	"69,3/30,7"	"79/35"	114	stress_42	"POPTR_0009s09240.1"	141	"	"A/G"	"50,0/50,0"	"7/7"	14
controllo_3	"POPTR_0009s09240.1"	141	"	"G/A"	"69,3/30,7"	"79/35"	114	stress_45	"POPTR_0009s09240.1"	141	"	"G/A"	"68,2/31,8"	"15/7"	22
controllo_3	"POPTR_0001s07850.1"	930	"	"A/G"	"69,3/30,7"	"165/73"	238	stress_12bis	"POPTR_0001s07850.1"	930	"	"A/G"	"80,4/19,6"	"37/9"	46
controllo_3	"POPTR_0001s07850.1"	930	"	"A/G"	"69,3/30,7"	"165/73"	238	stress_42	"POPTR_0001s07850.1"	930	"	"A/G"	"70,5/29,5"	"43/18"	61
controllo_3	"POPTR_0001s07850.1"	930	"	"A/G"	"69,3/30,7"	"165/73"	238	stress_45	"POPTR_0001s07850.1"	930	"	"A/G"	"62,0/38,0"	"44/27"	71
controllo_3	"POPTR_0008s15770.1"	546	"	"C/G"	"69,3/30,7"	"88/39"	127	stress_12bis	"POPTR_0008s15770.1"	546	"	"G/C"	"55,0/45,0"	"44/36"	80
controllo_3	"POPTR_0008s15770.1"	546	"	"C/G"	"69,3/30,7"	"88/39"	127	stress_42	"POPTR_0008s15770.1"	546	"	"C/G"	"70,5/29,5"	"31/13"	44
controllo_3	"POPTR_0008s15770.1"	546	"	"C/G"	"69,3/30,7"	"88/39"	127	stress_45	"POPTR_0008s15770.1"	546	"	"C/G"	"75,6/24,4"	"31/10"	41
controllo_3	"POPTR_0008s05470.1"	1698	"	"T/G"	"69,3/30,7"	"237/105"	342	stress_12bis	"POPTR_0008s05470.1"	1698	"	"T/G"	"74,5/25,5"	"35/12"	47
controllo_3	"POPTR_0008s05470.1"	1698	"	"T/G"	"69,3/30,7"	"237/105"	342	stress_42	"POPTR_0008s05470.1"	1698	"	"T/G"	"63,8/36,2"	"30/17"	47
controllo_3	"POPTR_0008s05470.1"	1698	"	"T/G"	"69,3/30,7"	"237/105"	342	stress_45	"POPTR_0008s05470.1"	1698	"	"T/G"	"73,9/26,1"	"65/23"	88
controllo_3	"POPTR_0012s08790.1"	195	"	"A/T"	"69,4/29,8"	"240/103"	346	stress_12bis	"POPTR_0012s08790.1"	195	"	"A/T"	"64,4/35,6"	"67/37"	104
controllo_3	"POPTR_0012s08790.1"	195	"	"A/T"	"69,4/29,8"	"240/103"	346	stress_42	"POPTR_0012s08790.1"	195	"	"A/T"	"58,4/41,6"	"45/32"	77
controllo_3	"POPTR_0012s08790.1"	195	"	"A/T"	"69,4/29,8"	"240/103"	346	stress_45	"POPTR_0012s08790.1"	195	"	"A/T"	"76,3/23,7"	"29/9"	38
controllo_3	"POPTR_0017s00850.1"	780	"	"C/T"	"69,4/30,6"	"134/59"	193	stress_12bis	"POPTR_0017s00850.1"	780	"	"C/T"	"70,6/23,5"	"12/4"	17
controllo_3	"POPTR_0017s00850.1"	780	"	"C/T"	"69,4/30,6"	"134/59"	193	stress_42	"POPTR_0017s00850.1"	780	"	"T/C"	"56,8/43,2"	"63/48"	111
controllo_3	"POPTR_0017s00850.1"	780	"	"C/T"	"69,4/30,6"	"134/59"	193	stress_45	"POPTR_0017s00850.1"	780	"	"C/T"	"52,8/46,3"	"65/57"	123
controllo_3	"POPTR_0012s08330.1"	156	"	"C/T"	"69,4/30,6"	"263/116"	379	stress_12bis	"POPTR_0012s08330.1"	156	"	"C/T"	"53,4/46,6"	"78/68"	146
controllo_3	"POPTR_0012s08330.1"	156	"	"C/T"	"69,4/30,6"	"263/116"	379	stress_42	"POPTR_0012s08330.1"	156	"	"C/T"	"71,6/28,4"	"63/25"	88
controllo_3	"POPTR_0012s08330.1"	156	"	"C/T"	"69,4/30,6"	"263/116"	379	stress_45	"POPTR_0012s08330.1"	156	"	"C/T"	"66,0/34,0"	"93/48"	141
controllo_3	"POPTR_0011s09370.1"	4545	"	"C/T"	"69,4/30,6"	"84/37"	121	stress_12bis	"POPTR_0011s09370.1"	4545	"	"T/C"	"60,0/40,0"	"18/12"	30
controllo_3	"POPTR_0011s09370.1"	4545	"	"C/T"	"69,4/30,6"	"84/37"	121	stress_42	"POPTR_0011s09370.1"	4545	"	"C/T"	"66,7/33,3"	"14/7"	21
controllo_3	"POPTR_0011s09370.1"	4545	"	"C/T"	"69,4/30,6"	"84/37"	121	stress_45	"POPTR_0011s09370.1"	4545	"	"C/T"	"69,2/30,8"	"18/8"	26
controllo_3	"POPTR_0004s01940.1"	426	"	"A/C"	"69,5/30,2"	"426/185"	613	stress_12bis	"POPTR_0004s01940.1"	426	"	"A/C"	"50,0/50,0"	"101/101"	202
controllo_3	"POPTR_0004s01940.1"	426	"	"A/C"	"69,5/30,2"	"426/185"	613	stress_42	"POPTR_0004s01940.1"	426	"	"C/A"	"76,6/23,4"	"59/18"	77
controllo_3	"POPTR_0004s01940.1"	426	"	"A/C"	"69,5/30,2"	"426/185"	613	stress_45	"POPTR_0004s01940.1"	426	"	"C/A"	"66,2/33,8"	"45/23"	68
controllo_3	"POPTR_0006s00780.1"	732	"	"G/A"	"69,5/30,5"	"89/39"	128	stress_12bis	"POPTR_0006s00780.1"	732	"	"G/A"	"57,1/42,9"	"12/9"	21
controllo_3	"POPTR_0003s02730.1"	1635	"	"T/C"	"69,5/30,5"	"82/36"	118	stress_12bis	"POPTR_0003s02730.1"	1635	"	"T/C"	"59,5/40,5"	"50/34"	84
controllo_3	"POPTR_0003s02730.1"	1635	"	"T/C"	"69,5/30,5"	"82/36"	118	stress_42	"POPTR_0003s02730.1"	1635	"	"T/C"	"63,6/36,4"	"28/16"	44
controllo_3	"POPTR_0003s02730.1"	1635	"	"T/C"	"69,5/30,5"	"82/36"	118	stress_45	"POPTR_0003s02730.1"	1635	"	"C/T"	"55,4/44,6"	"31/25"	56
controllo_3	"POPTR_0019s04970.1"	771	"	"C/A"	"69,5/30,5"	"73/32"	105	stress_12bis	"POPTR_0019s04970.1"	771	"	"C/A"	"75,0/25,0"	"30/10"	40
controllo_3	"POPTR_0014s13560.1"	1437	"	"T/C"	"69,5/30,5"	"312/137"	449	stress_12bis	"POPTR_0014s13560.1"	1437	"	"T/C"	"58,2/41,8"	"82/59"	141
controllo_3	"POPTR_0014s13560.1"	1437	"	"T/C"	"69,5/30,5"	"312/137"	449	stress_42	"POPTR_0014s13560.1"	1437	"	"T/C"	"67,4/32,6"	"64/31"	95
controllo_3	"POPTR_0014s13560.1"	1437	"	"T/C"	"69,5/30,5"	"312/137"	449	stress_45	"POPTR_0014s13560.1"	1437	"	"T/C"	"71,3/28,7"	"77/31"	108
controllo_3	"POPTR_0014s17610.1"	801	"	"A/G"	"69,5/30,5"	"73/32"	105	stress_12bis	"POPTR_0014s17610.1"	801	"	"A/G"	"62,5/37,5"	"25/15"	40
controllo_3	"POPTR_0014s17610.1"	801	"	"A/G"	"69,5/30,5"	"73/32"	105	stress_42	"POPTR_0014s17610.1"	801	"	"A/G"	"63,6/36,4"	"7/4"	11
controllo_3	"POPTR_0014s17610.1"	801	"	"A/G"	"69,5/30,5"	"73/32"	105	stress_45	"POPTR_0014s17610.1"	801	"	"A/G"	"65,2/34,8"	"15/8"	23
controllo_3	"POPTR_0011s17170.1"	381	"	"C/T"	"69,5/30,5"	"116/51"	167	stress_12bis	"POPTR_0011s17170.1"	381	"	"C/T"	"65,2/34,8"	"43/23"	66
controllo_3	"POPTR_0011s17170.1"	381	"	"C/T"	"69,5/30,5"	"116/51"	167	stress_42	"POPTR_0011s17170.1"	381	"	"C/T"	"56,0/44,0"	"14/11"	25
controllo_3	"POPTR_0011s17170.1"	381	"	"C/T"	"69,5/30,5"	"116/51"	167	stress_45	"POPTR_0011s17170.1"	381	"	"C/T"	"50,0/50,0"	"11/11"	22
controllo_3	"POPTR_0001s21340.1"	1785	"	"C/T"	"69,5/30,5"	"73/32"	105	stress_12bis	"POPTR_0001s21340.1"	1785	"	"C/T"	"58,1/41,9"	"18/13"	31
controllo_3	"POPTR_0001s21340.1"	1785	"	"C/T"	"69,5/30,5"	"73/32"	105	stress_42	"POPTR_0001s21340.1"	1785	"	"T/C"	"68,8/31,2"	"11/5"	16
controllo_3	"POPTR_0001s21340.1"	1785	"	"C/T"	"69,5/30,5"	"73/32"	105	stress_45	"POPTR_0001s21340.1"	1785	"	"C/T"	"56,2/43,8"	"9/7"	16
controllo_3	"POPTR_0001s07850.1"	1053	"	"A/G"	"69,5/30,5"	"132/58"	190	stress_12bis	"POPTR_0001s07850.1"	1053	"	"A/G"	"75,0/25,0"	"24/8"	32
controllo_3	"POPTR_0001s07850.1"	1053	"	"A/G"	"69,5/30,5"	"132/58"	190	stress_42	"POPTR_0001s07850.1"	1053	"	"A/G"	"75,9/24,1"	"41/13"	54
controllo_3	"POPTR_0001s07850.1"	1053	"	"A/G"	"69,5/30,5"	"132/58"	190	stress_45	"POPTR_0001s07850.1"	1053	"	"A/G"	"74,5/25,5"	"35/12"	47
controllo_3	"POPTR_0001s02040.1"	913	"	"T/C"	"69,5/30,5"	"107/47"	154	stress_12bis	"POPTR_0001s02040.1"	913	"	"T/C"	"70,4/29,6"	"50/21"	71
controllo_3	"POPTR_0001s02040.1"	913	"	"T/C"	"69,5/30,5"	"107/47"	154	stress_42	"POPTR_0001s02040.1"	913	"	"T/C"	"56,5/43,5"	"26/20"	46
controllo_3	"POPTR_0001s02040.1"	913	"	"T/C"	"69,5/30,5"	"107/47"	154	stress_45	"POPTR_0001s02040.1"	913	"	"T/C"	"56,6/43,4"	"30/23"	53
controllo_3	"POPTR_0004s14780.1"	207	"	"A/C"	"69,6/29,5"	"151/64"	217	stress_12bis	"POPTR_0004s14780.1"	207	"	"A/C"	"63,9/34,4"	"39/21"	61
controllo_3	"POPTR_0004s14780.1"	207	"	"A/C"	"69,6/29,5"	"151/64"	217	stress_42	"POPTR_0004s14780.1"	207	"	"A/C"	"56,7/36,7"	"17/11"	30
controllo_3	"POPTR_0004s14780.1"	207	"	"A/C"	"69,6/29,5"	"151/64"	217	stress_45	"POPTR_0004s14780.1"	207	"	"A/C"	"70,7/24,4"	"29/10"	41
controllo_3	"POPTR_0006s08850.1"	71	"	"G/A"	"69,6/30,4"	"261/114"	375	stress_12bis	"POPTR_0006s08850.1"	71	"	"G/A"	"69,6/30,4"	"71/31"	102
controllo_3	"POPTR_0006s08850.1"	71	"	"G/A"	"69,6/30,4"	"261/114"	375	stress_42	"POPTR_0006s08850.1"	71	"	"G/A"	"70,2/29,8"	"33/14"	47
controllo_3	"POPTR_0006s08850.1"	71	"	"G/A"	"69,6/30,4"	"261/114"	375	stress_45	"POPTR_0006s08850.1"	71	"	"G/A"	"76,9/23,1"	"40/12"	52
controllo_3	"POPTR_0004s16740.1"	974	"	"T/A"	"69,6/30,4"	"201/88"	289	stress_12bis	"POPTR_0004s16740.1"	974	"	"T/A"	"68,6/31,4"	"48/22"	70
controllo_3	"POPTR_0004s16740.1"	974	"	"T/A"	"69,6/30,4"	"201/88"	289	stress_42	"POPTR_0004s16740.1"	974	"	"T/A"	"58,5/41,5"	"69/49"	118
controllo_3	"POPTR_0004s16740.1"	974	"	"T/A"	"69,6/30,4"	"201/88"	289	stress_45	"POPTR_0004s16740.1"	974	"	"T/A"	"64,9/34,2"	"72/38"	111
controllo_3	"POPTR_0004s09910.1"	270	"	"T/G"	"69,6/30,4"	"8591/3747"	12341	stress_12bis	"POPTR_0004s09910.1"	270	"	"T/G"	"65,0/34,9"	"1503/808"	2313
controllo_3	"POPTR_0004s09910.1"	270	"	"T/G"	"69,6/30,4"	"8591/3747"	12341	stress_42	"POPTR_0004s09910.1"	270	"	"G/T"	"66,0/34,0"	"310/160"	470
controllo_3	"POPTR_0004s09910.1"	270	"	"T/G"	"69,6/30,4"	"8591/3747"	12341	stress_45	"POPTR_0004s09910.1"	270	"	"G/T"	"50,3/49,7"	"231/228"	459
controllo_3	"POPTR_0012s06320.1"	2784	"	"G/A"	"69,6/30,4"	"80/35"	115	stress_12bis	"POPTR_0012s06320.1"	2784	"	"A/G"	"52,6/47,4"	"20/18"	38
controllo_3	"POPTR_0012s06320.1"	2784	"	"G/A"	"69,6/30,4"	"80/35"	115	stress_42	"POPTR_0012s06320.1"	2784	"	"G/A"	"56,4/43,6"	"22/17"	39
controllo_3	"POPTR_0012s06320.1"	2784	"	"G/A"	"69,6/30,4"	"80/35"	115	stress_45	"POPTR_0012s06320.1"	2784	"	"G/A"	"60,0/40,0"	"42/28"	70
controllo_3	"POPTR_0010s26130.1"	813	"	"G/T"	"69,6/30,4"	"103/45"	148	stress_12bis	"POPTR_0010s26130.1"	813	"	"G/T"	"67,5/32,5"	"79/38"	117
controllo_3	"POPTR_0010s26130.1"	813	"	"G/T"	"69,6/30,4"	"103/45"	148	stress_42	"POPTR_0010s26130.1"	813	"	"G/T"	"50,0/50,0"	"7/7"	14
controllo_3	"POPTR_0010s26130.1"	813	"	"G/T"	"69,6/30,4"	"103/45"	148	stress_45	"POPTR_0010s26130.1"	813	"	"G/T"	"64,3/35,7"	"9/5"	14
controllo_3	"POPTR_0008s20870.1"	1416	"	"C/T"	"69,6/30,4"	"71/31"	102	stress_12bis	"POPTR_0008s20870.1"	1416	"	"C/T"	"72,7/27,3"	"16/6"	22
controllo_3	"POPTR_0008s20870.1"	1416	"	"C/T"	"69,6/30,4"	"71/31"	102	stress_42	"POPTR_0008s20870.1"	1416	"	"T/C"	"65,4/34,6"	"17/9"	26
controllo_3	"POPTR_0008s20870.1"	1416	"	"C/T"	"69,6/30,4"	"71/31"	102	stress_45	"POPTR_0008s20870.1"	1416	"	"T/C"	"57,1/42,9"	"20/15"	35
controllo_3	"POPTR_0005s04090.1"	188	"	"A/T"	"69,7/30,3"	"122/53"	175	stress_12bis	"POPTR_0005s04090.1"	188	"	"A/T"	"63,3/36,7"	"31/18"	49
controllo_3	"POPTR_0013s12970.1"	78	"	"T/C"	"69,7/30,3"	"83/36"	119	stress_12bis	"POPTR_0013s12970.1"	78	"	"T/C"	"73,5/26,5"	"36/13"	49
controllo_3	"POPTR_0013s12970.1"	78	"	"T/C"	"69,7/30,3"	"83/36"	119	stress_42	"POPTR_0013s12970.1"	78	"	"T/C"	"82,9/17,1"	"29/6"	35
controllo_3	"POPTR_0013s12970.1"	78	"	"T/C"	"69,7/30,3"	"83/36"	119	stress_45	"POPTR_0013s12970.1"	78	"	"T/C"	"80,0/20,0"	"24/6"	30
controllo_3	"POPTR_0013s00730.1"	504	"	"T/C"	"69,7/30,3"	"115/50"	165	stress_12bis	"POPTR_0013s00730.1"	504	"	"T/C"	"70,8/29,2"	"51/21"	72
controllo_3	"POPTR_0013s00730.1"	504	"	"T/C"	"69,7/30,3"	"115/50"	165	stress_42	"POPTR_0013s00730.1"	504	"	"T/C"	"66,7/33,3"	"20/10"	30
controllo_3	"POPTR_0013s00730.1"	504	"	"T/C"	"69,7/30,3"	"115/50"	165	stress_45	"POPTR_0013s00730.1"	504	"	"T/C"	"81,2/18,8"	"26/6"	32
controllo_3	"POPTR_0009s10780.1"	154	"	"A/G"	"69,7/30,3"	"85/37"	122	stress_12bis	"POPTR_0009s10780.1"	154	"	"A/G"	"68,8/31,2"	"11/5"	16
controllo_3	"POPTR_0012s04560.1"	370	"	"A/G"	"69,7/30,3"	"108/47"	155	stress_12bis	"POPTR_0012s04560.1"	370	"	"A/G"	"75,9/24,1"	"41/13"	54
controllo_3	"POPTR_0012s04560.1"	370	"	"A/G"	"69,7/30,3"	"108/47"	155	stress_42	"POPTR_0012s04560.1"	370	"	"A/G"	"85,0/15,0"	"17/3"	20
controllo_3	"POPTR_0012s04560.1"	370	"	"A/G"	"69,7/30,3"	"108/47"	155	stress_45	"POPTR_0012s04560.1"	370	"	"A/G"	"77,8/22,2"	"21/6"	27
controllo_3	"POPTR_0008s20770.1"	324	"	"C/T"	"69,7/30,3"	"255/111"	366	stress_12bis	"POPTR_0008s20770.1"	324	"	"C/T"	"58,1/41,9"	"108/78"	186
controllo_3	"POPTR_0008s20770.1"	324	"	"C/T"	"69,7/30,3"	"255/111"	366	stress_42	"POPTR_0008s20770.1"	324	"	"T/C"	"50,7/49,3"	"69/67"	136
controllo_3	"POPTR_0008s20770.1"	324	"	"C/T"	"69,7/30,3"	"255/111"	366	stress_45	"POPTR_0008s20770.1"	324	"	"T/C"	"50,8/49,2"	"98/95"	193
controllo_3	"POPTR_0016s03230.1"	821	"	"A/G"	"69,7/30,3"	"122/53"	175	stress_12bis	"POPTR_0016s03230.1"	821	"	"A/G"	"68,2/31,2"	"107/49"	157
controllo_3	"POPTR_0016s03230.1"	821	"	"A/G"	"69,7/30,3"	"122/53"	175	stress_42	"POPTR_0016s03230.1"	821	"	"A/G"	"69,1/30,9"	"38/17"	55
controllo_3	"POPTR_0016s03230.1"	821	"	"A/G"	"69,7/30,3"	"122/53"	175	stress_45	"POPTR_0016s03230.1"	821	"	"A/G"	"58,7/41,3"	"27/19"	46
controllo_3	"POPTR_0019s14050.1"	96	"	"A/G"	"69,8/30,2"	"74/32"	106	stress_12bis	"POPTR_0019s14050.1"	96	"	"A/G"	"59,3/40,7"	"16/11"	27
controllo_3	"POPTR_0019s14050.1"	96	"	"A/G"	"69,8/30,2"	"74/32"	106	stress_42	"POPTR_0019s14050.1"	96	"	"A/G"	"72,7/27,3"	"8/3"	11
controllo_3	"POPTR_0004s23490.1"	676	"	"G/A"	"69,8/30,2"	"81/35"	116	stress_12bis	"POPTR_0004s23490.1"	676	"	"G/A"	"60,5/39,5"	"23/15"	38
controllo_3	"POPTR_0004s23490.1"	676	"	"G/A"	"69,8/30,2"	"81/35"	116	stress_42	"POPTR_0004s23490.1"	676	"	"G/A"	"63,3/36,7"	"19/11"	30
controllo_3	"POPTR_0004s23490.1"	676	"	"G/A"	"69,8/30,2"	"81/35"	116	stress_45	"POPTR_0004s23490.1"	676	"	"G/A"	"77,8/22,2"	"35/10"	45
controllo_3	"POPTR_0011s05250.1"	1611	"	"C/G"	"69,8/30,2"	"60/26"	86	stress_45	"POPTR_0011s05250.1"	1611	"	"C/G"	"60,4/39,6"	"81/53"	134
controllo_3	"POPTR_0016s00260.1"	861	"	"C/T"	"69,8/30,2"	"74/32"	106	stress_12bis	"POPTR_0016s00260.1"	861	"	"C/T"	"75,0/25,0"	"9/3"	12
controllo_3	"POPTR_0006s23580.1"	470	"	"G/C"	"69,9/30,1"	"151/65"	216	stress_12bis	"POPTR_0006s23580.1"	470	"	"G/C"	"71,2/28,8"	"37/15"	52
controllo_3	"POPTR_0006s23580.1"	470	"	"G/C"	"69,9/30,1"	"151/65"	216	stress_42	"POPTR_0006s23580.1"	470	"	"G/C"	"55,7/44,3"	"68/54"	122
controllo_3	"POPTR_0006s23580.1"	470	"	"G/C"	"69,9/30,1"	"151/65"	216	stress_45	"POPTR_0006s23580.1"	470	"	"G/C"	"58,9/41,1"	"86/60"	146
controllo_3	"POPTR_0006s16030.1"	193	"	"A/C"	"69,9/30,1"	"128/55"	183	stress_42	"POPTR_0006s16030.1"	193	"	"A/C"	"80,0/20,0"	"8/2"	10
controllo_3	"POPTR_0006s16030.1"	193	"	"A/C"	"69,9/30,1"	"128/55"	183	stress_45	"POPTR_0006s16030.1"	193	"	"A/C"	"66,7/33,3"	"10/5"	15
controllo_3	"POPTR_0018s11820.1"	96	"	"T/C"	"69,9/30,1"	"188/81"	269	stress_12bis	"POPTR_0018s11820.1"	96	"	"T/C"	"59,5/40,5"	"47/32"	79
controllo_3	"POPTR_0018s11820.1"	96	"	"T/C"	"69,9/30,1"	"188/81"	269	stress_42	"POPTR_0018s11820.1"	96	"	"T/C"	"63,6/36,4"	"7/4"	11
controllo_3	"POPTR_0013s14520.1"	76	"	"G/C"	"69,9/30,1"	"137/59"	196	stress_12bis	"POPTR_0013s14520.1"	76	"	"G/C"	"67,1/32,9"	"47/23"	70
controllo_3	"POPTR_0012s08780.1"	138	"	"G/A"	"69,9/30,1"	"228/98"	326	stress_12bis	"POPTR_0012s08780.1"	138	"	"G/A"	"76,4/23,6"	"68/21"	89
controllo_3	"POPTR_0012s08780.1"	138	"	"G/A"	"69,9/30,1"	"228/98"	326	stress_42	"POPTR_0012s08780.1"	138	"	"G/A"	"70,7/29,3"	"41/17"	58
controllo_3	"POPTR_0012s08780.1"	138	"	"G/A"	"69,9/30,1"	"228/98"	326	stress_45	"POPTR_0012s08780.1"	138	"	"G/A"	"75,0/25,0"	"24/8"	32
controllo_3	"POPTR_0001s25760.1"	276	"	"C/T"	"69,9/30,1"	"107/46"	153	stress_12bis	"POPTR_0001s25760.1"	276	"	"C/T"	"71,9/28,1"	"23/9"	32
controllo_3	"POPTR_0001s25760.1"	276	"	"C/T"	"69,9/30,1"	"107/46"	153	stress_42	"POPTR_0001s25760.1"	276	"	"C/T"	"72,7/27,3"	"8/3"	11
controllo_3	"POPTR_0001s25760.1"	276	"	"C/T"	"69,9/30,1"	"107/46"	153	stress_45	"POPTR_0001s25760.1"	276	"	"C/T"	"54,5/45,5"	"18/15"	33
controllo_3	"POPTR_0001s25760.1"	1071	"	"A/G"	"69,9/30,1"	"107/46"	153	stress_12bis	"POPTR_0001s25760.1"	1071	"	"A/G"	"70,8/29,2"	"17/7"	24
controllo_3	"POPTR_0001s25760.1"	1071	"	"A/G"	"69,9/30,1"	"107/46"	153	stress_42	"POPTR_0001s25760.1"	1071	"	"A/G"	"77,3/22,7"	"17/5"	22
controllo_3	"POPTR_0001s25760.1"	1071	"	"A/G"	"69,9/30,1"	"107/46"	153	stress_45	"POPTR_0001s25760.1"	1071	"	"A/G"	"62,5/37,5"	"20/12"	32
controllo_3	"POPTR_0005s25290.1"	267	"	"T/C"	"70,0/30,0"	"98/42"	140	stress_12bis	"POPTR_0005s25290.1"	267	"	"T/C"	"67,7/32,3"	"21/10"	31
controllo_3	"POPTR_0005s25290.1"	267	"	"T/C"	"70,0/30,0"	"98/42"	140	stress_45	"POPTR_0005s25290.1"	267	"	"T/C"	"82,4/17,6"	"14/3"	17
controllo_3	"POPTR_0004s07620.1"	558	"	"G/A"	"70,0/30,0"	"105/45"	150	stress_12bis	"POPTR_0004s07620.1"	558	"	"G/A"	"73,1/26,9"	"57/21"	78
controllo_3	"POPTR_0004s07620.1"	558	"	"G/A"	"70,0/30,0"	"105/45"	150	stress_42	"POPTR_0004s07620.1"	558	"	"G/A"	"70,3/29,7"	"45/19"	64
controllo_3	"POPTR_0004s07620.1"	558	"	"G/A"	"70,0/30,0"	"105/45"	150	stress_45	"POPTR_0004s07620.1"	558	"	"G/A"	"62,0/38,0"	"44/27"	71
controllo_3	"POPTR_0004s15440.1"	135	"	"C/T"	"70,0/30,0"	"156/67"	223	stress_12bis	"POPTR_0004s15440.1"	135	"	"C/T"	"68,4/31,6"	"39/18"	57
controllo_3	"POPTR_0004s15440.1"	135	"	"C/T"	"70,0/30,0"	"156/67"	223	stress_42	"POPTR_0004s15440.1"	135	"	"C/T"	"79,2/20,8"	"19/5"	24
controllo_3	"POPTR_0004s15440.1"	135	"	"C/T"	"70,0/30,0"	"156/67"	223	stress_45	"POPTR_0004s15440.1"	135	"	"C/T"	"60,0/40,0"	"9/6"	15
controllo_3	"POPTR_0009s09710.1"	1279	"	"T/G"	"70,0/30,0"	"198/85"	283	stress_12bis	"POPTR_0009s09710.1"	1279	"	"T/G"	"73,7/26,3"	"126/45"	171
controllo_3	"POPTR_0009s09710.1"	1279	"	"T/G"	"70,0/30,0"	"198/85"	283	stress_42	"POPTR_0009s09710.1"	1279	"	"T/G"	"76,8/23,2"	"63/19"	82
controllo_3	"POPTR_0009s09710.1"	1279	"	"T/G"	"70,0/30,0"	"198/85"	283	stress_45	"POPTR_0009s09710.1"	1279	"	"T/G"	"68,4/30,3"	"52/23"	76
controllo_3	"POPTR_0001s26210.1"	565	"	"G/A"	"70,0/30,0"	"7/3"	10	stress_45	"POPTR_0001s26210.1"	565	"	"G/A"	"82,2/17,8"	"97/21"	118
controllo_3	"POPTR_0001s35230.1"	345	"	"A/G"	"70,0/30,0"	"375/161"	536	stress_12bis	"POPTR_0001s35230.1"	345	"	"A/G"	"73,8/26,2"	"104/37"	141
controllo_3	"POPTR_0001s35230.1"	345	"	"A/G"	"70,0/30,0"	"375/161"	536	stress_42	"POPTR_0001s35230.1"	345	"	"A/G"	"50,7/49,3"	"37/36"	73
controllo_3	"POPTR_0001s35230.1"	345	"	"A/G"	"70,0/30,0"	"375/161"	536	stress_45	"POPTR_0001s35230.1"	345	"	"A/G"	"69,7/30,3"	"69/30"	99
controllo_3	"POPTR_0010s07730.1"	264	"	"C/T"	"70,0/30,0"	"402/172"	574	stress_12bis	"POPTR_0010s07730.1"	264	"	"C/T"	"71,8/28,2"	"163/64"	227
controllo_3	"POPTR_0010s07730.1"	264	"	"C/T"	"70,0/30,0"	"402/172"	574	stress_42	"POPTR_0010s07730.1"	264	"	"C/T"	"72,5/27,5"	"79/30"	109
controllo_3	"POPTR_0010s07730.1"	264	"	"C/T"	"70,0/30,0"	"402/172"	574	stress_45	"POPTR_0010s07730.1"	264	"	"C/T"	"65,5/34,5"	"57/30"	87
controllo_3	"POPTR_0010s21350.1"	1895	"	"C/T"	"70,0/30,0"	"152/65"	217	stress_12bis	"POPTR_0010s21350.1"	1895	"	"C/T"	"64,7/35,3"	"33/18"	51
controllo_3	"POPTR_0010s21350.1"	1895	"	"C/T"	"70,0/30,0"	"152/65"	217	stress_42	"POPTR_0010s21350.1"	1895	"	"T/C"	"59,3/40,7"	"16/11"	27
controllo_3	"POPTR_0010s21350.1"	1895	"	"C/T"	"70,0/30,0"	"152/65"	217	stress_45	"POPTR_0010s21350.1"	1895	"	"C/T"	"62,1/37,9"	"18/11"	29
controllo_3	"POPTR_0008s13780.1"	777	"	"T/G"	"70,0/30,0"	"126/54"	180	stress_12bis	"POPTR_0008s13780.1"	777	"	"T/G"	"67,7/32,3"	"21/10"	31
controllo_3	"POPTR_0008s13780.1"	777	"	"T/G"	"70,0/30,0"	"126/54"	180	stress_42	"POPTR_0008s13780.1"	777	"	"T/G"	"58,8/41,2"	"10/7"	17
controllo_3	"POPTR_0008s13780.1"	777	"	"T/G"	"70,0/30,0"	"126/54"	180	stress_45	"POPTR_0008s13780.1"	777	"	"T/G"	"75,0/25,0"	"12/4"	16
controllo_3	"POPTR_0008s20770.1"	237	"	"T/C"	"70,0/30,0"	"98/42"	140	stress_12bis	"POPTR_0008s20770.1"	237	"	"T/C"	"70,7/29,3"	"53/22"	75
controllo_3	"POPTR_0008s20770.1"	237	"	"T/C"	"70,0/30,0"	"98/42"	140	stress_42	"POPTR_0008s20770.1"	237	"	"C/T"	"52,9/47,1"	"18/16"	34
controllo_3	"POPTR_0008s20770.1"	237	"	"T/C"	"70,0/30,0"	"98/42"	140	stress_45	"POPTR_0008s20770.1"	237	"	"T/C"	"53,3/46,7"	"24/21"	45
controllo_3	"POPTR_0008s20870.1"	1266	"	"C/T"	"70,1/29,0"	"75/31"	107	stress_12bis	"POPTR_0008s20870.1"	1266	"	"C/T"	"56,2/43,8"	"9/7"	16
controllo_3	"POPTR_0008s20870.1"	1266	"	"C/T"	"70,1/29,0"	"75/31"	107	stress_42	"POPTR_0008s20870.1"	1266	"	"T/C"	"66,7/33,3"	"10/5"	15
controllo_3	"POPTR_0008s20870.1"	1266	"	"C/T"	"70,1/29,0"	"75/31"	107	stress_45	"POPTR_0008s20870.1"	1266	"	"T/C"	"72,7/27,3"	"16/6"	22
controllo_3	"POPTR_0008s19370.1"	720	"	"G/C"	"70,1/29,8"	"1379/585"	1966	stress_12bis	"POPTR_0008s19370.1"	720	"	"G/C"	"72,7/27,3"	"740/278"	1018
controllo_3	"POPTR_0008s19370.1"	720	"	"G/C"	"70,1/29,8"	"1379/585"	1966	stress_42	"POPTR_0008s19370.1"	720	"	"G/C"	"77,3/22,7"	"68/20"	88
controllo_3	"POPTR_0006s24770.1"	687	"	"G/C"	"70,1/29,9"	"103/44"	147	stress_12bis	"POPTR_0006s24770.1"	687	"	"G/C"	"64,6/35,4"	"51/28"	79
controllo_3	"POPTR_0006s24770.1"	687	"	"G/C"	"70,1/29,9"	"103/44"	147	stress_42	"POPTR_0006s24770.1"	687	"	"G/C"	"63,2/36,8"	"48/28"	76
controllo_3	"POPTR_0006s24770.1"	687	"	"G/C"	"70,1/29,9"	"103/44"	147	stress_45	"POPTR_0006s24770.1"	687	"	"G/C"	"69,9/30,1"	"65/28"	93
controllo_3	"POPTR_0013s03700.1"	393	"	"C/T"	"70,1/29,9"	"115/49"	164	stress_12bis	"POPTR_0013s03700.1"	393	"	"C/T"	"71,4/28,6"	"35/14"	49
controllo_3	"POPTR_0013s03700.1"	393	"	"C/T"	"70,1/29,9"	"115/49"	164	stress_42	"POPTR_0013s03700.1"	393	"	"T/C"	"55,0/45,0"	"11/9"	20
controllo_3	"POPTR_0013s03700.1"	393	"	"C/T"	"70,1/29,9"	"115/49"	164	stress_45	"POPTR_0013s03700.1"	393	"	"C/T"	"64,0/36,0"	"16/9"	25
controllo_3	"POPTR_0014s11000.1"	543	"	"T/C"	"70,1/29,9"	"75/32"	107	stress_12bis	"POPTR_0014s11000.1"	543	"	"T/C"	"68,8/31,2"	"11/5"	16
controllo_3	"POPTR_0014s11000.1"	543	"	"T/C"	"70,1/29,9"	"75/32"	107	stress_42	"POPTR_0014s11000.1"	543	"	"C/T"	"63,2/36,8"	"12/7"	19
controllo_3	"POPTR_0014s11000.1"	543	"	"T/C"	"70,1/29,9"	"75/32"	107	stress_45	"POPTR_0014s11000.1"	543	"	"T/C"	"59,1/40,9"	"13/9"	22
controllo_3	"POPTR_0004s14780.1"	199	"	"A/G"	"70,1/29,9"	"148/63"	211	stress_12bis	"POPTR_0004s14780.1"	199	"	"A/G"	"61,8/38,2"	"47/29"	76
controllo_3	"POPTR_0004s14780.1"	199	"	"A/G"	"70,1/29,9"	"148/63"	211	stress_42	"POPTR_0004s14780.1"	199	"	"A/G"	"61,1/38,9"	"22/14"	36
controllo_3	"POPTR_0004s14780.1"	199	"	"A/G"	"70,1/29,9"	"148/63"	211	stress_45	"POPTR_0004s14780.1"	199	"	"A/G"	"60,0/40,0"	"30/20"	50
controllo_3	"POPTR_0001s27480.1"	918	"	"C/T"	"70,1/29,9"	"75/32"	107	stress_12bis	"POPTR_0001s27480.1"	918	"	"C/T"	"54,2/45,8"	"13/11"	24
controllo_3	"POPTR_0001s27480.1"	918	"	"C/T"	"70,1/29,9"	"75/32"	107	stress_42	"POPTR_0001s27480.1"	918	"	"C/T"	"69,5/30,5"	"41/18"	59
controllo_3	"POPTR_0001s27480.1"	918	"	"C/T"	"70,1/29,9"	"75/32"	107	stress_45	"POPTR_0001s27480.1"	918	"	"C/T"	"58,1/41,9"	"43/31"	74
controllo_3	"POPTR_0010s19930.1"	415	"	"C/G"	"70,1/29,9"	"103/44"	147	stress_42	"POPTR_0010s19930.1"	415	"	"C/G"	"83,7/16,3"	"103/20"	123
controllo_3	"POPTR_0010s11780.1"	288	"	"T/C"	"70,1/29,9"	"96/41"	137	stress_42	"POPTR_0010s11780.1"	288	"	"T/C"	"64,4/35,6"	"38/21"	59
controllo_3	"POPTR_0010s11780.1"	288	"	"T/C"	"70,1/29,9"	"96/41"	137	stress_45	"POPTR_0010s11780.1"	288	"	"T/C"	"69,0/31,0"	"69/31"	100
controllo_3	"POPTR_0008s20770.1"	555	"	"C/A"	"70,1/29,9"	"89/38"	127	stress_12bis	"POPTR_0008s20770.1"	555	"	"C/A"	"61,4/38,6"	"27/17"	44
controllo_3	"POPTR_0008s20770.1"	555	"	"C/A"	"70,1/29,9"	"89/38"	127	stress_42	"POPTR_0008s20770.1"	555	"	"A/C"	"70,3/27,0"	"26/10"	37
controllo_3	"POPTR_0008s20770.1"	555	"	"C/A"	"70,1/29,9"	"89/38"	127	stress_45	"POPTR_0008s20770.1"	555	"	"A/C"	"63,4/36,6"	"26/15"	41
controllo_3	"POPTR_0009s06530.1"	828	"	"G/C"	"70,2/28,8"	"73/30"	104	stress_12bis	"POPTR_0009s06530.1"	828	"	"G/C"	"80,0/20,0"	"24/6"	30
controllo_3	"POPTR_0009s06530.1"	828	"	"G/C"	"70,2/28,8"	"73/30"	104	stress_42	"POPTR_0009s06530.1"	828	"	"C/G"	"66,7/33,3"	"8/4"	12
controllo_3	"POPTR_0009s06530.1"	828	"	"G/C"	"70,2/28,8"	"73/30"	104	stress_45	"POPTR_0009s06530.1"	828	"	"G/C"	"69,2/30,8"	"9/4"	13
controllo_3	"POPTR_0008s05640.1"	516	"	"A/C"	"70,2/29,2"	"118/49"	168	stress_12bis	"POPTR_0008s05640.1"	516	"	"A/C"	"59,3/40,7"	"16/11"	27
controllo_3	"POPTR_0008s05640.1"	516	"	"A/C"	"70,2/29,2"	"118/49"	168	stress_42	"POPTR_0008s05640.1"	516	"	"A/C"	"60,6/39,4"	"20/13"	33
controllo_3	"POPTR_0008s05640.1"	516	"	"A/C"	"70,2/29,2"	"118/49"	168	stress_45	"POPTR_0008s05640.1"	516	"	"A/C"	"50,0/50,0"	"17/17"	34
controllo_3	"POPTR_0005s17740.1"	633	"	"C/T"	"70,2/29,8"	"125/53"	178	stress_12bis	"POPTR_0005s17740.1"	633	"	"C/T"	"64,4/35,6"	"29/16"	45
controllo_3	"POPTR_0005s17740.1"	633	"	"C/T"	"70,2/29,8"	"125/53"	178	stress_42	"POPTR_0005s17740.1"	633	"	"C/T"	"71,4/28,6"	"30/12"	42
controllo_3	"POPTR_0005s17740.1"	633	"	"C/T"	"70,2/29,8"	"125/53"	178	stress_45	"POPTR_0005s17740.1"	633	"	"C/T"	"69,8/30,2"	"44/19"	63
controllo_3	"POPTR_0018s09380.1"	843	"	"T/C"	"70,2/29,8"	"73/31"	104	stress_12bis	"POPTR_0018s09380.1"	843	"	"T/C"	"74,1/25,9"	"20/7"	27
controllo_3	"POPTR_0018s09380.1"	843	"	"T/C"	"70,2/29,8"	"73/31"	104	stress_42	"POPTR_0018s09380.1"	843	"	"T/C"	"72,1/27,9"	"31/12"	43
controllo_3	"POPTR_0018s09380.1"	843	"	"T/C"	"70,2/29,8"	"73/31"	104	stress_45	"POPTR_0018s09380.1"	843	"	"C/T"	"50,6/49,4"	"39/38"	77
controllo_3	"POPTR_0003s06370.1"	547	"	"T/C"	"70,2/29,8"	"309/131"	440	stress_12bis	"POPTR_0003s06370.1"	547	"	"T/C"	"73,5/26,5"	"25/9"	34
controllo_3	"POPTR_0003s09830.1"	702	"	"G/A"	"70,2/29,8"	"461/196"	657	stress_12bis	"POPTR_0003s09830.1"	702	"	"G/A"	"73,2/26,8"	"115/42"	157
controllo_3	"POPTR_0003s09830.1"	702	"	"G/A"	"70,2/29,8"	"461/196"	657	stress_42	"POPTR_0003s09830.1"	702	"	"G/A"	"70,8/29,2"	"17/7"	24
controllo_3	"POPTR_0003s09830.1"	702	"	"G/A"	"70,2/29,8"	"461/196"	657	stress_45	"POPTR_0003s09830.1"	702	"	"G/A"	"70,0/30,0"	"28/12"	40
controllo_3	"POPTR_0013s05900.1"	194	"	"T/C"	"70,2/29,8"	"73/31"	104	stress_12bis	"POPTR_0013s05900.1"	194	"	"T/C"	"83,0/17,0"	"39/8"	47
controllo_3	"POPTR_0013s05900.1"	194	"	"T/C"	"70,2/29,8"	"73/31"	104	stress_45	"POPTR_0013s05900.1"	194	"	"T/C"	"76,2/23,8"	"16/5"	21
controllo_3	"POPTR_0004s08500.1"	43	"	"G/A"	"70,2/29,8"	"59/25"	84	stress_12bis	"POPTR_0004s08500.1"	43	"	"A/G"	"76,9/23,1"	"93/28"	121
controllo_3	"POPTR_0012s09570.1"	753	"	"T/C"	"70,2/29,8"	"212/90"	302	stress_12bis	"POPTR_0012s09570.1"	753	"	"T/C"	"68,6/31,4"	"35/16"	51
controllo_3	"POPTR_0012s09570.1"	753	"	"T/C"	"70,2/29,8"	"212/90"	302	stress_42	"POPTR_0012s09570.1"	753	"	"T/C"	"80,0/20,0"	"48/12"	60
controllo_3	"POPTR_0012s09570.1"	753	"	"T/C"	"70,2/29,8"	"212/90"	302	stress_45	"POPTR_0012s09570.1"	753	"	"T/C"	"60,2/39,8"	"71/47"	118
controllo_3	"POPTR_0011s17170.1"	297	"	"T/C"	"70,2/29,8"	"515/219"	734	stress_12bis	"POPTR_0011s17170.1"	297	"	"T/C"	"66,4/33,6"	"156/79"	235
controllo_3	"POPTR_0011s17170.1"	297	"	"T/C"	"70,2/29,8"	"515/219"	734	stress_42	"POPTR_0011s17170.1"	297	"	"T/C"	"72,4/27,6"	"55/21"	76
controllo_3	"POPTR_0011s17170.1"	297	"	"T/C"	"70,2/29,8"	"515/219"	734	stress_45	"POPTR_0011s17170.1"	297	"	"T/C"	"69,5/30,5"	"57/25"	82
controllo_3	"POPTR_0010s21270.1"	957	"	"T/C"	"70,2/29,8"	"179/76"	255	stress_12bis	"POPTR_0010s21270.1"	957	"	"T/C"	"74,3/25,7"	"81/28"	109
controllo_3	"POPTR_0010s21270.1"	957	"	"T/C"	"70,2/29,8"	"179/76"	255	stress_42	"POPTR_0010s21270.1"	957	"	"T/C"	"78,1/21,9"	"25/7"	32
controllo_3	"POPTR_0010s21270.1"	957	"	"T/C"	"70,2/29,8"	"179/76"	255	stress_45	"POPTR_0010s21270.1"	957	"	"T/C"	"74,2/25,8"	"69/24"	93
controllo_3	"POPTR_0007s08400.1"	1578	"	"A/G"	"70,2/29,8"	"73/31"	104	stress_12bis	"POPTR_0007s08400.1"	1578	"	"A/G"	"71,0/29,0"	"22/9"	31
controllo_3	"POPTR_0007s08400.1"	1578	"	"A/G"	"70,2/29,8"	"73/31"	104	stress_42	"POPTR_0007s08400.1"	1578	"	"A/G"	"65,5/34,5"	"19/10"	29
controllo_3	"POPTR_0007s08400.1"	1578	"	"A/G"	"70,2/29,8"	"73/31"	104	stress_45	"POPTR_0007s08400.1"	1578	"	"A/G"	"65,6/34,4"	"61/32"	93
controllo_3	"POPTR_0007s13800.1"	660	"	"C/A"	"70,2/29,8"	"125/53"	178	stress_12bis	"POPTR_0007s13800.1"	660	"	"C/A"	"64,3/35,7"	"27/15"	42
controllo_3	"POPTR_0002s14730.1"	601	"	"A/G"	"70,2/29,8"	"458/194"	652	stress_12bis	"POPTR_0002s14730.1"	601	"	"A/G"	"68,7/31,3"	"125/57"	182
controllo_3	"POPTR_0002s14730.1"	601	"	"A/G"	"70,2/29,8"	"458/194"	652	stress_42	"POPTR_0002s14730.1"	601	"	"G/A"	"77,2/22,8"	"44/13"	57
controllo_3	"POPTR_0002s14730.1"	601	"	"A/G"	"70,2/29,8"	"458/194"	652	stress_45	"POPTR_0002s14730.1"	601	"	"G/A"	"70,8/29,2"	"75/31"	106
controllo_3	"POPTR_0018s01830.1"	278	"	"T/C"	"70,3/29,7"	"408/172"	580	stress_12bis	"POPTR_0018s01830.1"	278	"	"T/C"	"72,8/27,2"	"123/46"	169
controllo_3	"POPTR_0018s01830.1"	278	"	"T/C"	"70,3/29,7"	"408/172"	580	stress_42	"POPTR_0018s01830.1"	278	"	"C/T"	"50,9/49,1"	"27/26"	53
controllo_3	"POPTR_0018s01830.1"	278	"	"T/C"	"70,3/29,7"	"408/172"	580	stress_45	"POPTR_0018s01830.1"	278	"	"C/T"	"54,3/45,7"	"38/32"	70
controllo_3	"POPTR_0018s09810.1"	1281	"	"T/C"	"70,3/29,7"	"78/33"	111	stress_12bis	"POPTR_0018s09810.1"	1281	"	"T/C"	"62,5/37,5"	"20/12"	32
controllo_3	"POPTR_0018s09810.1"	1281	"	"T/C"	"70,3/29,7"	"78/33"	111	stress_42	"POPTR_0018s09810.1"	1281	"	"T/C"	"53,8/46,2"	"7/6"	13
controllo_3	"POPTR_0018s09810.1"	1281	"	"T/C"	"70,3/29,7"	"78/33"	111	stress_45	"POPTR_0018s09810.1"	1281	"	"T/C"	"60,0/40,0"	"12/8"	20
controllo_3	"POPTR_0004s03160.1"	673	"	"T/A"	"70,3/29,7"	"192/81"	273	stress_12bis	"POPTR_0004s03160.1"	673	"	"T/A"	"56,1/43,9"	"32/25"	57
controllo_3	"POPTR_0002s18500.1"	78	"	"G/A"	"70,3/29,7"	"71/30"	101	stress_42	"POPTR_0002s18500.1"	78	"	"G/A"	"72,5/27,5"	"66/25"	91
controllo_3	"POPTR_0002s18500.1"	78	"	"G/A"	"70,3/29,7"	"71/30"	101	stress_45	"POPTR_0002s18500.1"	78	"	"G/A"	"67,2/32,8"	"78/38"	116
controllo_3	"POPTR_0002s04790.1"	120	"	"A/G"	"70,3/29,7"	"71/30"	101	stress_12bis	"POPTR_0002s04790.1"	120	"	"A/G"	"60,7/39,3"	"17/11"	28
controllo_3	"POPTR_0002s14730.1"	75	"	"C/T"	"70,3/29,7"	"199/84"	283	stress_12bis	"POPTR_0002s14730.1"	75	"	"C/T"	"79,7/20,3"	"51/13"	64
controllo_3	"POPTR_0002s14730.1"	75	"	"C/T"	"70,3/29,7"	"199/84"	283	stress_45	"POPTR_0002s14730.1"	75	"	"C/T"	"75,0/25,0"	"9/3"	12
controllo_3	"POPTR_0002s19060.1"	1201	"	"A/G"	"70,3/29,7"	"52/22"	74	stress_42	"POPTR_0002s19060.1"	1201	"	"G/A"	"52,9/47,1"	"54/48"	102
controllo_3	"POPTR_0002s19060.1"	1201	"	"A/G"	"70,3/29,7"	"52/22"	74	stress_45	"POPTR_0002s19060.1"	1201	"	"A/G"	"50,8/49,2"	"63/61"	124
controllo_3	"POPTR_0008s15780.1"	369	"	"C/G"	"70,3/29,7"	"395/167"	562	stress_12bis	"POPTR_0008s15780.1"	369	"	"C/G"	"65,4/34,6"	"142/75"	217
controllo_3	"POPTR_0008s15780.1"	369	"	"C/G"	"70,3/29,7"	"395/167"	562	stress_42	"POPTR_0008s15780.1"	369	"	"C/G"	"65,6/34,4"	"198/104"	302
controllo_3	"POPTR_0008s15780.1"	369	"	"C/G"	"70,3/29,7"	"395/167"	562	stress_45	"POPTR_0008s15780.1"	369	"	"C/G"	"77,6/22,4"	"180/52"	232
controllo_3	"POPTR_0005s10850.1"	521	"	"G/A"	"70,4/29,6"	"88/37"	125	stress_12bis	"POPTR_0005s10850.1"	521	"	"G/A"	"62,0/38,0"	"31/19"	50
controllo_3	"POPTR_0005s10850.1"	521	"	"G/A"	"70,4/29,6"	"88/37"	125	stress_42	"POPTR_0005s10850.1"	521	"	"G/A"	"52,9/47,1"	"9/8"	17
controllo_3	"POPTR_0005s10850.1"	521	"	"G/A"	"70,4/29,6"	"88/37"	125	stress_45	"POPTR_0005s10850.1"	521	"	"A/G"	"60,0/40,0"	"9/6"	15
controllo_3	"POPTR_0006s24520.1"	431	"	"A/G"	"70,4/29,6"	"131/55"	186	stress_12bis	"POPTR_0006s24520.1"	431	"	"A/G"	"51,9/48,1"	"14/13"	27
controllo_3	"POPTR_0004s16740.1"	498	"	"A/G"	"70,4/29,6"	"162/68"	230	stress_12bis	"POPTR_0004s16740.1"	498	"	"A/G"	"61,4/38,6"	"35/22"	57
controllo_3	"POPTR_0004s16740.1"	498	"	"A/G"	"70,4/29,6"	"162/68"	230	stress_42	"POPTR_0004s16740.1"	498	"	"A/G"	"57,8/42,2"	"37/27"	64
controllo_3	"POPTR_0004s16740.1"	498	"	"A/G"	"70,4/29,6"	"162/68"	230	stress_45	"POPTR_0004s16740.1"	498	"	"A/G"	"66,3/33,7"	"55/28"	83
controllo_3	"POPTR_0002s15840.1"	476	"	"T/G"	"70,5/28,7"	"86/35"	122	stress_12bis	"POPTR_0002s15840.1"	476	"	"T/G"	"78,0/22,0"	"32/9"	41
controllo_3	"POPTR_0005s17740.1"	243	"	"G/A"	"70,5/28,9"	"122/50"	173	stress_12bis	"POPTR_0005s17740.1"	243	"	"G/A"	"72,3/27,7"	"34/13"	47
controllo_3	"POPTR_0005s17740.1"	243	"	"G/A"	"70,5/28,9"	"122/50"	173	stress_42	"POPTR_0005s17740.1"	243	"	"G/A"	"76,7/23,3"	"23/7"	30
controllo_3	"POPTR_0005s17740.1"	243	"	"G/A"	"70,5/28,9"	"122/50"	173	stress_45	"POPTR_0005s17740.1"	243	"	"G/A"	"74,6/25,4"	"44/15"	59
controllo_3	"POPTR_0014s13560.1"	1482	"	"T/A"	"70,5/29,0"	"294/121"	417	stress_12bis	"POPTR_0014s13560.1"	1482	"	"T/A"	"68,6/30,2"	"116/51"	169
controllo_3	"POPTR_0014s13560.1"	1482	"	"T/A"	"70,5/29,0"	"294/121"	417	stress_42	"POPTR_0014s13560.1"	1482	"	"T/A"	"76,4/20,9"	"84/23"	110
controllo_3	"POPTR_0014s13560.1"	1482	"	"T/A"	"70,5/29,0"	"294/121"	417	stress_45	"POPTR_0014s13560.1"	1482	"	"T/A"	"72,3/26,7"	"73/27"	101
controllo_3	"POPTR_0017s05700.1"	219	"	"G/A"	"70,5/29,5"	"227/95"	322	stress_12bis	"POPTR_0017s05700.1"	219	"	"G/A"	"81,5/18,5"	"75/17"	92
controllo_3	"POPTR_0017s05700.1"	219	"	"G/A"	"70,5/29,5"	"227/95"	322	stress_42	"POPTR_0017s05700.1"	219	"	"G/A"	"68,7/31,3"	"46/21"	67
controllo_3	"POPTR_0017s05700.1"	219	"	"G/A"	"70,5/29,5"	"227/95"	322	stress_45	"POPTR_0017s05700.1"	219	"	"G/A"	"64,3/35,7"	"54/30"	84
controllo_3	"POPTR_0018s02230.1"	483	"	"A/G"	"70,5/29,5"	"103/43"	146	stress_12bis	"POPTR_0018s02230.1"	483	"	"A/G"	"70,7/29,3"	"53/22"	75
controllo_3	"POPTR_0018s02230.1"	483	"	"A/G"	"70,5/29,5"	"103/43"	146	stress_42	"POPTR_0018s02230.1"	483	"	"A/G"	"64,1/35,9"	"75/42"	117
controllo_3	"POPTR_0018s02230.1"	483	"	"A/G"	"70,5/29,5"	"103/43"	146	stress_45	"POPTR_0018s02230.1"	483	"	"A/G"	"59,6/40,4"	"68/46"	114
controllo_3	"POPTR_0001s07850.1"	966	"	"T/C"	"70,5/29,5"	"186/78"	264	stress_12bis	"POPTR_0001s07850.1"	966	"	"T/C"	"71,0/29,0"	"44/18"	62
controllo_3	"POPTR_0001s07850.1"	966	"	"T/C"	"70,5/29,5"	"186/78"	264	stress_42	"POPTR_0001s07850.1"	966	"	"T/C"	"76,6/23,4"	"49/15"	64
controllo_3	"POPTR_0001s07850.1"	966	"	"T/C"	"70,5/29,5"	"186/78"	264	stress_45	"POPTR_0001s07850.1"	966	"	"T/C"	"60,8/39,2"	"45/29"	74
controllo_3	"POPTR_0001s32780.1"	48	"	"C/T"	"70,5/29,5"	"136/57"	193	stress_42	"POPTR_0001s32780.1"	48	"	"T/C"	"58,9/41,1"	"43/30"	73
controllo_3	"POPTR_0001s32780.1"	48	"	"C/T"	"70,5/29,5"	"136/57"	193	stress_45	"POPTR_0001s32780.1"	48	"	"C/T"	"52,2/47,8"	"97/89"	186
controllo_3	"POPTR_0002s14730.1"	837	"	"T/C"	"70,5/29,5"	"538/225"	763	stress_12bis	"POPTR_0002s14730.1"	837	"	"T/C"	"62,7/37,3"	"141/84"	225
controllo_3	"POPTR_0002s14730.1"	837	"	"T/C"	"70,5/29,5"	"538/225"	763	stress_42	"POPTR_0002s14730.1"	837	"	"C/T"	"53,7/44,8"	"36/30"	67
controllo_3	"POPTR_0002s14730.1"	837	"	"T/C"	"70,5/29,5"	"538/225"	763	stress_45	"POPTR_0002s14730.1"	837	"	"C/T"	"75,2/24,8"	"106/35"	141
controllo_3	"POPTR_0002s01000.2"	417	"	"C/T"	"70,5/29,5"	"74/31"	105	stress_12bis	"POPTR_0002s01000.2"	417	"	"C/T"	"70,6/29,4"	"12/5"	17
controllo_3	"POPTR_0002s01000.2"	417	"	"C/T"	"70,5/29,5"	"74/31"	105	stress_42	"POPTR_0002s01000.2"	417	"	"C/T"	"73,7/26,3"	"14/5"	19
controllo_3	"POPTR_0002s01000.2"	417	"	"C/T"	"70,5/29,5"	"74/31"	105	stress_45	"POPTR_0002s01000.2"	417	"	"C/T"	"64,2/35,8"	"34/19"	53
controllo_3	"POPTR_0016s03230.1"	390	"	"A/G"	"70,5/29,5"	"110/46"	156	stress_12bis	"POPTR_0016s03230.1"	390	"	"A/G"	"72,2/27,8"	"109/42"	151
controllo_3	"POPTR_0016s03230.1"	390	"	"A/G"	"70,5/29,5"	"110/46"	156	stress_42	"POPTR_0016s03230.1"	390	"	"A/G"	"63,4/36,6"	"26/15"	41
controllo_3	"POPTR_0016s03230.1"	390	"	"A/G"	"70,5/29,5"	"110/46"	156	stress_45	"POPTR_0016s03230.1"	390	"	"A/G"	"61,0/39,0"	"25/16"	41
controllo_3	"POPTR_0001s36870.1"	1675	"	"C/A"	"70,6/28,4"	"72/29"	102	stress_12bis	"POPTR_0001s36870.1"	1675	"	"C/A"	"60,7/39,3"	"17/11"	28
controllo_3	"POPTR_0001s36870.1"	1675	"	"C/A"	"70,6/28,4"	"72/29"	102	stress_42	"POPTR_0001s36870.1"	1675	"	"C/A"	"58,3/41,7"	"14/10"	24
controllo_3	"POPTR_0001s36870.1"	1675	"	"C/A"	"70,6/28,4"	"72/29"	102	stress_45	"POPTR_0001s36870.1"	1675	"	"C/A"	"60,6/39,4"	"20/13"	33
controllo_3	"POPTR_0005s17740.1"	123	"	"C/T"	"70,6/29,4"	"101/42"	143	stress_12bis	"POPTR_0005s17740.1"	123	"	"C/T"	"68,9/31,1"	"31/14"	45
controllo_3	"POPTR_0005s17740.1"	123	"	"C/T"	"70,6/29,4"	"101/42"	143	stress_42	"POPTR_0005s17740.1"	123	"	"C/T"	"80,0/20,0"	"24/6"	30
controllo_3	"POPTR_0005s17740.1"	123	"	"C/T"	"70,6/29,4"	"101/42"	143	stress_45	"POPTR_0005s17740.1"	123	"	"C/T"	"50,9/49,1"	"27/26"	53
controllo_3	"POPTR_0006s10250.1"	425	"	"T/C"	"70,6/29,4"	"77/32"	109	stress_12bis	"POPTR_0006s10250.1"	425	"	"T/C"	"80,8/19,2"	"21/5"	26
controllo_3	"POPTR_0006s14400.1"	1072	"	"G/T"	"70,6/29,4"	"108/45"	153	stress_12bis	"POPTR_0006s14400.1"	1072	"	"G/T"	"71,1/28,9"	"27/11"	38
controllo_3	"POPTR_0006s14400.1"	1072	"	"G/T"	"70,6/29,4"	"108/45"	153	stress_42	"POPTR_0006s14400.1"	1072	"	"T/G"	"61,5/37,4"	"56/34"	91
controllo_3	"POPTR_0006s14400.1"	1072	"	"G/T"	"70,6/29,4"	"108/45"	153	stress_45	"POPTR_0006s14400.1"	1072	"	"T/G"	"71,6/28,4"	"48/19"	67
controllo_3	"POPTR_0019s14190.1"	312	"	"T/C"	"70,6/29,4"	"72/30"	102	stress_12bis	"POPTR_0019s14190.1"	312	"	"T/C"	"70,6/29,4"	"12/5"	17
controllo_3	"POPTR_0019s14190.1"	312	"	"T/C"	"70,6/29,4"	"72/30"	102	stress_42	"POPTR_0019s14190.1"	312	"	"C/T"	"68,1/31,9"	"47/22"	69
controllo_3	"POPTR_0019s14190.1"	312	"	"T/C"	"70,6/29,4"	"72/30"	102	stress_45	"POPTR_0019s14190.1"	312	"	"C/T"	"55,1/44,9"	"70/57"	127
controllo_3	"POPTR_0004s15960.1"	394	"	"G/A"	"70,7/29,3"	"82/34"	116	stress_12bis	"POPTR_0004s15960.1"	394	"	"G/A"	"82,6/17,4"	"19/4"	23
controllo_3	"POPTR_0004s15960.1"	394	"	"G/A"	"70,7/29,3"	"82/34"	116	stress_42	"POPTR_0004s15960.1"	394	"	"G/A"	"60,0/40,0"	"9/6"	15
controllo_3	"POPTR_0010s20060.1"	154	"	"G/A"	"70,7/29,3"	"251/104"	355	stress_12bis	"POPTR_0010s20060.1"	154	"	"G/A"	"72,3/27,7"	"81/31"	112
controllo_3	"POPTR_0010s20060.1"	154	"	"G/A"	"70,7/29,3"	"251/104"	355	stress_42	"POPTR_0010s20060.1"	154	"	"G/A"	"71,4/28,6"	"20/8"	28
controllo_3	"POPTR_0010s20060.1"	154	"	"G/A"	"70,7/29,3"	"251/104"	355	stress_45	"POPTR_0010s20060.1"	154	"	"G/A"	"78,8/21,2"	"26/7"	33
controllo_3	"POPTR_0007s15080.1"	1482	"	"C/A"	"70,7/29,3"	"82/34"	116	stress_12bis	"POPTR_0007s15080.1"	1482	"	"C/A"	"78,6/21,4"	"33/9"	42
controllo_3	"POPTR_0007s15080.1"	1482	"	"C/A"	"70,7/29,3"	"82/34"	116	stress_42	"POPTR_0007s15080.1"	1482	"	"C/A"	"53,8/46,2"	"7/6"	13
controllo_3	"POPTR_0007s15080.1"	1482	"	"C/A"	"70,7/29,3"	"82/34"	116	stress_45	"POPTR_0007s15080.1"	1482	"	"C/A"	"66,7/33,3"	"14/7"	21
controllo_3	"POPTR_0016s08580.1"	319	"	"A/G"	"70,7/29,3"	"239/99"	338	stress_12bis	"POPTR_0016s08580.1"	319	"	"A/G"	"68,6/31,4"	"59/27"	86
controllo_3	"POPTR_0016s08580.1"	319	"	"A/G"	"70,7/29,3"	"239/99"	338	stress_42	"POPTR_0016s08580.1"	319	"	"A/G"	"60,7/39,3"	"34/22"	56
controllo_3	"POPTR_0016s08580.1"	319	"	"A/G"	"70,7/29,3"	"239/99"	338	stress_45	"POPTR_0016s08580.1"	319	"	"A/G"	"75,9/24,1"	"66/21"	87
controllo_3	"POPTR_0005s25540.1"	153	"	"C/T"	"70,8/29,2"	"417/172"	589	stress_12bis	"POPTR_0005s25540.1"	153	"	"C/T"	"79,2/20,8"	"61/16"	77
controllo_3	"POPTR_0005s25540.1"	153	"	"C/T"	"70,8/29,2"	"417/172"	589	stress_45	"POPTR_0005s25540.1"	153	"	"C/T"	"84,4/15,6"	"76/14"	90
controllo_3	"POPTR_0005s26700.1"	375	"	"T/C"	"70,8/29,2"	"131/54"	185	stress_12bis	"POPTR_0005s26700.1"	375	"	"T/C"	"76,7/23,3"	"46/14"	60
controllo_3	"POPTR_0005s26700.1"	375	"	"T/C"	"70,8/29,2"	"131/54"	185	stress_42	"POPTR_0005s26700.1"	375	"	"T/C"	"76,0/24,0"	"19/6"	25
controllo_3	"POPTR_0005s26700.1"	375	"	"T/C"	"70,8/29,2"	"131/54"	185	stress_45	"POPTR_0005s26700.1"	375	"	"T/C"	"83,3/16,7"	"15/3"	18
controllo_3	"POPTR_0017s00850.1"	588	"	"C/T"	"70,8/29,2"	"97/40"	137	stress_12bis	"POPTR_0017s00850.1"	588	"	"C/T"	"53,3/46,7"	"8/7"	15
controllo_3	"POPTR_0017s00850.1"	588	"	"C/T"	"70,8/29,2"	"97/40"	137	stress_42	"POPTR_0017s00850.1"	588	"	"C/T"	"50,0/50,0"	"39/39"	78
controllo_3	"POPTR_0017s00850.1"	588	"	"C/T"	"70,8/29,2"	"97/40"	137	stress_45	"POPTR_0017s00850.1"	588	"	"T/C"	"50,6/49,4"	"43/42"	85
controllo_3	"POPTR_0004s16740.1"	351	"	"T/C"	"70,8/29,2"	"143/59"	202	stress_12bis	"POPTR_0004s16740.1"	351	"	"T/C"	"53,3/46,7"	"24/21"	45
controllo_3	"POPTR_0004s16740.1"	351	"	"T/C"	"70,8/29,2"	"143/59"	202	stress_42	"POPTR_0004s16740.1"	351	"	"T/C"	"55,9/44,1"	"19/15"	34
controllo_3	"POPTR_0004s16740.1"	351	"	"T/C"	"70,8/29,2"	"143/59"	202	stress_45	"POPTR_0004s16740.1"	351	"	"T/C"	"72,8/27,2"	"59/22"	81
controllo_3	"POPTR_0009s11650.1"	1323	"	"T/C"	"70,8/29,2"	"114/47"	161	stress_12bis	"POPTR_0009s11650.1"	1323	"	"T/C"	"75,0/25,0"	"9/3"	12
controllo_3	"POPTR_0001s36870.1"	1960	"	"C/G"	"70,8/29,2"	"119/49"	168	stress_12bis	"POPTR_0001s36870.1"	1960	"	"C/G"	"62,9/37,1"	"22/13"	35
controllo_3	"POPTR_0001s36870.1"	1960	"	"C/G"	"70,8/29,2"	"119/49"	168	stress_42	"POPTR_0001s36870.1"	1960	"	"C/G"	"65,4/34,6"	"34/18"	52
controllo_3	"POPTR_0001s36870.1"	1960	"	"C/G"	"70,8/29,2"	"119/49"	168	stress_45	"POPTR_0001s36870.1"	1960	"	"C/G"	"73,7/26,3"	"28/10"	38
controllo_3	"POPTR_0001s32770.1"	612	"	"T/C"	"70,8/29,2"	"85/35"	120	stress_12bis	"POPTR_0001s32770.1"	612	"	"T/C"	"70,0/30,0"	"14/6"	20
controllo_3	"POPTR_0001s32770.1"	612	"	"T/C"	"70,8/29,2"	"85/35"	120	stress_42	"POPTR_0001s32770.1"	612	"	"T/C"	"67,6/32,4"	"23/11"	34
controllo_3	"POPTR_0001s32770.1"	612	"	"T/C"	"70,8/29,2"	"85/35"	120	stress_45	"POPTR_0001s32770.1"	612	"	"T/C"	"58,2/41,8"	"32/23"	55
controllo_3	"POPTR_0001s02040.1"	147	"	"T/C"	"70,8/29,2"	"119/49"	168	stress_12bis	"POPTR_0001s02040.1"	147	"	"T/C"	"69,6/30,4"	"39/17"	56
controllo_3	"POPTR_0001s02040.1"	147	"	"T/C"	"70,8/29,2"	"119/49"	168	stress_42	"POPTR_0001s02040.1"	147	"	"T/C"	"60,7/39,3"	"17/11"	28
controllo_3	"POPTR_0001s02040.1"	147	"	"T/C"	"70,8/29,2"	"119/49"	168	stress_45	"POPTR_0001s02040.1"	147	"	"C/T"	"52,8/47,2"	"19/17"	36
controllo_3	"POPTR_0010s17400.1"	261	"	"A/G"	"70,8/29,2"	"75/31"	106	stress_12bis	"POPTR_0010s17400.1"	261	"	"A/G"	"84,6/15,4"	"33/6"	39
controllo_3	"POPTR_0010s17400.1"	261	"	"A/G"	"70,8/29,2"	"75/31"	106	stress_42	"POPTR_0010s17400.1"	261	"	"A/G"	"77,8/22,2"	"14/4"	18
controllo_3	"POPTR_0010s17400.1"	261	"	"A/G"	"70,8/29,2"	"75/31"	106	stress_45	"POPTR_0010s17400.1"	261	"	"A/G"	"80,0/20,0"	"20/5"	25
controllo_3	"POPTR_0002s19060.1"	1062	"	"T/C"	"70,8/29,2"	"34/14"	48	stress_45	"POPTR_0002s19060.1"	1062	"	"T/C"	"51,4/48,6"	"57/54"	111
controllo_3	"POPTR_0017s06650.1"	923	"	"T/C"	"70,9/29,1"	"100/41"	141	stress_12bis	"POPTR_0017s06650.1"	923	"	"T/C"	"71,0/29,0"	"22/9"	31
controllo_3	"POPTR_0006s03660.1"	2193	"	"C/T"	"70,9/29,1"	"78/32"	110	stress_12bis	"POPTR_0006s03660.1"	2193	"	"C/T"	"81,2/18,8"	"13/3"	16
controllo_3	"POPTR_0006s03660.1"	2193	"	"C/T"	"70,9/29,1"	"78/32"	110	stress_42	"POPTR_0006s03660.1"	2193	"	"C/T"	"83,3/16,7"	"10/2"	12
controllo_3	"POPTR_0006s03660.1"	2193	"	"C/T"	"70,9/29,1"	"78/32"	110	stress_45	"POPTR_0006s03660.1"	2193	"	"C/T"	"77,3/22,7"	"17/5"	22
controllo_3	"POPTR_0006s02750.1"	354	"	"T/C"	"70,9/29,1"	"124/51"	175	stress_12bis	"POPTR_0006s02750.1"	354	"	"T/C"	"54,8/45,2"	"17/14"	31
controllo_3	"POPTR_0006s02750.1"	354	"	"T/C"	"70,9/29,1"	"124/51"	175	stress_42	"POPTR_0006s02750.1"	354	"	"T/C"	"81,3/18,7"	"61/14"	75
controllo_3	"POPTR_0006s02750.1"	354	"	"T/C"	"70,9/29,1"	"124/51"	175	stress_45	"POPTR_0006s02750.1"	354	"	"T/C"	"77,6/22,4"	"45/13"	58
controllo_3	"POPTR_0018s01830.1"	234	"	"A/G"	"70,9/29,1"	"437/179"	616	stress_12bis	"POPTR_0018s01830.1"	234	"	"A/G"	"74,6/25,4"	"135/46"	181
controllo_3	"POPTR_0018s01830.1"	234	"	"A/G"	"70,9/29,1"	"437/179"	616	stress_42	"POPTR_0018s01830.1"	234	"	"A/G"	"56,1/43,9"	"23/18"	41
controllo_3	"POPTR_0018s01830.1"	234	"	"A/G"	"70,9/29,1"	"437/179"	616	stress_45	"POPTR_0018s01830.1"	234	"	"G/A"	"50,6/49,4"	"41/40"	81
controllo_3	"POPTR_0013s03320.1"	88	"	"T/C"	"70,9/29,1"	"217/89"	306	stress_12bis	"POPTR_0013s03320.1"	88	"	"T/C"	"84,4/15,6"	"27/5"	32
controllo_3	"POPTR_0013s03320.1"	88	"	"T/C"	"70,9/29,1"	"217/89"	306	stress_42	"POPTR_0013s03320.1"	88	"	"T/C"	"78,9/21,1"	"90/24"	114
controllo_3	"POPTR_0013s03320.1"	88	"	"T/C"	"70,9/29,1"	"217/89"	306	stress_45	"POPTR_0013s03320.1"	88	"	"T/C"	"77,3/22,7"	"75/22"	97
controllo_3	"POPTR_0012s08330.1"	125	"	"C/A"	"70,9/29,1"	"207/85"	292	stress_12bis	"POPTR_0012s08330.1"	125	"	"C/A"	"60,7/39,3"	"54/35"	89
controllo_3	"POPTR_0012s08330.1"	125	"	"C/A"	"70,9/29,1"	"207/85"	292	stress_42	"POPTR_0012s08330.1"	125	"	"C/A"	"74,3/25,7"	"52/18"	70
controllo_3	"POPTR_0012s08330.1"	125	"	"C/A"	"70,9/29,1"	"207/85"	292	stress_45	"POPTR_0012s08330.1"	125	"	"C/A"	"75,3/24,7"	"67/22"	89
controllo_3	"POPTR_0012s08330.1"	126	"	"A/T"	"70,9/29,1"	"205/84"	289	stress_12bis	"POPTR_0012s08330.1"	126	"	"A/T"	"60,7/39,3"	"54/35"	89
controllo_3	"POPTR_0012s08330.1"	126	"	"A/T"	"70,9/29,1"	"205/84"	289	stress_42	"POPTR_0012s08330.1"	126	"	"A/T"	"73,9/26,1"	"51/18"	69
controllo_3	"POPTR_0012s08330.1"	126	"	"A/T"	"70,9/29,1"	"205/84"	289	stress_45	"POPTR_0012s08330.1"	126	"	"A/T"	"75,3/24,7"	"67/22"	89
controllo_3	"POPTR_0012s04560.1"	463	"	"A/C"	"70,9/29,1"	"139/57"	196	stress_12bis	"POPTR_0012s04560.1"	463	"	"A/C"	"76,7/23,3"	"46/14"	60
controllo_3	"POPTR_0012s04560.1"	463	"	"A/C"	"70,9/29,1"	"139/57"	196	stress_42	"POPTR_0012s04560.1"	463	"	"A/C"	"50,0/50,0"	"8/8"	16
controllo_3	"POPTR_0012s04560.1"	463	"	"A/C"	"70,9/29,1"	"139/57"	196	stress_45	"POPTR_0012s04560.1"	463	"	"A/C"	"56,2/43,8"	"18/14"	32
controllo_3	"POPTR_0010s21350.1"	1736	"	"T/C"	"70,9/29,1"	"175/72"	247	stress_12bis	"POPTR_0010s21350.1"	1736	"	"T/C"	"62,1/37,9"	"36/22"	58
controllo_3	"POPTR_0010s21350.1"	1736	"	"T/C"	"70,9/29,1"	"175/72"	247	stress_42	"POPTR_0010s21350.1"	1736	"	"C/T"	"51,5/48,5"	"17/16"	33
controllo_3	"POPTR_0010s21350.1"	1736	"	"T/C"	"70,9/29,1"	"175/72"	247	stress_45	"POPTR_0010s21350.1"	1736	"	"T/C"	"72,2/27,8"	"26/10"	36
controllo_3	"POPTR_0010s18770.1"	178	"	"T/C"	"70,9/29,1"	"158/65"	223	stress_12bis	"POPTR_0010s18770.1"	178	"	"T/C"	"68,0/32,0"	"34/16"	50
controllo_3	"POPTR_0010s18770.1"	178	"	"T/C"	"70,9/29,1"	"158/65"	223	stress_45	"POPTR_0010s18770.1"	178	"	"T/C"	"57,9/42,1"	"11/8"	19
controllo_3	"POPTR_0008s17090.1"	249	"	"A/T"	"70,9/29,1"	"244/100"	344	stress_12bis	"POPTR_0008s17090.1"	249	"	"A/T"	"70,4/29,6"	"76/32"	108
controllo_3	"POPTR_0008s17090.1"	249	"	"A/T"	"70,9/29,1"	"244/100"	344	stress_42	"POPTR_0008s17090.1"	249	"	"A/T"	"62,7/37,3"	"32/19"	51
controllo_3	"POPTR_0008s17090.1"	249	"	"A/T"	"70,9/29,1"	"244/100"	344	stress_45	"POPTR_0008s17090.1"	249	"	"A/T"	"65,1/34,9"	"28/15"	43
controllo_3	"POPTR_0016s14970.1"	472	"	"C/T"	"70,9/29,1"	"73/30"	103	stress_12bis	"POPTR_0016s14970.1"	472	"	"C/T"	"51,7/48,3"	"15/14"	29
controllo_3	"POPTR_0016s14970.1"	472	"	"C/T"	"70,9/29,1"	"73/30"	103	stress_42	"POPTR_0016s14970.1"	472	"	"C/T"	"63,6/36,4"	"7/4"	11
controllo_3	"POPTR_0016s14970.1"	472	"	"C/T"	"70,9/29,1"	"73/30"	103	stress_45	"POPTR_0016s14970.1"	472	"	"C/T"	"79,2/20,8"	"19/5"	24
controllo_3	"POPTR_0017s14470.1"	1372	"	"C/A"	"71,0/29,0"	"22/9"	31	stress_45	"POPTR_0017s14470.1"	1372	"	"C/A"	"59,8/40,2"	"61/41"	102
controllo_3	"POPTR_0018s07160.1"	140	"	"G/A"	"71,0/29,0"	"142/58"	200	stress_12bis	"POPTR_0018s07160.1"	140	"	"G/A"	"57,8/40,0"	"26/18"	45
controllo_3	"POPTR_0018s07160.1"	140	"	"G/A"	"71,0/29,0"	"142/58"	200	stress_42	"POPTR_0018s07160.1"	140	"	"G/A"	"63,6/36,4"	"14/8"	22
controllo_3	"POPTR_0018s01830.1"	358	"	"T/G"	"71,0/29,0"	"363/148"	511	stress_12bis	"POPTR_0018s01830.1"	358	"	"T/G"	"73,6/26,4"	"103/37"	140
controllo_3	"POPTR_0018s01830.1"	358	"	"T/G"	"71,0/29,0"	"363/148"	511	stress_42	"POPTR_0018s01830.1"	358	"	"T/G"	"71,8/28,2"	"28/11"	39
controllo_3	"POPTR_0018s01830.1"	358	"	"T/G"	"71,0/29,0"	"363/148"	511	stress_45	"POPTR_0018s01830.1"	358	"	"T/G"	"52,2/47,8"	"35/32"	67
controllo_3	"POPTR_0004s15960.1"	1441	"	"A/G"	"71,0/29,0"	"132/54"	186	stress_12bis	"POPTR_0004s15960.1"	1441	"	"A/G"	"75,0/25,0"	"27/9"	36
controllo_3	"POPTR_0004s15960.1"	1441	"	"A/G"	"71,0/29,0"	"132/54"	186	stress_42	"POPTR_0004s15960.1"	1441	"	"A/G"	"55,3/44,7"	"21/17"	38
controllo_3	"POPTR_0004s15960.1"	1441	"	"A/G"	"71,0/29,0"	"132/54"	186	stress_45	"POPTR_0004s15960.1"	1441	"	"A/G"	"50,0/50,0"	"22/22"	44
controllo_3	"POPTR_0010s17400.1"	134	"	"C/T"	"71,0/29,0"	"88/36"	124	stress_12bis	"POPTR_0010s17400.1"	134	"	"C/T"	"75,0/25,0"	"30/10"	40
controllo_3	"POPTR_0010s17400.1"	134	"	"C/T"	"71,0/29,0"	"88/36"	124	stress_45	"POPTR_0010s17400.1"	134	"	"C/T"	"85,0/15,0"	"17/3"	20
controllo_3	"POPTR_0002s14730.1"	1716	"	"A/C"	"71,0/29,0"	"296/121"	417	stress_12bis	"POPTR_0002s14730.1"	1716	"	"A/C"	"68,8/31,2"	"77/35"	112
controllo_3	"POPTR_0002s14730.1"	1716	"	"A/C"	"71,0/29,0"	"296/121"	417	stress_42	"POPTR_0002s14730.1"	1716	"	"A/C"	"85,0/15,0"	"17/3"	20
controllo_3	"POPTR_0002s14730.1"	1716	"	"A/C"	"71,0/29,0"	"296/121"	417	stress_45	"POPTR_0002s14730.1"	1716	"	"A/C"	"82,6/17,4"	"19/4"	23
controllo_3	"POPTR_0008s16890.1"	459	"	"G/C"	"71,0/29,0"	"76/31"	107	stress_12bis	"POPTR_0008s16890.1"	459	"	"G/C"	"69,6/30,4"	"16/7"	23
controllo_3	"POPTR_0006s24520.1"	201	"	"A/T"	"71,1/28,9"	"96/39"	135	stress_12bis	"POPTR_0006s24520.1"	201	"	"A/T"	"76,0/24,0"	"19/6"	25
controllo_3	"POPTR_0004s04120.1"	543	"	"T/C"	"71,1/28,9"	"106/43"	149	stress_12bis	"POPTR_0004s04120.1"	543	"	"T/C"	"72,7/27,3"	"16/6"	22
controllo_3	"POPTR_0004s04120.1"	543	"	"T/C"	"71,1/28,9"	"106/43"	149	stress_45	"POPTR_0004s04120.1"	543	"	"T/C"	"83,1/16,9"	"54/11"	65
controllo_3	"POPTR_0012s11630.1"	137	"	"G/C"	"71,1/28,9"	"209/85"	294	stress_12bis	"POPTR_0012s11630.1"	137	"	"G/C"	"74,1/25,9"	"106/37"	143
controllo_3	"POPTR_0012s11630.1"	137	"	"G/C"	"71,1/28,9"	"209/85"	294	stress_42	"POPTR_0012s11630.1"	137	"	"G/C"	"76,4/23,6"	"55/17"	72
controllo_3	"POPTR_0012s11630.1"	137	"	"G/C"	"71,1/28,9"	"209/85"	294	stress_45	"POPTR_0012s11630.1"	137	"	"G/C"	"69,7/30,3"	"62/27"	89
controllo_3	"POPTR_0015s00510.1"	76	"	"T/C"	"71,1/28,9"	"81/33"	114	stress_42	"POPTR_0015s00510.1"	76	"	"C/T"	"72,7/27,3"	"8/3"	11
controllo_3	"POPTR_0001s18460.1"	226	"	"T/C"	"71,1/28,9"	"133/54"	187	stress_12bis	"POPTR_0001s18460.1"	226	"	"T/C"	"75,5/24,5"	"37/12"	49
controllo_3	"POPTR_0001s18460.1"	226	"	"T/C"	"71,1/28,9"	"133/54"	187	stress_42	"POPTR_0001s18460.1"	226	"	"T/C"	"73,3/26,7"	"11/4"	15
controllo_3	"POPTR_0001s18460.1"	226	"	"T/C"	"71,1/28,9"	"133/54"	187	stress_45	"POPTR_0001s18460.1"	226	"	"T/C"	"84,0/16,0"	"21/4"	25
controllo_3	"POPTR_0007s13800.1"	423	"	"C/T"	"71,1/28,9"	"172/70"	242	stress_12bis	"POPTR_0007s13800.1"	423	"	"C/T"	"60,7/39,3"	"34/22"	56
controllo_3	"POPTR_0008s19370.1"	733	"	"T/C"	"71,1/28,9"	"1379/560"	1939	stress_12bis	"POPTR_0008s19370.1"	733	"	"T/C"	"72,6/27,4"	"744/281"	1025
controllo_3	"POPTR_0008s19370.1"	733	"	"T/C"	"71,1/28,9"	"1379/560"	1939	stress_42	"POPTR_0008s19370.1"	733	"	"T/C"	"72,9/27,1"	"62/23"	85
controllo_3	"POPTR_0016s08580.1"	715	"	"A/T"	"71,1/28,9"	"187/76"	263	stress_12bis	"POPTR_0016s08580.1"	715	"	"A/T"	"69,4/30,6"	"43/19"	62
controllo_3	"POPTR_0016s08580.1"	715	"	"A/T"	"71,1/28,9"	"187/76"	263	stress_42	"POPTR_0016s08580.1"	715	"	"A/T"	"65,9/34,1"	"29/15"	44
controllo_3	"POPTR_0016s08580.1"	715	"	"A/T"	"71,1/28,9"	"187/76"	263	stress_45	"POPTR_0016s08580.1"	715	"	"A/T"	"73,7/26,3"	"42/15"	57
controllo_3	"POPTR_0006s01850.1"	57	"	"G/A"	"71,2/28,8"	"74/30"	104	stress_12bis	"POPTR_0006s01850.1"	57	"	"G/A"	"64,8/35,2"	"35/19"	54
controllo_3	"POPTR_0006s01850.1"	57	"	"G/A"	"71,2/28,8"	"74/30"	104	stress_42	"POPTR_0006s01850.1"	57	"	"G/A"	"76,5/23,5"	"13/4"	17
controllo_3	"POPTR_0006s01850.1"	57	"	"G/A"	"71,2/28,8"	"74/30"	104	stress_45	"POPTR_0006s01850.1"	57	"	"G/A"	"68,8/31,2"	"11/5"	16
controllo_3	"POPTR_0014s10260.1"	1323	"	"A/C"	"71,2/28,8"	"121/49"	170	stress_12bis	"POPTR_0014s10260.1"	1323	"	"A/C"	"76,1/23,9"	"35/11"	46
controllo_3	"POPTR_0014s10260.1"	1323	"	"A/C"	"71,2/28,8"	"121/49"	170	stress_42	"POPTR_0014s10260.1"	1323	"	"A/C"	"80,4/19,6"	"37/9"	46
controllo_3	"POPTR_0014s10260.1"	1323	"	"A/C"	"71,2/28,8"	"121/49"	170	stress_45	"POPTR_0014s10260.1"	1323	"	"A/C"	"73,9/26,1"	"34/12"	46
controllo_3	"POPTR_0014s15710.1"	453	"	"C/T"	"71,2/28,8"	"379/153"	532	stress_12bis	"POPTR_0014s15710.1"	453	"	"C/T"	"53,6/46,4"	"74/64"	138
controllo_3	"POPTR_0014s15710.1"	453	"	"C/T"	"71,2/28,8"	"379/153"	532	stress_42	"POPTR_0014s15710.1"	453	"	"C/T"	"65,1/34,9"	"56/30"	86
controllo_3	"POPTR_0014s15710.1"	453	"	"C/T"	"71,2/28,8"	"379/153"	532	stress_45	"POPTR_0014s15710.1"	453	"	"C/T"	"72,4/27,6"	"84/32"	116
controllo_3	"POPTR_0009s11650.1"	1221	"	"T/A"	"71,2/28,8"	"84/34"	118	stress_12bis	"POPTR_0009s11650.1"	1221	"	"T/A"	"66,7/33,3"	"10/5"	15
controllo_3	"POPTR_0011s09370.1"	4576	"	"G/A"	"71,2/28,8"	"74/30"	104	stress_12bis	"POPTR_0011s09370.1"	4576	"	"A/G"	"52,4/47,6"	"11/10"	21
controllo_3	"POPTR_0011s09370.1"	4576	"	"G/A"	"71,2/28,8"	"74/30"	104	stress_42	"POPTR_0011s09370.1"	4576	"	"G/A"	"77,8/22,2"	"14/4"	18
controllo_3	"POPTR_0011s09370.1"	4576	"	"G/A"	"71,2/28,8"	"74/30"	104	stress_45	"POPTR_0011s09370.1"	4576	"	"G/A"	"75,0/25,0"	"15/5"	20
controllo_3	"POPTR_0002s08150.1"	75	"	"T/C"	"71,2/28,8"	"37/15"	52	stress_45	"POPTR_0002s08150.1"	75	"	"T/C"	"53,7/46,3"	"65/56"	121
controllo_3	"POPTR_0008s20770.1"	492	"	"G/A"	"71,3/28,5"	"415/166"	582	stress_12bis	"POPTR_0008s20770.1"	492	"	"G/A"	"59,1/40,9"	"179/124"	303
controllo_3	"POPTR_0008s20770.1"	492	"	"G/A"	"71,3/28,5"	"415/166"	582	stress_42	"POPTR_0008s20770.1"	492	"	"A/G"	"57,4/42,6"	"120/89"	209
controllo_3	"POPTR_0008s20770.1"	492	"	"G/A"	"71,3/28,5"	"415/166"	582	stress_45	"POPTR_0008s20770.1"	492	"	"A/G"	"51,2/48,8"	"147/140"	287
controllo_3	"POPTR_0006s00470.1"	1566	"	"T/C"	"71,3/28,7"	"82/33"	115	stress_12bis	"POPTR_0006s00470.1"	1566	"	"T/C"	"60,0/40,0"	"21/14"	35
controllo_3	"POPTR_0006s00470.1"	1566	"	"T/C"	"71,3/28,7"	"82/33"	115	stress_42	"POPTR_0006s00470.1"	1566	"	"T/C"	"54,5/45,5"	"6/5"	11
controllo_3	"POPTR_0006s00470.1"	1566	"	"T/C"	"71,3/28,7"	"82/33"	115	stress_45	"POPTR_0006s00470.1"	1566	"	"T/C"	"77,5/22,5"	"31/9"	40
controllo_3	"POPTR_0018s11820.1"	152	"	"A/C"	"71,3/28,7"	"244/98"	342	stress_12bis	"POPTR_0018s11820.1"	152	"	"A/C"	"69,0/31,0"	"58/26"	84
controllo_3	"POPTR_0018s11820.1"	152	"	"A/C"	"71,3/28,7"	"244/98"	342	stress_42	"POPTR_0018s11820.1"	152	"	"A/C"	"78,6/21,4"	"11/3"	14
controllo_3	"POPTR_0018s11820.1"	152	"	"A/C"	"71,3/28,7"	"244/98"	342	stress_45	"POPTR_0018s11820.1"	152	"	"A/C"	"82,4/17,6"	"14/3"	17
controllo_3	"POPTR_0013s14450.1"	593	"	"C/G"	"71,3/28,7"	"77/31"	108	stress_12bis	"POPTR_0013s14450.1"	593	"	"C/G"	"60,5/39,5"	"26/17"	43
controllo_3	"POPTR_0013s14450.1"	593	"	"C/G"	"71,3/28,7"	"77/31"	108	stress_42	"POPTR_0013s14450.1"	593	"	"C/G"	"53,6/46,4"	"15/13"	28
controllo_3	"POPTR_0013s14450.1"	593	"	"C/G"	"71,3/28,7"	"77/31"	108	stress_45	"POPTR_0013s14450.1"	593	"	"C/G"	"61,4/38,6"	"27/17"	44
controllo_3	"POPTR_0014s10260.1"	1301	"	"C/A"	"71,3/28,7"	"119/48"	167	stress_12bis	"POPTR_0014s10260.1"	1301	"	"C/A"	"66,7/33,3"	"34/17"	51
controllo_3	"POPTR_0014s10260.1"	1301	"	"C/A"	"71,3/28,7"	"119/48"	167	stress_45	"POPTR_0014s10260.1"	1301	"	"C/A"	"75,4/24,6"	"46/15"	61
controllo_3	"POPTR_0004s18090.1"	75	"	"A/T"	"71,3/28,7"	"82/33"	115	stress_42	"POPTR_0004s18090.1"	75	"	"A/T"	"72,2/27,8"	"13/5"	18
controllo_3	"POPTR_0004s18090.1"	75	"	"A/T"	"71,3/28,7"	"82/33"	115	stress_45	"POPTR_0004s18090.1"	75	"	"T/A"	"64,3/35,7"	"9/5"	14
controllo_3	"POPTR_0012s04560.1"	399	"	"G/A"	"71,3/28,7"	"92/37"	129	stress_42	"POPTR_0012s04560.1"	399	"	"G/A"	"73,7/26,3"	"14/5"	19
controllo_3	"POPTR_0012s04560.1"	399	"	"G/A"	"71,3/28,7"	"92/37"	129	stress_45	"POPTR_0012s04560.1"	399	"	"G/A"	"84,2/15,8"	"16/3"	19
controllo_3	"POPTR_0001s25760.1"	1074	"	"C/T"	"71,3/28,7"	"112/45"	157	stress_42	"POPTR_0001s25760.1"	1074	"	"C/T"	"78,3/21,7"	"18/5"	23
controllo_3	"POPTR_0001s25760.1"	1074	"	"C/T"	"71,3/28,7"	"112/45"	157	stress_45	"POPTR_0001s25760.1"	1074	"	"C/T"	"67,6/32,4"	"23/11"	34
controllo_3	"POPTR_0001s07850.1"	135	"	"C/A"	"71,3/28,7"	"97/39"	136	stress_12bis	"POPTR_0001s07850.1"	135	"	"C/A"	"71,4/28,6"	"20/8"	28
controllo_3	"POPTR_0001s07850.1"	135	"	"C/A"	"71,3/28,7"	"97/39"	136	stress_42	"POPTR_0001s07850.1"	135	"	"C/A"	"73,7/26,3"	"14/5"	19
controllo_3	"POPTR_0001s07850.1"	135	"	"C/A"	"71,3/28,7"	"97/39"	136	stress_45	"POPTR_0001s07850.1"	135	"	"C/A"	"59,1/40,9"	"13/9"	22
controllo_3	"POPTR_0010s20060.1"	348	"	"G/A"	"71,3/28,7"	"443/178"	621	stress_12bis	"POPTR_0010s20060.1"	348	"	"G/A"	"67,1/32,9"	"116/57"	173
controllo_3	"POPTR_0010s20060.1"	348	"	"G/A"	"71,3/28,7"	"443/178"	621	stress_42	"POPTR_0010s20060.1"	348	"	"G/A"	"60,0/40,0"	"21/14"	35
controllo_3	"POPTR_0010s20060.1"	348	"	"G/A"	"71,3/28,7"	"443/178"	621	stress_45	"POPTR_0010s20060.1"	348	"	"G/A"	"58,6/41,4"	"17/12"	29
controllo_3	"POPTR_0010s20060.1"	594	"	"C/A"	"71,3/28,7"	"318/128"	446	stress_12bis	"POPTR_0010s20060.1"	594	"	"C/A"	"77,2/22,8"	"112/33"	145
controllo_3	"POPTR_0007s08400.1"	1461	"	"T/A"	"71,3/28,7"	"243/98"	341	stress_12bis	"POPTR_0007s08400.1"	1461	"	"T/A"	"65,6/34,4"	"86/45"	131
controllo_3	"POPTR_0007s08400.1"	1461	"	"T/A"	"71,3/28,7"	"243/98"	341	stress_42	"POPTR_0007s08400.1"	1461	"	"T/A"	"83,3/16,7"	"100/20"	120
controllo_3	"POPTR_0007s08400.1"	1461	"	"T/A"	"71,3/28,7"	"243/98"	341	stress_45	"POPTR_0007s08400.1"	1461	"	"T/A"	"70,1/29,9"	"178/76"	254
controllo_3	"POPTR_0002s22560.1"	256	"	"T/A"	"71,3/28,7"	"224/90"	314	stress_12bis	"POPTR_0002s22560.1"	256	"	"T/A"	"71,2/28,8"	"104/42"	146
controllo_3	"POPTR_0002s22560.1"	256	"	"T/A"	"71,3/28,7"	"224/90"	314	stress_42	"POPTR_0002s22560.1"	256	"	"T/A"	"69,0/31,0"	"20/9"	29
controllo_3	"POPTR_0002s22560.1"	256	"	"T/A"	"71,3/28,7"	"224/90"	314	stress_45	"POPTR_0002s22560.1"	256	"	"T/A"	"75,8/24,2"	"25/8"	33
controllo_3	"POPTR_0016s03230.1"	361	"	"T/A"	"71,4/28,1"	"142/56"	199	stress_12bis	"POPTR_0016s03230.1"	361	"	"T/A"	"71,4/28,6"	"152/61"	213
controllo_3	"POPTR_0016s03230.1"	361	"	"T/A"	"71,4/28,1"	"142/56"	199	stress_42	"POPTR_0016s03230.1"	361	"	"T/A"	"68,8/31,2"	"44/20"	64
controllo_3	"POPTR_0016s03230.1"	361	"	"T/A"	"71,4/28,1"	"142/56"	199	stress_45	"POPTR_0016s03230.1"	361	"	"T/A"	"74,0/26,0"	"37/13"	50
controllo_3	"POPTR_0004s08380.1"	49	"	"G/A"	"71,4/28,6"	"563/225"	788	stress_12bis	"POPTR_0004s08380.1"	49	"	"G/A"	"76,7/23,3"	"161/49"	210
controllo_3	"POPTR_0004s08380.1"	49	"	"G/A"	"71,4/28,6"	"563/225"	788	stress_42	"POPTR_0004s08380.1"	49	"	"G/A"	"63,6/36,4"	"14/8"	22
controllo_3	"POPTR_0004s08380.1"	49	"	"G/A"	"71,4/28,6"	"563/225"	788	stress_45	"POPTR_0004s08380.1"	49	"	"G/A"	"83,3/16,7"	"25/5"	30
controllo_3	"POPTR_0010s00900.1"	575	"	"C/G"	"71,4/28,6"	"10/4"	14	stress_42	"POPTR_0010s00900.1"	575	"	"G/C"	"53,3/46,7"	"80/70"	150
controllo_3	"POPTR_0010s00900.1"	575	"	"C/G"	"71,4/28,6"	"10/4"	14	stress_45	"POPTR_0010s00900.1"	575	"	"G/C"	"64,0/36,0"	"105/59"	164
controllo_3	"POPTR_0007s13800.1"	183	"	"C/A"	"71,4/28,6"	"137/55"	192	stress_12bis	"POPTR_0007s13800.1"	183	"	"C/A"	"64,1/35,9"	"25/14"	39
controllo_3	"POPTR_0002s21420.1"	1883	"	"T/C"	"71,4/28,6"	"75/30"	105	stress_12bis	"POPTR_0002s21420.1"	1883	"	"T/C"	"64,0/36,0"	"16/9"	25
controllo_3	"POPTR_0002s21420.1"	1883	"	"T/C"	"71,4/28,6"	"75/30"	105	stress_42	"POPTR_0002s21420.1"	1883	"	"T/C"	"60,5/39,5"	"26/17"	43
controllo_3	"POPTR_0002s21420.1"	1883	"	"T/C"	"71,4/28,6"	"75/30"	105	stress_45	"POPTR_0002s21420.1"	1883	"	"C/T"	"50,0/50,0"	"30/30"	60
controllo_3	"POPTR_0008s03810.1"	795	"	"G/A"	"71,4/28,6"	"80/32"	112	stress_42	"POPTR_0008s03810.1"	795	"	"G/A"	"52,2/47,8"	"12/11"	23
controllo_3	"POPTR_0008s03810.1"	795	"	"G/A"	"71,4/28,6"	"80/32"	112	stress_45	"POPTR_0008s03810.1"	795	"	"G/A"	"76,5/23,5"	"13/4"	17
controllo_3	"POPTR_0008s17090.1"	187	"	"G/C"	"71,4/28,6"	"147/59"	206	stress_12bis	"POPTR_0008s17090.1"	187	"	"G/C"	"76,6/23,4"	"49/15"	64
controllo_3	"POPTR_0008s17090.1"	187	"	"G/C"	"71,4/28,6"	"147/59"	206	stress_42	"POPTR_0008s17090.1"	187	"	"G/C"	"77,8/22,2"	"21/6"	27
controllo_3	"POPTR_0008s17090.1"	187	"	"G/C"	"71,4/28,6"	"147/59"	206	stress_45	"POPTR_0008s17090.1"	187	"	"G/C"	"77,5/22,5"	"31/9"	40
controllo_3	"POPTR_0001s02040.1"	295	"	"A/T"	"71,5/28,5"	"128/51"	179	stress_12bis	"POPTR_0001s02040.1"	295	"	"A/T"	"60,0/38,8"	"51/33"	85
controllo_3	"POPTR_0001s02040.1"	295	"	"A/T"	"71,5/28,5"	"128/51"	179	stress_42	"POPTR_0001s02040.1"	295	"	"A/T"	"56,2/43,8"	"27/21"	48
controllo_3	"POPTR_0001s02040.1"	295	"	"A/T"	"71,5/28,5"	"128/51"	179	stress_45	"POPTR_0001s02040.1"	295	"	"A/T"	"54,7/45,3"	"29/24"	53
controllo_3	"POPTR_0008s06580.1"	27	"	"A/G"	"71,5/28,5"	"466/186"	652	stress_12bis	"POPTR_0008s06580.1"	27	"	"G/A"	"53,5/46,5"	"38/33"	71
controllo_3	"POPTR_0008s06580.1"	27	"	"A/G"	"71,5/28,5"	"466/186"	652	stress_42	"POPTR_0008s06580.1"	27	"	"A/G"	"61,9/38,1"	"198/122"	320
controllo_3	"POPTR_0008s06580.1"	27	"	"A/G"	"71,5/28,5"	"466/186"	652	stress_45	"POPTR_0008s06580.1"	27	"	"A/G"	"60,3/39,5"	"292/191"	484
controllo_3	"POPTR_0002s00840.1"	702	"	"C/T"	"71,6/27,4"	"144/55"	201	stress_12bis	"POPTR_0002s00840.1"	702	"	"C/T"	"81,0/19,0"	"51/12"	63
controllo_3	"POPTR_0002s19710.1"	130	"	"G/C"	"71,6/27,5"	"73/28"	102	stress_42	"POPTR_0002s19710.1"	130	"	"G/C"	"60,0/40,0"	"9/6"	15
controllo_3	"POPTR_0002s19710.1"	130	"	"G/C"	"71,6/27,5"	"73/28"	102	stress_45	"POPTR_0002s19710.1"	130	"	"G/C"	"53,3/46,7"	"8/7"	15
controllo_3	"POPTR_0005s05450.1"	903	"	"G/T"	"71,6/28,4"	"144/57"	201	stress_12bis	"POPTR_0005s05450.1"	903	"	"G/T"	"64,1/35,9"	"25/14"	39
controllo_3	"POPTR_0005s05450.1"	903	"	"G/T"	"71,6/28,4"	"144/57"	201	stress_45	"POPTR_0005s05450.1"	903	"	"G/T"	"63,6/36,4"	"14/8"	22
controllo_3	"POPTR_0017s14090.1"	162	"	"A/G"	"71,6/28,4"	"83/33"	116	stress_12bis	"POPTR_0017s14090.1"	162	"	"A/G"	"69,7/30,3"	"23/10"	33
controllo_3	"POPTR_0017s14090.1"	162	"	"A/G"	"71,6/28,4"	"83/33"	116	stress_42	"POPTR_0017s14090.1"	162	"	"A/G"	"81,8/18,2"	"9/2"	11
controllo_3	"POPTR_0017s14090.1"	162	"	"A/G"	"71,6/28,4"	"83/33"	116	stress_45	"POPTR_0017s14090.1"	162	"	"A/G"	"76,5/23,5"	"13/4"	17
controllo_3	"POPTR_0018s11600.1"	1690	"	"A/G"	"71,6/28,4"	"83/33"	116	stress_12bis	"POPTR_0018s11600.1"	1690	"	"A/G"	"66,7/33,3"	"24/12"	36
controllo_3	"POPTR_0018s11600.1"	1690	"	"A/G"	"71,6/28,4"	"83/33"	116	stress_42	"POPTR_0018s11600.1"	1690	"	"A/G"	"64,0/36,0"	"16/9"	25
controllo_3	"POPTR_0018s11600.1"	1690	"	"A/G"	"71,6/28,4"	"83/33"	116	stress_45	"POPTR_0018s11600.1"	1690	"	"A/G"	"73,9/26,1"	"17/6"	23
controllo_3	"POPTR_0015s09910.1"	389	"	"A/G"	"71,6/28,4"	"146/58"	204	stress_12bis	"POPTR_0015s09910.1"	389	"	"A/G"	"68,3/31,7"	"95/44"	139
controllo_3	"POPTR_0015s09910.1"	389	"	"A/G"	"71,6/28,4"	"146/58"	204	stress_45	"POPTR_0015s09910.1"	389	"	"A/G"	"83,3/16,7"	"30/6"	36
controllo_3	"POPTR_0010s20060.1"	873	"	"A/G"	"71,6/28,4"	"293/116"	409	stress_12bis	"POPTR_0010s20060.1"	873	"	"A/G"	"79,8/20,2"	"99/25"	124
controllo_3	"POPTR_0010s20060.1"	873	"	"A/G"	"71,6/28,4"	"293/116"	409	stress_42	"POPTR_0010s20060.1"	873	"	"A/G"	"79,3/20,7"	"23/6"	29
controllo_3	"POPTR_0002s21420.1"	2190	"	"A/G"	"71,6/28,4"	"78/31"	109	stress_12bis	"POPTR_0002s21420.1"	2190	"	"A/G"	"74,2/25,8"	"23/8"	31
controllo_3	"POPTR_0002s21420.1"	2190	"	"A/G"	"71,6/28,4"	"78/31"	109	stress_42	"POPTR_0002s21420.1"	2190	"	"A/G"	"54,5/45,5"	"18/15"	33
controllo_3	"POPTR_0002s21420.1"	2190	"	"A/G"	"71,6/28,4"	"78/31"	109	stress_45	"POPTR_0002s21420.1"	2190	"	"A/G"	"63,9/36,1"	"23/13"	36
controllo_3	"POPTR_0016s08580.1"	474	"	"A/G"	"71,6/28,4"	"192/76"	268	stress_12bis	"POPTR_0016s08580.1"	474	"	"A/G"	"80,0/20,0"	"60/15"	75
controllo_3	"POPTR_0016s08580.1"	474	"	"A/G"	"71,6/28,4"	"192/76"	268	stress_42	"POPTR_0016s08580.1"	474	"	"A/G"	"69,4/30,6"	"34/15"	49
controllo_3	"POPTR_0016s08580.1"	474	"	"A/G"	"71,6/28,4"	"192/76"	268	stress_45	"POPTR_0016s08580.1"	474	"	"A/G"	"78,3/21,7"	"54/15"	69
controllo_3	"POPTR_0009s03610.1"	66	"	"A/C"	"71,7/27,6"	"208/80"	290	stress_12bis	"POPTR_0009s03610.1"	66	"	"A/C"	"60,9/39,1"	"14/9"	23
controllo_3	"POPTR_0006s00780.1"	899	"	"C/G"	"71,7/28,3"	"76/30"	106	stress_12bis	"POPTR_0006s00780.1"	899	"	"G/C"	"57,1/42,9"	"8/6"	14
controllo_3	"POPTR_0002s21420.1"	2007	"	"A/G"	"71,7/28,3"	"104/41"	145	stress_12bis	"POPTR_0002s21420.1"	2007	"	"A/G"	"64,5/35,5"	"20/11"	31
controllo_3	"POPTR_0002s21420.1"	2007	"	"A/G"	"71,7/28,3"	"104/41"	145	stress_42	"POPTR_0002s21420.1"	2007	"	"A/G"	"66,7/33,3"	"32/16"	48
controllo_3	"POPTR_0002s21420.1"	2007	"	"A/G"	"71,7/28,3"	"104/41"	145	stress_45	"POPTR_0002s21420.1"	2007	"	"A/G"	"63,3/36,7"	"38/22"	60
controllo_3	"POPTR_0014s13560.1"	1242	"	"C/A"	"71,8/27,9"	"262/102"	365	stress_12bis	"POPTR_0014s13560.1"	1242	"	"C/A"	"79,4/20,6"	"104/27"	131
controllo_3	"POPTR_0014s13560.1"	1242	"	"C/A"	"71,8/27,9"	"262/102"	365	stress_45	"POPTR_0014s13560.1"	1242	"	"C/A"	"75,0/25,0"	"78/26"	104
controllo_3	"POPTR_0008s19370.1"	420	"	"G/A"	"71,8/28,1"	"954/374"	1329	stress_12bis	"POPTR_0008s19370.1"	420	"	"G/A"	"74,0/26,0"	"582/205"	787
controllo_3	"POPTR_0018s01830.1"	639	"	"T/C"	"71,8/28,2"	"74/29"	103	stress_12bis	"POPTR_0018s01830.1"	639	"	"T/C"	"78,4/21,6"	"29/8"	37
controllo_3	"POPTR_0018s01830.1"	639	"	"T/C"	"71,8/28,2"	"74/29"	103	stress_45	"POPTR_0018s01830.1"	639	"	"T/C"	"60,0/40,0"	"6/4"	10
controllo_3	"POPTR_0018s11820.1"	87	"	"A/T"	"71,8/28,2"	"188/74"	262	stress_12bis	"POPTR_0018s11820.1"	87	"	"A/T"	"60,5/39,5"	"46/30"	76
controllo_3	"POPTR_0018s11820.1"	87	"	"A/T"	"71,8/28,2"	"188/74"	262	stress_42	"POPTR_0018s11820.1"	87	"	"A/T"	"66,7/33,3"	"8/4"	12
controllo_3	"POPTR_0003s06370.1"	571	"	"T/A"	"71,8/28,2"	"229/90"	319	stress_12bis	"POPTR_0003s06370.1"	571	"	"T/A"	"65,2/34,8"	"15/8"	23
controllo_3	"POPTR_0013s07050.1"	1300	"	"G/A"	"71,8/28,2"	"107/42"	149	stress_12bis	"POPTR_0013s07050.1"	1300	"	"G/A"	"60,5/39,5"	"26/17"	43
controllo_3	"POPTR_0013s07050.1"	1300	"	"G/A"	"71,8/28,2"	"107/42"	149	stress_42	"POPTR_0013s07050.1"	1300	"	"G/A"	"71,9/28,1"	"23/9"	32
controllo_3	"POPTR_0013s07050.1"	1300	"	"G/A"	"71,8/28,2"	"107/42"	149	stress_45	"POPTR_0013s07050.1"	1300	"	"G/A"	"58,7/41,3"	"37/26"	63
controllo_3	"POPTR_0004s23310.1"	1531	"	"G/A"	"71,8/28,2"	"84/33"	117	stress_12bis	"POPTR_0004s23310.1"	1531	"	"G/A"	"84,6/15,4"	"22/4"	26
controllo_3	"POPTR_0004s23310.1"	1531	"	"G/A"	"71,8/28,2"	"84/33"	117	stress_42	"POPTR_0004s23310.1"	1531	"	"A/G"	"68,8/31,2"	"11/5"	16
controllo_3	"POPTR_0004s23310.1"	1531	"	"G/A"	"71,8/28,2"	"84/33"	117	stress_45	"POPTR_0004s23310.1"	1531	"	"A/G"	"67,9/32,1"	"19/9"	28
controllo_3	"POPTR_0001s07870.1"	1278	"	"C/T"	"71,8/28,2"	"89/35"	124	stress_12bis	"POPTR_0001s07870.1"	1278	"	"C/T"	"66,7/33,3"	"10/5"	15
controllo_3	"POPTR_0001s07870.1"	1278	"	"C/T"	"71,8/28,2"	"89/35"	124	stress_42	"POPTR_0001s07870.1"	1278	"	"C/T"	"77,8/22,2"	"14/4"	18
controllo_3	"POPTR_0001s07870.1"	1278	"	"C/T"	"71,8/28,2"	"89/35"	124	stress_45	"POPTR_0001s07870.1"	1278	"	"C/T"	"82,9/17,1"	"29/6"	35
controllo_3	"POPTR_0010s21280.1"	1449	"	"C/T"	"71,8/28,2"	"280/110"	390	stress_12bis	"POPTR_0010s21280.1"	1449	"	"C/T"	"71,3/28,7"	"122/49"	171
controllo_3	"POPTR_0010s21280.1"	1449	"	"C/T"	"71,8/28,2"	"280/110"	390	stress_42	"POPTR_0010s21280.1"	1449	"	"C/T"	"80,4/19,6"	"45/11"	56
controllo_3	"POPTR_0010s21280.1"	1449	"	"C/T"	"71,8/28,2"	"280/110"	390	stress_45	"POPTR_0010s21280.1"	1449	"	"C/T"	"73,0/27,0"	"92/34"	126
controllo_3	"POPTR_0010s21270.1"	969	"	"A/G"	"71,8/28,2"	"117/46"	163	stress_12bis	"POPTR_0010s21270.1"	969	"	"A/G"	"81,8/18,2"	"63/14"	77
controllo_3	"POPTR_0010s21270.1"	969	"	"A/G"	"71,8/28,2"	"117/46"	163	stress_42	"POPTR_0010s21270.1"	969	"	"A/G"	"83,3/16,7"	"15/3"	18
controllo_3	"POPTR_0010s21270.1"	969	"	"A/G"	"71,8/28,2"	"117/46"	163	stress_45	"POPTR_0010s21270.1"	969	"	"A/G"	"79,4/20,6"	"50/13"	63
controllo_3	"POPTR_0008s16890.1"	765	"	"G/T"	"71,8/28,2"	"74/29"	103	stress_12bis	"POPTR_0008s16890.1"	765	"	"T/G"	"52,4/47,6"	"11/10"	21
controllo_3	"POPTR_0008s17090.1"	153	"	"T/A"	"71,8/28,2"	"102/40"	142	stress_42	"POPTR_0008s17090.1"	153	"	"T/A"	"82,4/17,6"	"14/3"	17
controllo_3	"POPTR_0005s26930.1"	613	"	"T/A"	"71,9/28,1"	"271/106"	377	stress_12bis	"POPTR_0005s26930.1"	613	"	"T/A"	"56,8/43,2"	"50/38"	88
controllo_3	"POPTR_0005s26930.1"	613	"	"T/A"	"71,9/28,1"	"271/106"	377	stress_42	"POPTR_0005s26930.1"	613	"	"A/T"	"53,1/46,9"	"17/15"	32
controllo_3	"POPTR_0005s26930.1"	613	"	"T/A"	"71,9/28,1"	"271/106"	377	stress_45	"POPTR_0005s26930.1"	613	"	"A/T"	"63,3/36,7"	"19/11"	30
controllo_3	"POPTR_0005s21750.1"	546	"	"A/G"	"71,9/28,1"	"166/65"	231	stress_12bis	"POPTR_0005s21750.1"	546	"	"A/G"	"55,9/44,1"	"71/56"	127
controllo_3	"POPTR_0005s21750.1"	546	"	"A/G"	"71,9/28,1"	"166/65"	231	stress_42	"POPTR_0005s21750.1"	546	"	"G/A"	"55,1/44,9"	"86/70"	156
controllo_3	"POPTR_0005s21750.1"	546	"	"A/G"	"71,9/28,1"	"166/65"	231	stress_45	"POPTR_0005s21750.1"	546	"	"G/A"	"53,4/46,6"	"79/69"	148
controllo_3	"POPTR_0005s15660.1"	257	"	"G/A"	"71,9/28,1"	"10620/4156"	14777	stress_12bis	"POPTR_0005s15660.1"	257	"	"G/A"	"72,3/27,6"	"2684/1023"	3710
controllo_3	"POPTR_0005s15660.1"	257	"	"G/A"	"71,9/28,1"	"10620/4156"	14777	stress_42	"POPTR_0005s15660.1"	257	"	"G/A"	"71,1/28,9"	"787/320"	1107
controllo_3	"POPTR_0005s15660.1"	257	"	"G/A"	"71,9/28,1"	"10620/4156"	14777	stress_45	"POPTR_0005s15660.1"	257	"	"G/A"	"64,7/35,3"	"580/316"	896
controllo_3	"POPTR_0003s20870.1"	1625	"	"A/T"	"71,9/28,1"	"105/41"	146	stress_12bis	"POPTR_0003s20870.1"	1625	"	"T/A"	"53,7/46,3"	"22/19"	41
controllo_3	"POPTR_0003s20870.1"	1625	"	"A/T"	"71,9/28,1"	"105/41"	146	stress_42	"POPTR_0003s20870.1"	1625	"	"A/T"	"54,5/45,5"	"12/10"	22
controllo_3	"POPTR_0003s20870.1"	1625	"	"A/T"	"71,9/28,1"	"105/41"	146	stress_45	"POPTR_0003s20870.1"	1625	"	"A/T"	"66,7/33,3"	"26/13"	39
controllo_3	"POPTR_0011s05250.1"	1680	"	"C/T"	"71,9/28,1"	"105/41"	146	stress_12bis	"POPTR_0011s05250.1"	1680	"	"C/T"	"75,5/24,5"	"74/24"	98
controllo_3	"POPTR_0011s05250.1"	1680	"	"C/T"	"71,9/28,1"	"105/41"	146	stress_42	"POPTR_0011s05250.1"	1680	"	"C/T"	"83,9/16,1"	"115/22"	137
controllo_3	"POPTR_0001s07850.1"	1240	"	"A/T"	"71,9/28,1"	"187/73"	260	stress_12bis	"POPTR_0001s07850.1"	1240	"	"A/T"	"78,6/21,4"	"33/9"	42
controllo_3	"POPTR_0001s07850.1"	1240	"	"A/T"	"71,9/28,1"	"187/73"	260	stress_45	"POPTR_0001s07850.1"	1240	"	"A/T"	"62,9/35,7"	"44/25"	70
controllo_3	"POPTR_0001s02040.1"	152	"	"G/A"	"71,9/28,1"	"120/47"	167	stress_12bis	"POPTR_0001s02040.1"	152	"	"G/A"	"69,5/30,5"	"41/18"	59
controllo_3	"POPTR_0001s02040.1"	152	"	"G/A"	"71,9/28,1"	"120/47"	167	stress_42	"POPTR_0001s02040.1"	152	"	"G/A"	"61,3/38,7"	"19/12"	31
controllo_3	"POPTR_0001s02040.1"	152	"	"G/A"	"71,9/28,1"	"120/47"	167	stress_45	"POPTR_0001s02040.1"	152	"	"A/G"	"59,1/40,9"	"26/18"	44
controllo_3	"POPTR_0002s25260.1"	405	"	"C/T"	"71,9/28,1"	"133/52"	185	stress_12bis	"POPTR_0002s25260.1"	405	"	"C/T"	"61,3/38,7"	"84/53"	137
controllo_3	"POPTR_0002s25260.1"	405	"	"C/T"	"71,9/28,1"	"133/52"	185	stress_42	"POPTR_0002s25260.1"	405	"	"T/C"	"66,0/34,0"	"68/35"	103
controllo_3	"POPTR_0002s25260.1"	405	"	"C/T"	"71,9/28,1"	"133/52"	185	stress_45	"POPTR_0002s25260.1"	405	"	"C/T"	"50,0/50,0"	"75/75"	150
controllo_3	"POPTR_0008s13780.1"	688	"	"G/A"	"71,9/28,1"	"274/107"	381	stress_12bis	"POPTR_0008s13780.1"	688	"	"G/A"	"54,2/45,8"	"32/27"	59
controllo_3	"POPTR_0008s13780.1"	688	"	"G/A"	"71,9/28,1"	"274/107"	381	stress_42	"POPTR_0008s13780.1"	688	"	"G/A"	"59,3/40,7"	"16/11"	27
controllo_3	"POPTR_0008s13780.1"	688	"	"G/A"	"71,9/28,1"	"274/107"	381	stress_45	"POPTR_0008s13780.1"	688	"	"G/A"	"73,8/26,2"	"31/11"	42
controllo_3	"POPTR_0006s23580.1"	608	"	"T/C"	"72,0/28,0"	"77/30"	107	stress_12bis	"POPTR_0006s23580.1"	608	"	"T/C"	"76,0/24,0"	"19/6"	25
controllo_3	"POPTR_0006s23580.1"	608	"	"T/C"	"72,0/28,0"	"77/30"	107	stress_42	"POPTR_0006s23580.1"	608	"	"T/C"	"66,0/34,0"	"33/17"	50
controllo_3	"POPTR_0006s23580.1"	608	"	"T/C"	"72,0/28,0"	"77/30"	107	stress_45	"POPTR_0006s23580.1"	608	"	"T/C"	"67,9/32,1"	"38/18"	56
controllo_3	"POPTR_0014s06370.1"	366	"	"C/T"	"72,0/28,0"	"131/51"	182	stress_12bis	"POPTR_0014s06370.1"	366	"	"C/T"	"70,2/29,8"	"40/17"	57
controllo_3	"POPTR_0014s06370.1"	366	"	"C/T"	"72,0/28,0"	"131/51"	182	stress_42	"POPTR_0014s06370.1"	366	"	"C/T"	"68,2/31,8"	"30/14"	44
controllo_3	"POPTR_0014s06370.1"	366	"	"C/T"	"72,0/28,0"	"131/51"	182	stress_45	"POPTR_0014s06370.1"	366	"	"C/T"	"60,0/40,0"	"42/28"	70
controllo_3	"POPTR_0010s20060.1"	573	"	"C/T"	"72,0/28,0"	"314/122"	436	stress_12bis	"POPTR_0010s20060.1"	573	"	"C/T"	"66,9/33,1"	"83/41"	124
controllo_3	"POPTR_0010s20060.1"	573	"	"C/T"	"72,0/28,0"	"314/122"	436	stress_42	"POPTR_0010s20060.1"	573	"	"C/T"	"66,7/33,3"	"24/12"	36
controllo_3	"POPTR_0010s20060.1"	573	"	"C/T"	"72,0/28,0"	"314/122"	436	stress_45	"POPTR_0010s20060.1"	573	"	"C/T"	"67,7/32,3"	"21/10"	31
controllo_3	"POPTR_0007s15300.1"	495	"	"G/T"	"72,0/28,0"	"36/14"	50	stress_45	"POPTR_0007s15300.1"	495	"	"G/T"	"65,1/34,9"	"71/38"	109
controllo_3	"POPTR_0014s14200.1"	756	"	"T/C"	"72,1/27,9"	"173/67"	240	stress_12bis	"POPTR_0014s14200.1"	756	"	"T/C"	"56,2/43,8"	"9/7"	16
controllo_3	"POPTR_0014s14200.1"	756	"	"T/C"	"72,1/27,9"	"173/67"	240	stress_42	"POPTR_0014s14200.1"	756	"	"T/C"	"71,0/29,0"	"22/9"	31
controllo_3	"POPTR_0014s14200.1"	756	"	"T/C"	"72,1/27,9"	"173/67"	240	stress_45	"POPTR_0014s14200.1"	756	"	"T/C"	"84,3/15,7"	"102/19"	121
controllo_3	"POPTR_0004s16740.1"	86	"	"T/C"	"72,1/27,9"	"101/39"	140	stress_12bis	"POPTR_0004s16740.1"	86	"	"T/C"	"59,4/40,6"	"19/13"	32
controllo_3	"POPTR_0004s16740.1"	86	"	"T/C"	"72,1/27,9"	"101/39"	140	stress_42	"POPTR_0004s16740.1"	86	"	"T/C"	"60,6/39,4"	"20/13"	33
controllo_3	"POPTR_0004s16740.1"	86	"	"T/C"	"72,1/27,9"	"101/39"	140	stress_45	"POPTR_0004s16740.1"	86	"	"T/C"	"68,5/31,5"	"37/17"	54
controllo_3	"POPTR_0009s13210.1"	639	"	"T/C"	"72,1/27,9"	"93/36"	129	stress_12bis	"POPTR_0009s13210.1"	639	"	"T/C"	"77,8/22,2"	"21/6"	27
controllo_3	"POPTR_0009s13210.1"	639	"	"T/C"	"72,1/27,9"	"93/36"	129	stress_42	"POPTR_0009s13210.1"	639	"	"T/C"	"64,3/35,7"	"9/5"	14
controllo_3	"POPTR_0009s13210.1"	639	"	"T/C"	"72,1/27,9"	"93/36"	129	stress_45	"POPTR_0009s13210.1"	639	"	"T/C"	"66,7/33,3"	"8/4"	12
controllo_3	"POPTR_0015s12900.1"	479	"	"C/T"	"72,1/27,9"	"132/51"	183	stress_12bis	"POPTR_0015s12900.1"	479	"	"C/T"	"57,8/42,2"	"48/35"	83
controllo_3	"POPTR_0015s12900.1"	479	"	"C/T"	"72,1/27,9"	"132/51"	183	stress_42	"POPTR_0015s12900.1"	479	"	"C/T"	"79,3/20,7"	"46/12"	58
controllo_3	"POPTR_0015s12900.1"	479	"	"C/T"	"72,1/27,9"	"132/51"	183	stress_45	"POPTR_0015s12900.1"	479	"	"C/T"	"61,9/38,1"	"39/24"	63
controllo_3	"POPTR_0002s09480.1"	877	"	"C/T"	"72,1/27,9"	"31/12"	43	stress_45	"POPTR_0002s09480.1"	877	"	"C/T"	"67,0/33,0"	"77/38"	115
controllo_3	"POPTR_0019s04750.1"	777	"	"A/C"	"72,2/27,2"	"114/43"	158	stress_12bis	"POPTR_0019s04750.1"	777	"	"A/C"	"70,5/29,5"	"79/33"	112
controllo_3	"POPTR_0019s04750.1"	777	"	"A/C"	"72,2/27,2"	"114/43"	158	stress_42	"POPTR_0019s04750.1"	777	"	"A/C"	"77,3/22,7"	"99/29"	128
controllo_3	"POPTR_0019s04750.1"	777	"	"A/C"	"72,2/27,2"	"114/43"	158	stress_45	"POPTR_0019s04750.1"	777	"	"A/C"	"76,5/23,5"	"52/16"	68
controllo_3	"POPTR_0006s24520.1"	262	"	"A/T"	"72,2/27,3"	"127/48"	176	stress_12bis	"POPTR_0006s24520.1"	262	"	"A/T"	"68,2/31,8"	"15/7"	22
controllo_3	"POPTR_0003s21070.1"	516	"	"C/T"	"72,2/27,8"	"91/35"	126	stress_12bis	"POPTR_0003s21070.1"	516	"	"C/T"	"72,0/28,0"	"18/7"	25
controllo_3	"POPTR_0003s21070.1"	516	"	"C/T"	"72,2/27,8"	"91/35"	126	stress_42	"POPTR_0003s21070.1"	516	"	"C/T"	"76,9/23,1"	"10/3"	13
controllo_3	"POPTR_0003s21070.1"	516	"	"C/T"	"72,2/27,8"	"91/35"	126	stress_45	"POPTR_0003s21070.1"	516	"	"C/T"	"81,8/18,2"	"18/4"	22
controllo_3	"POPTR_0011s03570.1"	547	"	"G/A"	"72,2/27,8"	"13/5"	18	stress_42	"POPTR_0011s03570.1"	547	"	"G/A"	"61,8/38,2"	"157/97"	254
controllo_3	"POPTR_0011s03570.1"	547	"	"G/A"	"72,2/27,8"	"13/5"	18	stress_45	"POPTR_0011s03570.1"	547	"	"G/A"	"62,7/37,3"	"96/57"	153
controllo_3	"POPTR_0001s42970.1"	69	"	"A/G"	"72,2/27,8"	"969/373"	1342	stress_12bis	"POPTR_0001s42970.1"	69	"	"A/G"	"76,3/23,5"	"376/116"	493
controllo_3	"POPTR_0001s42970.1"	69	"	"A/G"	"72,2/27,8"	"969/373"	1342	stress_42	"POPTR_0001s42970.1"	69	"	"A/G"	"80,5/18,4"	"70/16"	87
controllo_3	"POPTR_0001s42970.1"	69	"	"A/G"	"72,2/27,8"	"969/373"	1342	stress_45	"POPTR_0001s42970.1"	69	"	"A/G"	"66,7/33,3"	"42/21"	63
controllo_3	"POPTR_0008s20770.1"	165	"	"A/C"	"72,2/27,8"	"307/118"	425	stress_12bis	"POPTR_0008s20770.1"	165	"	"A/C"	"58,5/41,5"	"134/95"	229
controllo_3	"POPTR_0008s20770.1"	165	"	"A/C"	"72,2/27,8"	"307/118"	425	stress_42	"POPTR_0008s20770.1"	165	"	"C/A"	"55,2/44,8"	"79/64"	143
controllo_3	"POPTR_0008s20770.1"	165	"	"A/C"	"72,2/27,8"	"307/118"	425	stress_45	"POPTR_0008s20770.1"	165	"	"C/A"	"60,0/40,0"	"102/68"	170
controllo_3	"POPTR_0008s15780.1"	376	"	"A/T"	"72,2/27,8"	"690/266"	956	stress_12bis	"POPTR_0008s15780.1"	376	"	"A/T"	"74,9/25,1"	"256/86"	342
controllo_3	"POPTR_0008s15780.1"	376	"	"A/T"	"72,2/27,8"	"690/266"	956	stress_42	"POPTR_0008s15780.1"	376	"	"A/T"	"76,7/23,3"	"385/117"	502
controllo_3	"POPTR_0008s15780.1"	376	"	"A/T"	"72,2/27,8"	"690/266"	956	stress_45	"POPTR_0008s15780.1"	376	"	"A/T"	"68,1/31,9"	"286/134"	420
controllo_3	"POPTR_0006s00780.1"	900	"	"A/G"	"72,3/27,7"	"73/28"	101	stress_12bis	"POPTR_0006s00780.1"	900	"	"A/G"	"50,0/50,0"	"6/6"	12
controllo_3	"POPTR_0018s04240.1"	432	"	"T/C"	"72,3/27,7"	"128/49"	177	stress_12bis	"POPTR_0018s04240.1"	432	"	"T/C"	"54,5/45,5"	"24/20"	44
controllo_3	"POPTR_0018s04240.1"	432	"	"T/C"	"72,3/27,7"	"128/49"	177	stress_42	"POPTR_0018s04240.1"	432	"	"T/C"	"64,9/35,1"	"24/13"	37
controllo_3	"POPTR_0018s04240.1"	432	"	"T/C"	"72,3/27,7"	"128/49"	177	stress_45	"POPTR_0018s04240.1"	432	"	"T/C"	"57,9/42,1"	"22/16"	38
controllo_3	"POPTR_0019s04750.1"	794	"	"T/A"	"72,3/27,7"	"94/36"	130	stress_12bis	"POPTR_0019s04750.1"	794	"	"T/A"	"64,7/35,3"	"75/41"	116
controllo_3	"POPTR_0019s04750.1"	794	"	"T/A"	"72,3/27,7"	"94/36"	130	stress_42	"POPTR_0019s04750.1"	794	"	"T/A"	"70,2/29,8"	"66/28"	94
controllo_3	"POPTR_0019s04750.1"	794	"	"T/A"	"72,3/27,7"	"94/36"	130	stress_45	"POPTR_0019s04750.1"	794	"	"T/A"	"72,9/27,1"	"51/19"	70
controllo_3	"POPTR_0009s12790.1"	441	"	"C/T"	"72,3/27,7"	"81/31"	112	stress_42	"POPTR_0009s12790.1"	441	"	"C/T"	"70,6/29,4"	"24/10"	34
controllo_3	"POPTR_0001s36870.1"	1156	"	"C/T"	"72,3/27,7"	"73/28"	101	stress_12bis	"POPTR_0001s36870.1"	1156	"	"C/T"	"65,4/34,6"	"17/9"	26
controllo_3	"POPTR_0001s36870.1"	1156	"	"C/T"	"72,3/27,7"	"73/28"	101	stress_42	"POPTR_0001s36870.1"	1156	"	"T/C"	"52,9/47,1"	"9/8"	17
controllo_3	"POPTR_0001s36870.1"	1156	"	"C/T"	"72,3/27,7"	"73/28"	101	stress_45	"POPTR_0001s36870.1"	1156	"	"C/T"	"66,7/33,3"	"16/8"	24
controllo_3	"POPTR_0001s02040.1"	248	"	"T/C"	"72,3/27,7"	"115/44"	159	stress_12bis	"POPTR_0001s02040.1"	248	"	"T/C"	"56,2/43,8"	"36/28"	64
controllo_3	"POPTR_0001s02040.1"	248	"	"T/C"	"72,3/27,7"	"115/44"	159	stress_42	"POPTR_0001s02040.1"	248	"	"T/C"	"71,4/28,6"	"15/6"	21
controllo_3	"POPTR_0001s02040.1"	248	"	"T/C"	"72,3/27,7"	"115/44"	159	stress_45	"POPTR_0001s02040.1"	248	"	"T/C"	"61,2/38,8"	"30/19"	49
controllo_3	"POPTR_0010s21280.1"	741	"	"T/C"	"72,3/27,7"	"324/124"	448	stress_12bis	"POPTR_0010s21280.1"	741	"	"T/C"	"74,7/25,3"	"121/41"	162
controllo_3	"POPTR_0010s21280.1"	741	"	"T/C"	"72,3/27,7"	"324/124"	448	stress_42	"POPTR_0010s21280.1"	741	"	"T/C"	"78,4/21,6"	"40/11"	51
controllo_3	"POPTR_0010s21280.1"	741	"	"T/C"	"72,3/27,7"	"324/124"	448	stress_45	"POPTR_0010s21280.1"	741	"	"T/C"	"71,3/28,7"	"124/50"	174
controllo_3	"POPTR_0008s04270.1"	900	"	"T/G"	"72,3/27,7"	"112/43"	155	stress_12bis	"POPTR_0008s04270.1"	900	"	"T/G"	"69,8/30,2"	"37/16"	53
controllo_3	"POPTR_0008s04270.1"	900	"	"T/G"	"72,3/27,7"	"112/43"	155	stress_42	"POPTR_0008s04270.1"	900	"	"T/G"	"60,6/39,4"	"63/41"	104
controllo_3	"POPTR_0008s04270.1"	900	"	"T/G"	"72,3/27,7"	"112/43"	155	stress_45	"POPTR_0008s04270.1"	900	"	"T/G"	"70,1/29,9"	"138/59"	197
controllo_3	"POPTR_0018s01830.1"	453	"	"T/G"	"72,4/27,1"	"296/111"	409	stress_12bis	"POPTR_0018s01830.1"	453	"	"T/G"	"77,4/22,6"	"106/31"	137
controllo_3	"POPTR_0018s01830.1"	453	"	"T/G"	"72,4/27,1"	"296/111"	409	stress_42	"POPTR_0018s01830.1"	453	"	"G/T"	"51,6/48,4"	"16/15"	31
controllo_3	"POPTR_0018s01830.1"	453	"	"T/G"	"72,4/27,1"	"296/111"	409	stress_45	"POPTR_0018s01830.1"	453	"	"T/G"	"59,6/40,4"	"31/21"	52
controllo_3	"POPTR_0003s20870.1"	732	"	"C/T"	"72,4/27,6"	"110/42"	152	stress_12bis	"POPTR_0003s20870.1"	732	"	"C/T"	"67,4/32,6"	"29/14"	43
controllo_3	"POPTR_0003s20870.1"	732	"	"C/T"	"72,4/27,6"	"110/42"	152	stress_45	"POPTR_0003s20870.1"	732	"	"C/T"	"60,0/40,0"	"18/12"	30
controllo_3	"POPTR_0004s16740.1"	510	"	"A/G"	"72,4/27,6"	"173/66"	239	stress_12bis	"POPTR_0004s16740.1"	510	"	"A/G"	"61,9/38,1"	"39/24"	63
controllo_3	"POPTR_0004s16740.1"	510	"	"A/G"	"72,4/27,6"	"173/66"	239	stress_42	"POPTR_0004s16740.1"	510	"	"A/G"	"62,7/37,3"	"42/25"	67
controllo_3	"POPTR_0004s16740.1"	510	"	"A/G"	"72,4/27,6"	"173/66"	239	stress_45	"POPTR_0004s16740.1"	510	"	"A/G"	"71,6/28,4"	"58/23"	81
controllo_3	"POPTR_0009s13210.1"	897	"	"T/C"	"72,4/27,6"	"89/34"	123	stress_12bis	"POPTR_0009s13210.1"	897	"	"T/C"	"59,5/35,7"	"25/15"	42
controllo_3	"POPTR_0009s13210.1"	897	"	"T/C"	"72,4/27,6"	"89/34"	123	stress_45	"POPTR_0009s13210.1"	897	"	"C/T"	"50,0/50,0"	"5/5"	10
controllo_3	"POPTR_0011s13820.1"	477	"	"C/T"	"72,4/27,6"	"76/29"	105	stress_12bis	"POPTR_0011s13820.1"	477	"	"C/T"	"84,8/15,2"	"39/7"	46
controllo_3	"POPTR_0001s07850.1"	1317	"	"G/A"	"72,4/27,6"	"168/64"	232	stress_12bis	"POPTR_0001s07850.1"	1317	"	"G/A"	"78,6/21,4"	"44/12"	56
controllo_3	"POPTR_0001s07850.1"	1317	"	"G/A"	"72,4/27,6"	"168/64"	232	stress_42	"POPTR_0001s07850.1"	1317	"	"G/A"	"63,1/36,9"	"41/24"	65
controllo_3	"POPTR_0001s07850.1"	1317	"	"G/A"	"72,4/27,6"	"168/64"	232	stress_45	"POPTR_0001s07850.1"	1317	"	"G/A"	"64,7/35,3"	"44/24"	68
controllo_3	"POPTR_0010s16790.1"	1758	"	"T/C"	"72,4/27,6"	"76/29"	105	stress_12bis	"POPTR_0010s16790.1"	1758	"	"T/C"	"58,6/41,4"	"17/12"	29
controllo_3	"POPTR_0010s16790.1"	1758	"	"T/C"	"72,4/27,6"	"76/29"	105	stress_42	"POPTR_0010s16790.1"	1758	"	"T/C"	"83,3/16,7"	"15/3"	18
controllo_3	"POPTR_0010s16790.1"	1758	"	"T/C"	"72,4/27,6"	"76/29"	105	stress_45	"POPTR_0010s16790.1"	1758	"	"T/C"	"70,8/29,2"	"17/7"	24
controllo_3	"POPTR_0007s08400.1"	219	"	"T/C"	"72,4/27,6"	"123/47"	170	stress_12bis	"POPTR_0007s08400.1"	219	"	"T/C"	"72,0/28,0"	"18/7"	25
controllo_3	"POPTR_0007s08400.1"	219	"	"T/C"	"72,4/27,6"	"123/47"	170	stress_42	"POPTR_0007s08400.1"	219	"	"T/C"	"66,7/33,3"	"16/8"	24
controllo_3	"POPTR_0007s08400.1"	219	"	"T/C"	"72,4/27,6"	"123/47"	170	stress_45	"POPTR_0007s08400.1"	219	"	"T/C"	"79,3/20,7"	"69/18"	87
controllo_3	"POPTR_0007s04191.1"	684	"	"C/A"	"72,4/27,6"	"76/29"	105	stress_12bis	"POPTR_0007s04191.1"	684	"	"C/A"	"75,0/25,0"	"12/4"	16
controllo_3	"POPTR_0008s16890.1"	768	"	"T/C"	"72,4/27,6"	"76/29"	105	stress_12bis	"POPTR_0008s16890.1"	768	"	"C/T"	"50,0/50,0"	"10/10"	20
controllo_3	"POPTR_0016s06540.1"	276	"	"G/A"	"72,4/27,6"	"92/35"	127	stress_12bis	"POPTR_0016s06540.1"	276	"	"G/A"	"62,5/37,5"	"10/6"	16
controllo_3	"POPTR_0017s05700.1"	171	"	"T/C"	"72,5/27,5"	"242/92"	334	stress_12bis	"POPTR_0017s05700.1"	171	"	"T/C"	"70,8/29,2"	"68/28"	96
controllo_3	"POPTR_0017s05700.1"	171	"	"T/C"	"72,5/27,5"	"242/92"	334	stress_42	"POPTR_0017s05700.1"	171	"	"T/C"	"74,1/25,9"	"43/15"	58
controllo_3	"POPTR_0017s05700.1"	171	"	"T/C"	"72,5/27,5"	"242/92"	334	stress_45	"POPTR_0017s05700.1"	171	"	"T/C"	"64,2/35,8"	"52/29"	81
controllo_3	"POPTR_0014s06370.1"	357	"	"T/C"	"72,5/27,5"	"140/53"	193	stress_12bis	"POPTR_0014s06370.1"	357	"	"T/C"	"60,6/39,4"	"40/26"	66
controllo_3	"POPTR_0014s06370.1"	357	"	"T/C"	"72,5/27,5"	"140/53"	193	stress_42	"POPTR_0014s06370.1"	357	"	"T/C"	"69,8/30,2"	"30/13"	43
controllo_3	"POPTR_0014s06370.1"	357	"	"T/C"	"72,5/27,5"	"140/53"	193	stress_45	"POPTR_0014s06370.1"	357	"	"T/C"	"62,9/37,1"	"44/26"	70
controllo_3	"POPTR_0009s10780.1"	303	"	"A/T"	"72,5/27,5"	"111/42"	153	stress_12bis	"POPTR_0009s10780.1"	303	"	"A/T"	"62,5/37,5"	"10/6"	16
controllo_3	"POPTR_0011s00500.1"	69	"	"T/C"	"72,5/27,5"	"271/103"	374	stress_12bis	"POPTR_0011s00500.1"	69	"	"T/C"	"64,3/35,7"	"9/5"	14
controllo_3	"POPTR_0001s36870.1"	807	"	"C/A"	"72,5/27,5"	"79/30"	109	stress_12bis	"POPTR_0001s36870.1"	807	"	"C/A"	"58,6/41,4"	"17/12"	29
controllo_3	"POPTR_0001s36870.1"	807	"	"C/A"	"72,5/27,5"	"79/30"	109	stress_42	"POPTR_0001s36870.1"	807	"	"A/C"	"50,0/50,0"	"9/9"	18
controllo_3	"POPTR_0001s36870.1"	807	"	"C/A"	"72,5/27,5"	"79/30"	109	stress_45	"POPTR_0001s36870.1"	807	"	"C/A"	"56,5/43,5"	"13/10"	23
controllo_3	"POPTR_0010s05170.1"	912	"	"G/A"	"72,5/27,5"	"280/106"	386	stress_12bis	"POPTR_0010s05170.1"	912	"	"A/G"	"73,3/26,7"	"44/16"	60
controllo_3	"POPTR_0010s16160.1"	25	"	"A/G"	"72,5/27,5"	"145/55"	200	stress_12bis	"POPTR_0010s16160.1"	25	"	"A/G"	"61,3/38,7"	"19/12"	31
controllo_3	"POPTR_0010s16160.1"	25	"	"A/G"	"72,5/27,5"	"145/55"	200	stress_42	"POPTR_0010s16160.1"	25	"	"A/G"	"50,0/50,0"	"10/10"	20
controllo_3	"POPTR_0010s16160.1"	25	"	"A/G"	"72,5/27,5"	"145/55"	200	stress_45	"POPTR_0010s16160.1"	25	"	"G/A"	"57,1/42,9"	"12/9"	21
controllo_3	"POPTR_0008s19370.1"	246	"	"A/T"	"72,5/27,5"	"1281/487"	1768	stress_12bis	"POPTR_0008s19370.1"	246	"	"A/T"	"75,1/24,8"	"782/258"	1041
controllo_3	"POPTR_0008s19370.1"	246	"	"A/T"	"72,5/27,5"	"1281/487"	1768	stress_42	"POPTR_0008s19370.1"	246	"	"A/T"	"78,6/21,4"	"44/12"	56
controllo_3	"POPTR_0010s16790.1"	1158	"	"T/G"	"72,6/26,5"	"82/30"	113	stress_12bis	"POPTR_0010s16790.1"	1158	"	"T/G"	"60,6/39,4"	"20/13"	33
controllo_3	"POPTR_0010s16790.1"	1158	"	"T/G"	"72,6/26,5"	"82/30"	113	stress_42	"POPTR_0010s16790.1"	1158	"	"T/G"	"75,0/25,0"	"12/4"	16
controllo_3	"POPTR_0010s16790.1"	1158	"	"T/G"	"72,6/26,5"	"82/30"	113	stress_45	"POPTR_0010s16790.1"	1158	"	"T/G"	"75,0/25,0"	"18/6"	24
controllo_3	"POPTR_0006s24520.1"	267	"	"C/A"	"72,6/27,4"	"122/46"	168	stress_12bis	"POPTR_0006s24520.1"	267	"	"C/A"	"68,0/32,0"	"17/8"	25
controllo_3	"POPTR_0002s03020.1"	663	"	"A/T"	"72,6/27,4"	"332/125"	457	stress_12bis	"POPTR_0002s03020.1"	663	"	"A/T"	"62,2/37,8"	"89/54"	143
controllo_3	"POPTR_0002s03020.1"	1100	"	"G/A"	"72,6/27,4"	"82/31"	113	stress_12bis	"POPTR_0002s03020.1"	1100	"	"G/A"	"68,6/31,4"	"24/11"	35
controllo_3	"POPTR_0002s03020.1"	1100	"	"G/A"	"72,6/27,4"	"82/31"	113	stress_42	"POPTR_0002s03020.1"	1100	"	"G/A"	"83,3/16,7"	"75/15"	90
controllo_3	"POPTR_0003s08140.1"	447	"	"C/A"	"72,7/27,3"	"8/3"	11	stress_42	"POPTR_0003s08140.1"	447	"	"C/A"	"60,5/39,5"	"213/139"	352
controllo_3	"POPTR_0003s08140.1"	447	"	"C/A"	"72,7/27,3"	"8/3"	11	stress_45	"POPTR_0003s08140.1"	447	"	"C/A"	"62,8/37,2"	"262/155"	417
controllo_3	"POPTR_0015s09910.1"	70	"	"G/T"	"72,7/27,3"	"96/36"	132	stress_42	"POPTR_0015s09910.1"	70	"	"G/T"	"77,5/22,5"	"31/9"	40
controllo_3	"POPTR_0010s01590.1"	222	"	"T/C"	"72,7/27,3"	"8/3"	11	stress_42	"POPTR_0010s01590.1"	222	"	"C/T"	"60,4/39,6"	"348/228"	576
controllo_3	"POPTR_0010s01590.1"	222	"	"T/C"	"72,7/27,3"	"8/3"	11	stress_45	"POPTR_0010s01590.1"	222	"	"C/T"	"55,5/44,5"	"206/165"	371
controllo_3	"POPTR_0008s13780.1"	939	"	"C/T"	"72,8/26,8"	"182/67"	250	stress_12bis	"POPTR_0008s13780.1"	939	"	"C/T"	"72,1/27,9"	"31/12"	43
controllo_3	"POPTR_0008s13780.1"	939	"	"C/T"	"72,8/26,8"	"182/67"	250	stress_42	"POPTR_0008s13780.1"	939	"	"C/T"	"60,0/40,0"	"15/10"	25
controllo_3	"POPTR_0008s13780.1"	939	"	"C/T"	"72,8/26,8"	"182/67"	250	stress_45	"POPTR_0008s13780.1"	939	"	"C/T"	"83,3/16,7"	"25/5"	30
controllo_3	"POPTR_0004s16740.1"	843	"	"C/T"	"72,8/26,9"	"236/87"	324	stress_12bis	"POPTR_0004s16740.1"	843	"	"C/T"	"69,0/31,0"	"60/27"	87
controllo_3	"POPTR_0004s16740.1"	843	"	"C/T"	"72,8/26,9"	"236/87"	324	stress_42	"POPTR_0004s16740.1"	843	"	"C/T"	"63,8/36,2"	"60/34"	94
controllo_3	"POPTR_0004s16740.1"	843	"	"C/T"	"72,8/26,9"	"236/87"	324	stress_45	"POPTR_0004s16740.1"	843	"	"C/T"	"72,1/27,9"	"93/36"	129
controllo_3	"POPTR_0017s11410.1"	250	"	"G/T"	"72,8/27,2"	"155/58"	213	stress_12bis	"POPTR_0017s11410.1"	250	"	"G/T"	"74,2/25,8"	"46/16"	62
controllo_3	"POPTR_0017s11410.1"	250	"	"G/T"	"72,8/27,2"	"155/58"	213	stress_42	"POPTR_0017s11410.1"	250	"	"G/T"	"64,3/35,7"	"18/10"	28
controllo_3	"POPTR_0017s11410.1"	250	"	"G/T"	"72,8/27,2"	"155/58"	213	stress_45	"POPTR_0017s11410.1"	250	"	"G/T"	"63,3/36,7"	"19/11"	30
controllo_3	"POPTR_0019s04750.1"	787	"	"C/G"	"72,8/27,2"	"99/37"	136	stress_12bis	"POPTR_0019s04750.1"	787	"	"C/G"	"63,9/36,1"	"76/43"	119
controllo_3	"POPTR_0019s04750.1"	787	"	"C/G"	"72,8/27,2"	"99/37"	136	stress_42	"POPTR_0019s04750.1"	787	"	"C/G"	"69,0/31,0"	"69/31"	100
controllo_3	"POPTR_0019s04750.1"	787	"	"C/G"	"72,8/27,2"	"99/37"	136	stress_45	"POPTR_0019s04750.1"	787	"	"C/G"	"71,2/28,8"	"47/19"	66
controllo_3	"POPTR_0013s00760.1"	1014	"	"C/T"	"72,8/27,2"	"289/108"	397	stress_12bis	"POPTR_0013s00760.1"	1014	"	"C/T"	"57,1/42,9"	"48/36"	84
controllo_3	"POPTR_0013s00760.1"	1014	"	"C/T"	"72,8/27,2"	"289/108"	397	stress_42	"POPTR_0013s00760.1"	1014	"	"C/T"	"53,6/46,4"	"15/13"	28
controllo_3	"POPTR_0013s00760.1"	1014	"	"C/T"	"72,8/27,2"	"289/108"	397	stress_45	"POPTR_0013s00760.1"	1014	"	"C/T"	"60,0/40,0"	"24/16"	40
controllo_3	"POPTR_0001s36870.1"	1936	"	"T/C"	"72,8/27,2"	"99/37"	136	stress_12bis	"POPTR_0001s36870.1"	1936	"	"T/C"	"60,0/40,0"	"15/10"	25
controllo_3	"POPTR_0001s36870.1"	1936	"	"T/C"	"72,8/27,2"	"99/37"	136	stress_42	"POPTR_0001s36870.1"	1936	"	"T/C"	"62,5/37,5"	"25/15"	40
controllo_3	"POPTR_0001s36870.1"	1936	"	"T/C"	"72,8/27,2"	"99/37"	136	stress_45	"POPTR_0001s36870.1"	1936	"	"T/C"	"73,2/26,8"	"30/11"	41
controllo_3	"POPTR_0010s15250.1"	264	"	"G/C"	"72,8/27,2"	"75/28"	103	stress_12bis	"POPTR_0010s15250.1"	264	"	"G/C"	"77,4/22,6"	"24/7"	31
controllo_3	"POPTR_0010s15250.1"	264	"	"G/C"	"72,8/27,2"	"75/28"	103	stress_42	"POPTR_0010s15250.1"	264	"	"C/G"	"53,8/46,2"	"14/12"	26
controllo_3	"POPTR_0010s15250.1"	264	"	"G/C"	"72,8/27,2"	"75/28"	103	stress_45	"POPTR_0010s15250.1"	264	"	"C/G"	"57,9/42,1"	"11/8"	19
controllo_3	"POPTR_0008s19370.1"	36	"	"G/T"	"72,8/27,2"	"1091/407"	1498	stress_12bis	"POPTR_0008s19370.1"	36	"	"G/T"	"74,5/25,5"	"618/211"	829
controllo_3	"POPTR_0008s19370.1"	36	"	"G/T"	"72,8/27,2"	"1091/407"	1498	stress_42	"POPTR_0008s19370.1"	36	"	"G/T"	"79,1/20,9"	"34/9"	43
controllo_3	"POPTR_0006s24520.1"	87	"	"T/C"	"72,9/27,1"	"137/51"	188	stress_12bis	"POPTR_0006s24520.1"	87	"	"T/C"	"81,5/18,5"	"22/5"	27
controllo_3	"POPTR_0001s02040.1"	655	"	"T/A"	"72,9/27,1"	"78/29"	107	stress_12bis	"POPTR_0001s02040.1"	655	"	"T/A"	"69,8/30,2"	"37/16"	53
controllo_3	"POPTR_0001s02040.1"	655	"	"T/A"	"72,9/27,1"	"78/29"	107	stress_42	"POPTR_0001s02040.1"	655	"	"T/A"	"63,0/37,0"	"17/10"	27
controllo_3	"POPTR_0001s02040.1"	655	"	"T/A"	"72,9/27,1"	"78/29"	107	stress_45	"POPTR_0001s02040.1"	655	"	"A/T"	"67,6/32,4"	"25/12"	37
controllo_3	"POPTR_0001s26960.1"	822	"	"C/T"	"72,9/27,1"	"137/51"	188	stress_12bis	"POPTR_0001s26960.1"	822	"	"C/T"	"61,1/38,9"	"22/14"	36
controllo_3	"POPTR_0001s26960.1"	822	"	"C/T"	"72,9/27,1"	"137/51"	188	stress_45	"POPTR_0001s26960.1"	822	"	"C/T"	"66,7/33,3"	"8/4"	12
controllo_3	"POPTR_0010s19190.1"	255	"	"G/A"	"72,9/27,1"	"94/35"	129	stress_12bis	"POPTR_0010s19190.1"	255	"	"A/G"	"62,5/37,5"	"10/6"	16
controllo_3	"POPTR_0010s19190.1"	255	"	"G/A"	"72,9/27,1"	"94/35"	129	stress_42	"POPTR_0010s19190.1"	255	"	"A/G"	"64,1/35,9"	"25/14"	39
controllo_3	"POPTR_0010s19190.1"	255	"	"G/A"	"72,9/27,1"	"94/35"	129	stress_45	"POPTR_0010s19190.1"	255	"	"G/A"	"51,5/48,5"	"17/16"	33
controllo_3	"POPTR_0010s21350.1"	1488	"	"C/T"	"72,9/27,1"	"97/36"	133	stress_12bis	"POPTR_0010s21350.1"	1488	"	"C/T"	"60,5/39,5"	"26/17"	43
controllo_3	"POPTR_0010s21350.1"	1488	"	"C/T"	"72,9/27,1"	"97/36"	133	stress_42	"POPTR_0010s21350.1"	1488	"	"T/C"	"63,6/36,4"	"7/4"	11
controllo_3	"POPTR_0010s21350.1"	1488	"	"C/T"	"72,9/27,1"	"97/36"	133	stress_45	"POPTR_0010s21350.1"	1488	"	"C/T"	"52,4/47,6"	"11/10"	21
controllo_3	"POPTR_0002s25620.1"	423	"	"C/T"	"72,9/27,1"	"105/39"	144	stress_12bis	"POPTR_0002s25620.1"	423	"	"C/T"	"61,4/38,6"	"35/22"	57
controllo_3	"POPTR_0004s16920.1"	972	"	"G/A"	"73,0/26,9"	"4358/1608"	5967	stress_12bis	"POPTR_0004s16920.1"	972	"	"G/A"	"71,2/28,8"	"1218/492"	1710
controllo_3	"POPTR_0004s16920.1"	972	"	"G/A"	"73,0/26,9"	"4358/1608"	5967	stress_42	"POPTR_0004s16920.1"	972	"	"G/A"	"58,7/41,3"	"121/85"	206
controllo_3	"POPTR_0004s16920.1"	972	"	"G/A"	"73,0/26,9"	"4358/1608"	5967	stress_45	"POPTR_0004s16920.1"	972	"	"G/A"	"55,3/44,7"	"126/102"	228
controllo_3	"POPTR_0013s03700.1"	348	"	"G/A"	"73,0/27,0"	"108/40"	148	stress_12bis	"POPTR_0013s03700.1"	348	"	"G/A"	"80,6/19,4"	"29/7"	36
controllo_3	"POPTR_0013s03700.1"	348	"	"G/A"	"73,0/27,0"	"108/40"	148	stress_42	"POPTR_0013s03700.1"	348	"	"G/A"	"60,0/40,0"	"9/6"	15
controllo_3	"POPTR_0013s03700.1"	348	"	"G/A"	"73,0/27,0"	"108/40"	148	stress_45	"POPTR_0013s03700.1"	348	"	"A/G"	"50,0/50,0"	"20/20"	40
controllo_3	"POPTR_0010s13990.1"	597	"	"C/T"	"73,0/27,0"	"81/30"	111	stress_42	"POPTR_0010s13990.1"	597	"	"C/T"	"83,3/16,7"	"25/5"	30
controllo_3	"POPTR_0010s13990.1"	597	"	"C/T"	"73,0/27,0"	"81/30"	111	stress_45	"POPTR_0010s13990.1"	597	"	"C/T"	"80,8/19,2"	"59/14"	73
controllo_3	"POPTR_0008s04060.1"	456	"	"G/A"	"73,0/27,0"	"130/48"	178	stress_12bis	"POPTR_0008s04060.1"	456	"	"G/A"	"79,6/20,4"	"39/10"	49
controllo_3	"POPTR_0008s03280.1"	990	"	"A/G"	"73,0/27,0"	"100/37"	137	stress_12bis	"POPTR_0008s03280.1"	990	"	"A/G"	"76,9/23,1"	"40/12"	52
controllo_3	"POPTR_0008s03280.1"	990	"	"A/G"	"73,0/27,0"	"100/37"	137	stress_42	"POPTR_0008s03280.1"	990	"	"A/G"	"80,0/20,0"	"12/3"	15
controllo_3	"POPTR_0008s03280.1"	990	"	"A/G"	"73,0/27,0"	"100/37"	137	stress_45	"POPTR_0008s03280.1"	990	"	"A/G"	"63,6/36,4"	"14/8"	22
controllo_3	"POPTR_0016s08580.1"	472	"	"C/T"	"73,0/27,0"	"197/73"	270	stress_12bis	"POPTR_0016s08580.1"	472	"	"C/T"	"83,3/16,7"	"65/13"	78
controllo_3	"POPTR_0016s08580.1"	472	"	"C/T"	"73,0/27,0"	"197/73"	270	stress_42	"POPTR_0016s08580.1"	472	"	"C/T"	"71,7/28,3"	"38/15"	53
controllo_3	"POPTR_0016s08580.1"	472	"	"C/T"	"73,0/27,0"	"197/73"	270	stress_45	"POPTR_0016s08580.1"	472	"	"C/T"	"80,3/19,7"	"57/14"	71
controllo_3	"POPTR_0014s11210.1"	54	"	"A/T"	"73,1/26,4"	"144/52"	197	stress_12bis	"POPTR_0014s11210.1"	54	"	"A/T"	"62,4/37,6"	"73/44"	117
controllo_3	"POPTR_0014s11210.1"	54	"	"A/T"	"73,1/26,4"	"144/52"	197	stress_42	"POPTR_0014s11210.1"	54	"	"T/A"	"82,6/17,4"	"38/8"	46
controllo_3	"POPTR_0014s11210.1"	54	"	"A/T"	"73,1/26,4"	"144/52"	197	stress_45	"POPTR_0014s11210.1"	54	"	"T/A"	"53,0/47,0"	"35/31"	66
controllo_3	"POPTR_0002s22560.1"	987	"	"G/C"	"73,1/26,6"	"446/162"	610	stress_12bis	"POPTR_0002s22560.1"	987	"	"G/C"	"75,4/24,2"	"193/62"	256
controllo_3	"POPTR_0002s22560.1"	987	"	"G/C"	"73,1/26,6"	"446/162"	610	stress_42	"POPTR_0002s22560.1"	987	"	"G/C"	"84,7/15,3"	"50/9"	59
controllo_3	"POPTR_0004s16920.1"	976	"	"G/A"	"73,1/26,9"	"4334/1596"	5930	stress_12bis	"POPTR_0004s16920.1"	976	"	"G/A"	"70,9/29,1"	"1179/483"	1662
controllo_3	"POPTR_0004s16920.1"	976	"	"G/A"	"73,1/26,9"	"4334/1596"	5930	stress_42	"POPTR_0004s16920.1"	976	"	"G/A"	"58,6/41,4"	"119/84"	203
controllo_3	"POPTR_0004s16920.1"	976	"	"G/A"	"73,1/26,9"	"4334/1596"	5930	stress_45	"POPTR_0004s16920.1"	976	"	"G/A"	"56,5/43,0"	"126/96"	223
controllo_3	"POPTR_0004s01030.1"	175	"	"A/G"	"73,1/26,9"	"182/67"	249	stress_12bis	"POPTR_0004s01030.1"	175	"	"A/G"	"84,1/15,9"	"74/14"	88
controllo_3	"POPTR_0004s01030.1"	175	"	"A/G"	"73,1/26,9"	"182/67"	249	stress_42	"POPTR_0004s01030.1"	175	"	"A/G"	"50,0/50,0"	"7/7"	14
controllo_3	"POPTR_0004s01030.1"	175	"	"A/G"	"73,1/26,9"	"182/67"	249	stress_45	"POPTR_0004s01030.1"	175	"	"A/G"	"78,3/21,7"	"18/5"	23
controllo_3	"POPTR_0012s06320.1"	1384	"	"T/C"	"73,1/26,9"	"79/29"	108	stress_12bis	"POPTR_0012s06320.1"	1384	"	"T/C"	"77,8/22,2"	"28/8"	36
controllo_3	"POPTR_0012s06320.1"	1384	"	"T/C"	"73,1/26,9"	"79/29"	108	stress_42	"POPTR_0012s06320.1"	1384	"	"T/C"	"75,0/25,0"	"18/6"	24
controllo_3	"POPTR_0012s06320.1"	1384	"	"T/C"	"73,1/26,9"	"79/29"	108	stress_45	"POPTR_0012s06320.1"	1384	"	"T/C"	"64,3/35,7"	"36/20"	56
controllo_3	"POPTR_0011s00500.1"	125	"	"C/G"	"73,1/26,9"	"302/111"	413	stress_12bis	"POPTR_0011s00500.1"	125	"	"C/G"	"75,0/25,0"	"9/3"	12
controllo_3	"POPTR_0002s03470.1"	247	"	"A/T"	"73,1/26,9"	"136/50"	186	stress_12bis	"POPTR_0002s03470.1"	247	"	"A/T"	"68,2/31,8"	"45/21"	66
controllo_3	"POPTR_0002s03470.1"	247	"	"A/T"	"73,1/26,9"	"136/50"	186	stress_42	"POPTR_0002s03470.1"	247	"	"A/T"	"80,0/20,0"	"20/5"	25
controllo_3	"POPTR_0002s03470.1"	247	"	"A/T"	"73,1/26,9"	"136/50"	186	stress_45	"POPTR_0002s03470.1"	247	"	"A/T"	"84,0/16,0"	"21/4"	25
controllo_3	"POPTR_0009s10780.1"	480	"	"C/A"	"73,2/26,8"	"104/38"	142	stress_12bis	"POPTR_0009s10780.1"	480	"	"C/A"	"68,4/31,6"	"13/6"	19
controllo_3	"POPTR_0009s10780.1"	480	"	"C/A"	"73,2/26,8"	"104/38"	142	stress_45	"POPTR_0009s10780.1"	480	"	"C/A"	"81,8/18,2"	"9/2"	11
controllo_3	"POPTR_0001s02040.1"	656	"	"C/A"	"73,2/26,8"	"82/30"	112	stress_12bis	"POPTR_0001s02040.1"	656	"	"C/A"	"69,1/30,9"	"38/17"	55
controllo_3	"POPTR_0001s02040.1"	656	"	"C/A"	"73,2/26,8"	"82/30"	112	stress_42	"POPTR_0001s02040.1"	656	"	"C/A"	"67,7/32,3"	"21/10"	31
controllo_3	"POPTR_0001s02040.1"	656	"	"C/A"	"73,2/26,8"	"82/30"	112	stress_45	"POPTR_0001s02040.1"	656	"	"A/C"	"67,6/32,4"	"25/12"	37
controllo_3	"POPTR_0008s05470.1"	1779	"	"C/A"	"73,2/26,8"	"230/84"	314	stress_12bis	"POPTR_0008s05470.1"	1779	"	"C/A"	"81,5/18,5"	"44/10"	54
controllo_3	"POPTR_0008s05470.1"	1779	"	"C/A"	"73,2/26,8"	"230/84"	314	stress_42	"POPTR_0008s05470.1"	1779	"	"C/A"	"55,3/44,7"	"21/17"	38
controllo_3	"POPTR_0008s05470.1"	1779	"	"C/A"	"73,2/26,8"	"230/84"	314	stress_45	"POPTR_0008s05470.1"	1779	"	"C/A"	"60,5/39,5"	"49/32"	81
controllo_3	"POPTR_0008s03280.1"	959	"	"A/G"	"73,2/26,8"	"93/34"	127	stress_12bis	"POPTR_0008s03280.1"	959	"	"A/G"	"69,0/31,0"	"29/13"	42
controllo_3	"POPTR_0008s03280.1"	959	"	"A/G"	"73,2/26,8"	"93/34"	127	stress_42	"POPTR_0008s03280.1"	959	"	"A/G"	"76,9/23,1"	"10/3"	13
controllo_3	"POPTR_0008s03280.1"	959	"	"A/G"	"73,2/26,8"	"93/34"	127	stress_45	"POPTR_0008s03280.1"	959	"	"A/G"	"53,3/46,7"	"8/7"	15
controllo_3	"POPTR_0014s17400.1"	627	"	"A/T"	"73,3/26,4"	"300/108"	409	stress_12bis	"POPTR_0014s17400.1"	627	"	"A/T"	"82,6/17,4"	"119/25"	144
controllo_3	"POPTR_0014s17400.1"	627	"	"A/T"	"73,3/26,4"	"300/108"	409	stress_42	"POPTR_0014s17400.1"	627	"	"A/T"	"75,4/24,6"	"46/15"	61
controllo_3	"POPTR_0014s17400.1"	627	"	"A/T"	"73,3/26,4"	"300/108"	409	stress_45	"POPTR_0014s17400.1"	627	"	"A/T"	"80,9/19,1"	"55/13"	68
controllo_3	"POPTR_0006s26870.1"	741	"	"T/C"	"73,3/26,7"	"77/28"	105	stress_12bis	"POPTR_0006s26870.1"	741	"	"T/C"	"63,3/36,7"	"19/11"	30
controllo_3	"POPTR_0006s26870.1"	741	"	"T/C"	"73,3/26,7"	"77/28"	105	stress_42	"POPTR_0006s26870.1"	741	"	"T/C"	"64,7/35,3"	"22/12"	34
controllo_3	"POPTR_0006s26870.1"	741	"	"T/C"	"73,3/26,7"	"77/28"	105	stress_45	"POPTR_0006s26870.1"	741	"	"T/C"	"66,7/33,3"	"42/21"	63
controllo_3	"POPTR_0018s02230.1"	487	"	"A/G"	"73,3/26,7"	"99/36"	135	stress_12bis	"POPTR_0018s02230.1"	487	"	"A/G"	"75,4/23,2"	"52/16"	69
controllo_3	"POPTR_0018s02230.1"	487	"	"A/G"	"73,3/26,7"	"99/36"	135	stress_42	"POPTR_0018s02230.1"	487	"	"A/G"	"61,7/38,3"	"71/44"	115
controllo_3	"POPTR_0018s02230.1"	487	"	"A/G"	"73,3/26,7"	"99/36"	135	stress_45	"POPTR_0018s02230.1"	487	"	"A/G"	"62,5/37,5"	"65/39"	104
controllo_3	"POPTR_0014s11580.1"	348	"	"A/C"	"73,3/26,7"	"203/74"	277	stress_12bis	"POPTR_0014s11580.1"	348	"	"A/C"	"70,6/27,5"	"36/14"	51
controllo_3	"POPTR_0014s11580.1"	348	"	"A/C"	"73,3/26,7"	"203/74"	277	stress_42	"POPTR_0014s11580.1"	348	"	"A/C"	"75,0/25,0"	"21/7"	28
controllo_3	"POPTR_0014s11580.1"	348	"	"A/C"	"73,3/26,7"	"203/74"	277	stress_45	"POPTR_0014s11580.1"	348	"	"A/C"	"81,8/15,9"	"36/7"	44
controllo_3	"POPTR_0002s14730.1"	807	"	"T/C"	"73,3/26,7"	"590/215"	805	stress_12bis	"POPTR_0002s14730.1"	807	"	"T/C"	"66,2/33,8"	"145/74"	219
controllo_3	"POPTR_0002s14730.1"	807	"	"T/C"	"73,3/26,7"	"590/215"	805	stress_42	"POPTR_0002s14730.1"	807	"	"C/T"	"52,1/47,9"	"38/35"	73
controllo_3	"POPTR_0002s14730.1"	807	"	"T/C"	"73,3/26,7"	"590/215"	805	stress_45	"POPTR_0002s14730.1"	807	"	"C/T"	"68,5/31,5"	"63/29"	92
controllo_3	"POPTR_0008s05480.1"	162	"	"A/C"	"73,3/26,7"	"261/95"	356	stress_12bis	"POPTR_0008s05480.1"	162	"	"A/C"	"74,4/25,6"	"96/33"	129
controllo_3	"POPTR_0008s05480.1"	162	"	"A/C"	"73,3/26,7"	"261/95"	356	stress_42	"POPTR_0008s05480.1"	162	"	"A/C"	"74,6/25,4"	"53/18"	71
controllo_3	"POPTR_0008s05480.1"	162	"	"A/C"	"73,3/26,7"	"261/95"	356	stress_45	"POPTR_0008s05480.1"	162	"	"A/C"	"77,5/22,0"	"169/48"	218
controllo_3	"POPTR_0005s13860.1"	729	"	"A/G"	"73,4/26,6"	"529/192"	721	stress_12bis	"POPTR_0005s13860.1"	729	"	"A/G"	"72,2/27,8"	"161/62"	223
controllo_3	"POPTR_0005s13860.1"	729	"	"A/G"	"73,4/26,6"	"529/192"	721	stress_42	"POPTR_0005s13860.1"	729	"	"A/G"	"75,9/24,1"	"41/13"	54
controllo_3	"POPTR_0005s13860.1"	729	"	"A/G"	"73,4/26,6"	"529/192"	721	stress_45	"POPTR_0005s13860.1"	729	"	"A/G"	"84,8/15,2"	"78/14"	92
controllo_3	"POPTR_0019s15250.1"	87	"	"A/T"	"73,4/26,6"	"113/41"	154	stress_12bis	"POPTR_0019s15250.1"	87	"	"A/T"	"66,0/34,0"	"33/17"	50
controllo_3	"POPTR_0019s15250.1"	87	"	"A/T"	"73,4/26,6"	"113/41"	154	stress_42	"POPTR_0019s15250.1"	87	"	"A/T"	"75,5/24,5"	"40/13"	53
controllo_3	"POPTR_0019s15250.1"	87	"	"A/T"	"73,4/26,6"	"113/41"	154	stress_45	"POPTR_0019s15250.1"	87	"	"A/T"	"78,2/21,8"	"97/27"	124
controllo_3	"POPTR_0004s16740.1"	468	"	"G/A"	"73,4/26,6"	"174/63"	237	stress_12bis	"POPTR_0004s16740.1"	468	"	"G/A"	"62,3/37,7"	"33/20"	53
controllo_3	"POPTR_0004s16740.1"	468	"	"G/A"	"73,4/26,6"	"174/63"	237	stress_42	"POPTR_0004s16740.1"	468	"	"G/A"	"50,9/49,1"	"28/27"	55
controllo_3	"POPTR_0004s16740.1"	468	"	"G/A"	"73,4/26,6"	"174/63"	237	stress_45	"POPTR_0004s16740.1"	468	"	"G/A"	"65,5/34,5"	"57/30"	87
controllo_3	"POPTR_0015s09990.1"	627	"	"T/C"	"73,4/26,6"	"113/41"	154	stress_12bis	"POPTR_0015s09990.1"	627	"	"T/C"	"71,2/28,8"	"37/15"	52
controllo_3	"POPTR_0010s21350.1"	94	"	"A/G"	"73,4/26,6"	"102/37"	139	stress_12bis	"POPTR_0010s21350.1"	94	"	"A/G"	"70,6/29,4"	"24/10"	34
controllo_3	"POPTR_0010s21350.1"	94	"	"A/G"	"73,4/26,6"	"102/37"	139	stress_45	"POPTR_0010s21350.1"	94	"	"A/G"	"83,3/16,7"	"10/2"	12
controllo_3	"POPTR_0008s10020.1"	1017	"	"A/G"	"73,4/26,6"	"130/47"	177	stress_12bis	"POPTR_0008s10020.1"	1017	"	"A/G"	"71,9/28,1"	"46/18"	64
controllo_3	"POPTR_0008s10020.1"	1017	"	"A/G"	"73,4/26,6"	"130/47"	177	stress_42	"POPTR_0008s10020.1"	1017	"	"A/G"	"78,8/21,2"	"26/7"	33
controllo_3	"POPTR_0008s10020.1"	1017	"	"A/G"	"73,4/26,6"	"130/47"	177	stress_45	"POPTR_0008s10020.1"	1017	"	"A/G"	"73,8/26,2"	"31/11"	42
controllo_3	"POPTR_0001s02770.1"	442	"	"T/C"	"73,5/25,5"	"75/26"	102	stress_12bis	"POPTR_0001s02770.1"	442	"	"C/T"	"53,3/46,7"	"8/7"	15
controllo_3	"POPTR_0014s13560.1"	915	"	"C/T"	"73,5/26,3"	"338/121"	460	stress_12bis	"POPTR_0014s13560.1"	915	"	"C/T"	"74,0/26,0"	"125/44"	169
controllo_3	"POPTR_0014s13560.1"	915	"	"C/T"	"73,5/26,3"	"338/121"	460	stress_42	"POPTR_0014s13560.1"	915	"	"C/T"	"82,8/17,2"	"72/15"	87
controllo_3	"POPTR_0014s13560.1"	915	"	"C/T"	"73,5/26,3"	"338/121"	460	stress_45	"POPTR_0014s13560.1"	915	"	"C/T"	"64,5/35,5"	"80/44"	124
controllo_3	"POPTR_0002s14730.1"	831	"	"A/G"	"73,5/26,3"	"522/187"	710	stress_12bis	"POPTR_0002s14730.1"	831	"	"A/G"	"65,8/34,2"	"131/68"	199
controllo_3	"POPTR_0002s14730.1"	831	"	"A/G"	"73,5/26,3"	"522/187"	710	stress_42	"POPTR_0002s14730.1"	831	"	"A/G"	"53,4/46,6"	"31/27"	58
controllo_3	"POPTR_0002s14730.1"	831	"	"A/G"	"73,5/26,3"	"522/187"	710	stress_45	"POPTR_0002s14730.1"	831	"	"G/A"	"72,3/27,7"	"86/33"	119
controllo_3	"POPTR_0004s04120.1"	1005	"	"G/T"	"73,5/26,5"	"86/31"	117	stress_12bis	"POPTR_0004s04120.1"	1005	"	"G/T"	"77,3/22,7"	"17/5"	22
controllo_3	"POPTR_0009s08520.1"	312	"	"T/C"	"73,5/26,5"	"277/100"	377	stress_12bis	"POPTR_0009s08520.1"	312	"	"T/C"	"70,0/30,0"	"98/42"	140
controllo_3	"POPTR_0009s08520.1"	312	"	"T/C"	"73,5/26,5"	"277/100"	377	stress_42	"POPTR_0009s08520.1"	312	"	"T/C"	"61,9/38,1"	"13/8"	21
controllo_3	"POPTR_0009s08520.1"	312	"	"T/C"	"73,5/26,5"	"277/100"	377	stress_45	"POPTR_0009s08520.1"	312	"	"T/C"	"85,0/15,0"	"17/3"	20
controllo_3	"POPTR_0001s36870.1"	1791	"	"T/C"	"73,5/26,5"	"100/36"	136	stress_12bis	"POPTR_0001s36870.1"	1791	"	"T/C"	"78,2/21,8"	"43/12"	55
controllo_3	"POPTR_0001s36870.1"	1791	"	"T/C"	"73,5/26,5"	"100/36"	136	stress_42	"POPTR_0001s36870.1"	1791	"	"T/C"	"73,9/26,1"	"34/12"	46
controllo_3	"POPTR_0001s36870.1"	1791	"	"T/C"	"73,5/26,5"	"100/36"	136	stress_45	"POPTR_0001s36870.1"	1791	"	"T/C"	"77,1/22,9"	"27/8"	35
controllo_3	"POPTR_0018s01830.1"	465	"	"T/C"	"73,6/25,7"	"212/74"	288	stress_12bis	"POPTR_0018s01830.1"	465	"	"T/C"	"76,6/23,4"	"72/22"	94
controllo_3	"POPTR_0018s01830.1"	465	"	"T/C"	"73,6/25,7"	"212/74"	288	stress_42	"POPTR_0018s01830.1"	465	"	"T/C"	"50,0/45,0"	"10/9"	20
controllo_3	"POPTR_0018s01830.1"	465	"	"T/C"	"73,6/25,7"	"212/74"	288	stress_45	"POPTR_0018s01830.1"	465	"	"T/C"	"59,4/40,6"	"19/13"	32
controllo_3	"POPTR_0005s19400.1"	187	"	"G/T"	"73,6/26,4"	"95/34"	129	stress_12bis	"POPTR_0005s19400.1"	187	"	"G/T"	"51,1/48,9"	"23/22"	45
controllo_3	"POPTR_0005s19400.1"	187	"	"G/T"	"73,6/26,4"	"95/34"	129	stress_42	"POPTR_0005s19400.1"	187	"	"T/G"	"57,9/42,1"	"11/8"	19
controllo_3	"POPTR_0005s19400.1"	187	"	"G/T"	"73,6/26,4"	"95/34"	129	stress_45	"POPTR_0005s19400.1"	187	"	"G/T"	"50,0/50,0"	"5/5"	10
controllo_3	"POPTR_0011s16780.1"	1026	"	"T/A"	"73,6/26,4"	"78/28"	106	stress_12bis	"POPTR_0011s16780.1"	1026	"	"T/A"	"62,5/37,5"	"30/18"	48
controllo_3	"POPTR_0010s16790.1"	1362	"	"T/A"	"73,6/26,4"	"103/37"	140	stress_12bis	"POPTR_0010s16790.1"	1362	"	"T/A"	"69,4/30,6"	"25/11"	36
controllo_3	"POPTR_0010s16790.1"	1362	"	"T/A"	"73,6/26,4"	"103/37"	140	stress_42	"POPTR_0010s16790.1"	1362	"	"T/A"	"72,2/27,8"	"13/5"	18
controllo_3	"POPTR_0010s16790.1"	1362	"	"T/A"	"73,6/26,4"	"103/37"	140	stress_45	"POPTR_0010s16790.1"	1362	"	"T/A"	"75,0/25,0"	"30/10"	40
controllo_3	"POPTR_0010s20060.1"	129	"	"A/G"	"73,6/26,4"	"290/104"	394	stress_12bis	"POPTR_0010s20060.1"	129	"	"A/G"	"77,5/22,5"	"107/31"	138
controllo_3	"POPTR_0010s20060.1"	129	"	"A/G"	"73,6/26,4"	"290/104"	394	stress_42	"POPTR_0010s20060.1"	129	"	"A/G"	"74,2/25,8"	"23/8"	31
controllo_3	"POPTR_0010s20060.1"	823	"	"C/T"	"73,6/26,4"	"287/103"	390	stress_12bis	"POPTR_0010s20060.1"	823	"	"C/T"	"76,8/23,2"	"106/32"	138
controllo_3	"POPTR_0010s20060.1"	823	"	"C/T"	"73,6/26,4"	"287/103"	390	stress_42	"POPTR_0010s20060.1"	823	"	"C/T"	"81,6/18,4"	"31/7"	38
controllo_3	"POPTR_0010s21350.1"	249	"	"T/C"	"73,6/26,4"	"89/32"	121	stress_12bis	"POPTR_0010s21350.1"	249	"	"T/C"	"72,7/27,3"	"24/9"	33
controllo_3	"POPTR_0010s21350.1"	249	"	"T/C"	"73,6/26,4"	"89/32"	121	stress_45	"POPTR_0010s21350.1"	249	"	"T/C"	"64,7/35,3"	"11/6"	17
controllo_3	"POPTR_0002s25620.1"	213	"	"T/C"	"73,6/26,4"	"145/52"	197	stress_12bis	"POPTR_0002s25620.1"	213	"	"T/C"	"71,9/28,1"	"46/18"	64
controllo_3	"POPTR_0002s25620.1"	213	"	"T/C"	"73,6/26,4"	"145/52"	197	stress_42	"POPTR_0002s25620.1"	213	"	"T/C"	"54,8/45,2"	"17/14"	31
controllo_3	"POPTR_0002s25620.1"	213	"	"T/C"	"73,6/26,4"	"145/52"	197	stress_45	"POPTR_0002s25620.1"	213	"	"T/C"	"56,6/43,4"	"30/23"	53
controllo_3	"POPTR_0013s12970.1"	147	"	"T/C"	"73,7/26,3"	"98/35"	133	stress_42	"POPTR_0013s12970.1"	147	"	"T/C"	"84,8/15,2"	"39/7"	46
controllo_3	"POPTR_0013s12970.1"	147	"	"T/C"	"73,7/26,3"	"98/35"	133	stress_45	"POPTR_0013s12970.1"	147	"	"T/C"	"82,4/17,6"	"28/6"	34
controllo_3	"POPTR_0001s11350.1"	1336	"	"C/T"	"73,7/26,3"	"101/36"	137	stress_12bis	"POPTR_0001s11350.1"	1336	"	"C/T"	"61,0/39,0"	"61/39"	100
controllo_3	"POPTR_0001s11350.1"	1336	"	"C/T"	"73,7/26,3"	"101/36"	137	stress_42	"POPTR_0001s11350.1"	1336	"	"T/C"	"52,5/47,5"	"21/19"	40
controllo_3	"POPTR_0001s11350.1"	1336	"	"C/T"	"73,7/26,3"	"101/36"	137	stress_45	"POPTR_0001s11350.1"	1336	"	"C/T"	"54,2/45,8"	"26/22"	48
controllo_3	"POPTR_0001s44870.1"	219	"	"A/T"	"73,7/26,3"	"115/41"	156	stress_12bis	"POPTR_0001s44870.1"	219	"	"A/T"	"72,4/27,6"	"21/8"	29
controllo_3	"POPTR_0010s21350.1"	1668	"	"A/G"	"73,7/26,3"	"171/61"	232	stress_12bis	"POPTR_0010s21350.1"	1668	"	"A/G"	"63,4/36,6"	"45/26"	71
controllo_3	"POPTR_0010s21350.1"	1668	"	"A/G"	"73,7/26,3"	"171/61"	232	stress_42	"POPTR_0010s21350.1"	1668	"	"A/G"	"56,0/44,0"	"14/11"	25
controllo_3	"POPTR_0010s21350.1"	1668	"	"A/G"	"73,7/26,3"	"171/61"	232	stress_45	"POPTR_0010s21350.1"	1668	"	"A/G"	"76,3/23,7"	"29/9"	38
controllo_3	"POPTR_0008s13780.1"	933	"	"C/T"	"73,7/26,3"	"185/66"	251	stress_12bis	"POPTR_0008s13780.1"	933	"	"C/T"	"76,0/24,0"	"38/12"	50
controllo_3	"POPTR_0008s13780.1"	933	"	"C/T"	"73,7/26,3"	"185/66"	251	stress_42	"POPTR_0008s13780.1"	933	"	"C/T"	"59,3/40,7"	"16/11"	27
controllo_3	"POPTR_0008s13780.1"	933	"	"C/T"	"73,7/26,3"	"185/66"	251	stress_45	"POPTR_0008s13780.1"	933	"	"C/T"	"78,6/21,4"	"22/6"	28
controllo_3	"POPTR_0004s23310.1"	1284	"	"C/T"	"73,8/26,2"	"76/27"	103	stress_12bis	"POPTR_0004s23310.1"	1284	"	"C/T"	"73,2/26,8"	"30/11"	41
controllo_3	"POPTR_0004s23310.1"	1284	"	"C/T"	"73,8/26,2"	"76/27"	103	stress_42	"POPTR_0004s23310.1"	1284	"	"C/T"	"53,8/46,2"	"7/6"	13
controllo_3	"POPTR_0004s23310.1"	1284	"	"C/T"	"73,8/26,2"	"76/27"	103	stress_45	"POPTR_0004s23310.1"	1284	"	"C/T"	"64,3/35,7"	"27/15"	42
controllo_3	"POPTR_0010s12680.1"	1566	"	"A/C"	"73,8/26,2"	"76/27"	103	stress_12bis	"POPTR_0010s12680.1"	1566	"	"A/C"	"71,9/28,1"	"23/9"	32
controllo_3	"POPTR_0010s12680.1"	1566	"	"A/C"	"73,8/26,2"	"76/27"	103	stress_42	"POPTR_0010s12680.1"	1566	"	"A/C"	"83,6/16,4"	"56/11"	67
controllo_3	"POPTR_0010s12680.1"	1566	"	"A/C"	"73,8/26,2"	"76/27"	103	stress_45	"POPTR_0010s12680.1"	1566	"	"A/C"	"79,6/20,4"	"74/19"	93
controllo_3	"POPTR_0016s06540.1"	383	"	"A/G"	"73,8/26,2"	"121/43"	164	stress_12bis	"POPTR_0016s06540.1"	383	"	"A/G"	"72,2/27,8"	"13/5"	18
controllo_3	"POPTR_0011s05670.1"	112	"	"G/A"	"73,9/26,1"	"164/58"	222	stress_12bis	"POPTR_0011s05670.1"	112	"	"G/A"	"67,2/32,8"	"39/19"	58
controllo_3	"POPTR_0011s05670.1"	112	"	"G/A"	"73,9/26,1"	"164/58"	222	stress_42	"POPTR_0011s05670.1"	112	"	"G/A"	"68,8/31,2"	"11/5"	16
controllo_3	"POPTR_0011s05670.1"	112	"	"G/A"	"73,9/26,1"	"164/58"	222	stress_45	"POPTR_0011s05670.1"	112	"	"G/A"	"64,6/35,4"	"31/17"	48
controllo_3	"POPTR_0001s25760.1"	480	"	"T/C"	"73,9/26,1"	"82/29"	111	stress_12bis	"POPTR_0001s25760.1"	480	"	"T/C"	"62,5/37,5"	"15/9"	24
controllo_3	"POPTR_0001s25760.1"	480	"	"T/C"	"73,9/26,1"	"82/29"	111	stress_45	"POPTR_0001s25760.1"	480	"	"T/C"	"63,2/36,8"	"12/7"	19
controllo_3	"POPTR_0002s21420.1"	765	"	"A/G"	"73,9/26,1"	"85/30"	115	stress_42	"POPTR_0002s21420.1"	765	"	"A/G"	"59,1/40,9"	"13/9"	22
controllo_3	"POPTR_0002s21420.1"	765	"	"A/G"	"73,9/26,1"	"85/30"	115	stress_45	"POPTR_0002s21420.1"	765	"	"A/G"	"56,8/43,2"	"21/16"	37
controllo_3	"POPTR_0017s06650.1"	1492	"	"T/C"	"74,0/26,0"	"145/51"	196	stress_12bis	"POPTR_0017s06650.1"	1492	"	"T/C"	"78,9/21,1"	"30/8"	38
controllo_3	"POPTR_0017s06650.1"	1492	"	"T/C"	"74,0/26,0"	"145/51"	196	stress_45	"POPTR_0017s06650.1"	1492	"	"T/C"	"76,9/23,1"	"10/3"	13
controllo_3	"POPTR_0018s11820.1"	74	"	"A/G"	"74,0/26,0"	"159/56"	215	stress_12bis	"POPTR_0018s11820.1"	74	"	"A/G"	"69,4/30,6"	"34/15"	49
controllo_3	"POPTR_0014s11580.1"	48	"	"C/T"	"74,0/26,0"	"233/82"	315	stress_12bis	"POPTR_0014s11580.1"	48	"	"C/T"	"65,2/34,8"	"30/16"	46
controllo_3	"POPTR_0014s11580.1"	48	"	"C/T"	"74,0/26,0"	"233/82"	315	stress_42	"POPTR_0014s11580.1"	48	"	"C/T"	"60,0/40,0"	"21/14"	35
controllo_3	"POPTR_0014s11580.1"	48	"	"C/T"	"74,0/26,0"	"233/82"	315	stress_45	"POPTR_0014s11580.1"	48	"	"C/T"	"64,2/35,8"	"34/19"	53
controllo_3	"POPTR_0001s36870.1"	775	"	"A/T"	"74,0/26,0"	"97/34"	131	stress_12bis	"POPTR_0001s36870.1"	775	"	"A/T"	"67,5/32,5"	"27/13"	40
controllo_3	"POPTR_0001s36870.1"	775	"	"A/T"	"74,0/26,0"	"97/34"	131	stress_42	"POPTR_0001s36870.1"	775	"	"A/T"	"61,1/38,9"	"11/7"	18
controllo_3	"POPTR_0001s36870.1"	775	"	"A/T"	"74,0/26,0"	"97/34"	131	stress_45	"POPTR_0001s36870.1"	775	"	"A/T"	"73,3/26,7"	"11/4"	15
controllo_3	"POPTR_0008s19160.1"	1319	"	"T/A"	"74,0/26,0"	"145/51"	196	stress_12bis	"POPTR_0008s19160.1"	1319	"	"T/A"	"76,1/23,9"	"54/17"	71
controllo_3	"POPTR_0001s25630.1"	564	"	"A/G"	"74,1/25,2"	"100/34"	135	stress_12bis	"POPTR_0001s25630.1"	564	"	"A/G"	"57,5/42,5"	"23/17"	40
controllo_3	"POPTR_0008s12000.1"	345	"	"C/T"	"74,1/25,2"	"100/34"	135	stress_12bis	"POPTR_0008s12000.1"	345	"	"C/T"	"74,2/25,8"	"23/8"	31
controllo_3	"POPTR_0008s12000.1"	345	"	"C/T"	"74,1/25,2"	"100/34"	135	stress_42	"POPTR_0008s12000.1"	345	"	"C/T"	"85,0/15,0"	"17/3"	20
controllo_3	"POPTR_0005s17740.1"	393	"	"C/T"	"74,1/25,9"	"83/29"	112	stress_12bis	"POPTR_0005s17740.1"	393	"	"C/T"	"70,0/30,0"	"21/9"	30
controllo_3	"POPTR_0005s17740.1"	393	"	"C/T"	"74,1/25,9"	"83/29"	112	stress_42	"POPTR_0005s17740.1"	393	"	"C/T"	"72,7/27,3"	"16/6"	22
controllo_3	"POPTR_0005s17740.1"	393	"	"C/T"	"74,1/25,9"	"83/29"	112	stress_45	"POPTR_0005s17740.1"	393	"	"C/T"	"71,1/28,9"	"27/11"	38
controllo_3	"POPTR_0019s08030.1"	951	"	"C/T"	"74,1/25,9"	"80/28"	108	stress_12bis	"POPTR_0019s08030.1"	951	"	"C/T"	"51,6/48,4"	"16/15"	31
controllo_3	"POPTR_0019s08030.1"	951	"	"C/T"	"74,1/25,9"	"80/28"	108	stress_42	"POPTR_0019s08030.1"	951	"	"C/T"	"57,9/42,1"	"11/8"	19
controllo_3	"POPTR_0011s11960.1"	84	"	"C/T"	"74,1/25,9"	"3853/1346"	5203	stress_12bis	"POPTR_0011s11960.1"	84	"	"T/C"	"62,5/37,5"	"1936/1161"	3098
controllo_3	"POPTR_0011s11960.1"	84	"	"C/T"	"74,1/25,9"	"3853/1346"	5203	stress_45	"POPTR_0011s11960.1"	84	"	"T/C"	"84,0/15,9"	"8456/1606"	10071
controllo_3	"POPTR_0011s12440.1"	363	"	"C/G"	"74,1/25,9"	"120/42"	162	stress_12bis	"POPTR_0011s12440.1"	363	"	"C/G"	"65,7/34,3"	"44/23"	67
controllo_3	"POPTR_0011s12440.1"	363	"	"C/G"	"74,1/25,9"	"120/42"	162	stress_42	"POPTR_0011s12440.1"	363	"	"C/G"	"71,4/28,6"	"10/4"	14
controllo_3	"POPTR_0011s12440.1"	363	"	"C/G"	"74,1/25,9"	"120/42"	162	stress_45	"POPTR_0011s12440.1"	363	"	"C/G"	"80,0/20,0"	"16/4"	20
controllo_3	"POPTR_0001s07850.1"	67	"	"C/A"	"74,1/25,9"	"103/36"	139	stress_12bis	"POPTR_0001s07850.1"	67	"	"C/A"	"63,6/36,4"	"14/8"	22
controllo_3	"POPTR_0001s07850.1"	67	"	"C/A"	"74,1/25,9"	"103/36"	139	stress_42	"POPTR_0001s07850.1"	67	"	"C/A"	"75,0/25,0"	"21/7"	28
controllo_3	"POPTR_0001s07850.1"	67	"	"C/A"	"74,1/25,9"	"103/36"	139	stress_45	"POPTR_0001s07850.1"	67	"	"C/A"	"58,3/41,7"	"21/15"	36
controllo_3	"POPTR_0004s16740.1"	882	"	"A/G"	"74,2/25,8"	"247/86"	333	stress_12bis	"POPTR_0004s16740.1"	882	"	"A/G"	"59,6/39,3"	"53/35"	89
controllo_3	"POPTR_0004s16740.1"	882	"	"A/G"	"74,2/25,8"	"247/86"	333	stress_42	"POPTR_0004s16740.1"	882	"	"A/G"	"62,2/37,0"	"84/50"	135
controllo_3	"POPTR_0004s16740.1"	882	"	"A/G"	"74,2/25,8"	"247/86"	333	stress_45	"POPTR_0004s16740.1"	882	"	"A/G"	"61,6/38,4"	"90/56"	146
controllo_3	"POPTR_0001s21140.1"	669	"	"G/A"	"74,2/25,8"	"336/117"	453	stress_12bis	"POPTR_0001s21140.1"	669	"	"G/A"	"70,5/28,8"	"93/38"	132
controllo_3	"POPTR_0001s21140.1"	669	"	"G/A"	"74,2/25,8"	"336/117"	453	stress_42	"POPTR_0001s21140.1"	669	"	"G/A"	"81,2/18,8"	"39/9"	48
controllo_3	"POPTR_0001s21140.1"	669	"	"G/A"	"74,2/25,8"	"336/117"	453	stress_45	"POPTR_0001s21140.1"	669	"	"G/A"	"84,2/15,8"	"16/3"	19
controllo_3	"POPTR_0008s05870.1"	1309	"	"T/A"	"74,2/25,8"	"118/41"	159	stress_42	"POPTR_0008s05870.1"	1309	"	"T/A"	"53,8/46,2"	"7/6"	13
controllo_3	"POPTR_0008s05870.1"	1309	"	"T/A"	"74,2/25,8"	"118/41"	159	stress_45	"POPTR_0008s05870.1"	1309	"	"T/A"	"54,5/45,5"	"6/5"	11
controllo_3	"POPTR_0008s15800.1"	116	"	"G/A"	"74,2/25,8"	"2633/915"	3549	stress_12bis	"POPTR_0008s15800.1"	116	"	"G/A"	"77,0/23,0"	"1017/304"	1321
controllo_3	"POPTR_0008s15800.1"	116	"	"G/A"	"74,2/25,8"	"2633/915"	3549	stress_42	"POPTR_0008s15800.1"	116	"	"G/A"	"78,6/21,4"	"1117/304"	1421
controllo_3	"POPTR_0008s15800.1"	116	"	"G/A"	"74,2/25,8"	"2633/915"	3549	stress_45	"POPTR_0008s15800.1"	116	"	"G/A"	"77,8/22,2"	"1342/384"	1726
controllo_3	"POPTR_0010s22950.1"	99	"	"A/T"	"74,3/25,3"	"179/61"	241	stress_12bis	"POPTR_0010s22950.1"	99	"	"A/T"	"66,7/33,3"	"16/8"	24
controllo_3	"POPTR_0010s22950.1"	99	"	"A/T"	"74,3/25,3"	"179/61"	241	stress_42	"POPTR_0010s22950.1"	99	"	"A/T"	"63,4/36,6"	"204/118"	322
controllo_3	"POPTR_0010s22950.1"	99	"	"A/T"	"74,3/25,3"	"179/61"	241	stress_45	"POPTR_0010s22950.1"	99	"	"A/T"	"62,1/37,9"	"330/201"	531
controllo_3	"POPTR_0017s11410.1"	366	"	"C/T"	"74,3/25,7"	"153/53"	206	stress_12bis	"POPTR_0017s11410.1"	366	"	"C/T"	"72,7/27,3"	"40/15"	55
controllo_3	"POPTR_0017s11410.1"	366	"	"C/T"	"74,3/25,7"	"153/53"	206	stress_42	"POPTR_0017s11410.1"	366	"	"C/T"	"84,0/16,0"	"21/4"	25
controllo_3	"POPTR_0017s11410.1"	366	"	"C/T"	"74,3/25,7"	"153/53"	206	stress_45	"POPTR_0017s11410.1"	366	"	"C/T"	"83,9/16,1"	"26/5"	31
controllo_3	"POPTR_0004s00480.1"	152	"	"C/A"	"74,3/25,7"	"191/66"	257	stress_12bis	"POPTR_0004s00480.1"	152	"	"C/A"	"75,6/24,4"	"99/32"	131
controllo_3	"POPTR_0004s00480.1"	152	"	"C/A"	"74,3/25,7"	"191/66"	257	stress_42	"POPTR_0004s00480.1"	152	"	"C/A"	"80,0/20,0"	"52/13"	65
controllo_3	"POPTR_0004s00480.1"	152	"	"C/A"	"74,3/25,7"	"191/66"	257	stress_45	"POPTR_0004s00480.1"	152	"	"C/A"	"82,6/17,4"	"95/20"	115
controllo_3	"POPTR_0010s16790.1"	816	"	"C/G"	"74,3/25,7"	"75/26"	101	stress_12bis	"POPTR_0010s16790.1"	816	"	"C/G"	"58,3/37,5"	"14/9"	24
controllo_3	"POPTR_0010s16790.1"	816	"	"C/G"	"74,3/25,7"	"75/26"	101	stress_42	"POPTR_0010s16790.1"	816	"	"C/G"	"58,3/41,7"	"7/5"	12
controllo_3	"POPTR_0010s16790.1"	816	"	"C/G"	"74,3/25,7"	"75/26"	101	stress_45	"POPTR_0010s16790.1"	816	"	"C/G"	"74,2/25,8"	"23/8"	31
controllo_3	"POPTR_0007s04191.1"	674	"	"G/A"	"74,3/25,7"	"75/26"	101	stress_12bis	"POPTR_0007s04191.1"	674	"	"G/A"	"73,9/26,1"	"17/6"	23
controllo_3	"POPTR_0016s03230.1"	90	"	"A/G"	"74,3/25,7"	"200/69"	269	stress_12bis	"POPTR_0016s03230.1"	90	"	"A/G"	"84,0/16,0"	"184/35"	219
controllo_3	"POPTR_0016s03230.1"	90	"	"A/G"	"74,3/25,7"	"200/69"	269	stress_42	"POPTR_0016s03230.1"	90	"	"A/G"	"72,1/27,9"	"44/17"	61
controllo_3	"POPTR_0016s03230.1"	90	"	"A/G"	"74,3/25,7"	"200/69"	269	stress_45	"POPTR_0016s03230.1"	90	"	"A/G"	"71,0/29,0"	"44/18"	62
controllo_3	"POPTR_0009s05720.1"	220	"	"A/G"	"74,4/25,6"	"447/154"	601	stress_12bis	"POPTR_0009s05720.1"	220	"	"A/G"	"73,3/25,9"	"85/30"	116
controllo_3	"POPTR_0009s05720.1"	220	"	"A/G"	"74,4/25,6"	"447/154"	601	stress_42	"POPTR_0009s05720.1"	220	"	"A/G"	"72,0/28,0"	"18/7"	25
controllo_3	"POPTR_0009s05720.1"	220	"	"A/G"	"74,4/25,6"	"447/154"	601	stress_45	"POPTR_0009s05720.1"	220	"	"A/G"	"51,9/44,4"	"14/12"	27
controllo_3	"POPTR_0001s07850.1"	366	"	"T/C"	"74,4/25,6"	"116/40"	156	stress_12bis	"POPTR_0001s07850.1"	366	"	"T/C"	"74,4/25,6"	"29/10"	39
controllo_3	"POPTR_0001s07850.1"	366	"	"T/C"	"74,4/25,6"	"116/40"	156	stress_42	"POPTR_0001s07850.1"	366	"	"T/C"	"75,8/24,2"	"25/8"	33
controllo_3	"POPTR_0001s07850.1"	366	"	"T/C"	"74,4/25,6"	"116/40"	156	stress_45	"POPTR_0001s07850.1"	366	"	"T/C"	"69,0/31,0"	"29/13"	42
controllo_3	"POPTR_0002s21420.1"	2030	"	"T/C"	"74,4/25,6"	"87/30"	117	stress_12bis	"POPTR_0002s21420.1"	2030	"	"T/C"	"65,8/34,2"	"25/13"	38
controllo_3	"POPTR_0002s21420.1"	2030	"	"T/C"	"74,4/25,6"	"87/30"	117	stress_42	"POPTR_0002s21420.1"	2030	"	"T/C"	"78,4/21,6"	"40/11"	51
controllo_3	"POPTR_0002s21420.1"	2030	"	"T/C"	"74,4/25,6"	"87/30"	117	stress_45	"POPTR_0002s21420.1"	2030	"	"T/C"	"59,7/40,3"	"37/25"	62
controllo_3	"POPTR_0005s26930.1"	591	"	"A/G"	"74,5/25,5"	"202/69"	271	stress_12bis	"POPTR_0005s26930.1"	591	"	"A/G"	"64,3/35,7"	"54/30"	84
controllo_3	"POPTR_0005s26930.1"	591	"	"A/G"	"74,5/25,5"	"202/69"	271	stress_42	"POPTR_0005s26930.1"	591	"	"G/A"	"52,2/47,8"	"12/11"	23
controllo_3	"POPTR_0005s26930.1"	591	"	"A/G"	"74,5/25,5"	"202/69"	271	stress_45	"POPTR_0005s26930.1"	591	"	"G/A"	"61,1/38,9"	"11/7"	18
controllo_3	"POPTR_0006s19870.1"	84	"	"T/C"	"74,5/25,5"	"149/51"	200	stress_12bis	"POPTR_0006s19870.1"	84	"	"T/C"	"72,1/27,9"	"44/17"	61
controllo_3	"POPTR_0006s19870.1"	84	"	"T/C"	"74,5/25,5"	"149/51"	200	stress_42	"POPTR_0006s19870.1"	84	"	"T/C"	"79,0/21,0"	"83/22"	105
controllo_3	"POPTR_0006s19870.1"	84	"	"T/C"	"74,5/25,5"	"149/51"	200	stress_45	"POPTR_0006s19870.1"	84	"	"T/C"	"76,1/23,9"	"83/26"	109
controllo_3	"POPTR_0019s04750.1"	784	"	"A/G"	"74,5/25,5"	"114/39"	153	stress_12bis	"POPTR_0019s04750.1"	784	"	"A/G"	"64,5/35,5"	"78/43"	121
controllo_3	"POPTR_0019s04750.1"	784	"	"A/G"	"74,5/25,5"	"114/39"	153	stress_42	"POPTR_0019s04750.1"	784	"	"A/G"	"73,0/27,0"	"84/31"	115
controllo_3	"POPTR_0019s04750.1"	784	"	"A/G"	"74,5/25,5"	"114/39"	153	stress_45	"POPTR_0019s04750.1"	784	"	"A/G"	"77,6/22,4"	"59/17"	76
controllo_3	"POPTR_0001s27020.1"	297	"	"T/A"	"74,5/25,5"	"82/28"	110	stress_12bis	"POPTR_0001s27020.1"	297	"	"T/A"	"76,5/23,5"	"26/8"	34
controllo_3	"POPTR_0001s27020.1"	297	"	"T/A"	"74,5/25,5"	"82/28"	110	stress_42	"POPTR_0001s27020.1"	297	"	"T/A"	"74,1/25,9"	"40/14"	54
controllo_3	"POPTR_0010s21350.1"	1785	"	"A/T"	"74,5/25,5"	"181/62"	243	stress_12bis	"POPTR_0010s21350.1"	1785	"	"A/T"	"62,3/37,7"	"48/29"	77
controllo_3	"POPTR_0010s21350.1"	1785	"	"A/T"	"74,5/25,5"	"181/62"	243	stress_42	"POPTR_0010s21350.1"	1785	"	"A/T"	"64,5/35,5"	"20/11"	31
controllo_3	"POPTR_0010s21350.1"	1785	"	"A/T"	"74,5/25,5"	"181/62"	243	stress_45	"POPTR_0010s21350.1"	1785	"	"A/T"	"70,0/30,0"	"35/15"	50
controllo_3	"POPTR_0019s12320.1"	903	"	"G/A"	"74,6/25,4"	"91/31"	122	stress_12bis	"POPTR_0019s12320.1"	903	"	"G/A"	"60,5/39,5"	"23/15"	38
controllo_3	"POPTR_0004s09510.1"	54	"	"T/C"	"74,6/25,4"	"135/46"	181	stress_42	"POPTR_0004s09510.1"	54	"	"T/C"	"66,7/33,3"	"10/5"	15
controllo_3	"POPTR_0012s08780.1"	407	"	"C/G"	"74,6/25,4"	"91/31"	122	stress_12bis	"POPTR_0012s08780.1"	407	"	"C/G"	"61,3/38,7"	"19/12"	31
controllo_3	"POPTR_0012s08780.1"	407	"	"C/G"	"74,6/25,4"	"91/31"	122	stress_42	"POPTR_0012s08780.1"	407	"	"C/G"	"64,3/35,7"	"18/10"	28
controllo_3	"POPTR_0012s08780.1"	407	"	"C/G"	"74,6/25,4"	"91/31"	122	stress_45	"POPTR_0012s08780.1"	407	"	"C/G"	"71,4/28,6"	"10/4"	14
controllo_3	"POPTR_0001s13100.1"	378	"	"T/C"	"74,6/25,4"	"53/18"	71	stress_12bis	"POPTR_0001s13100.1"	378	"	"C/T"	"70,7/29,3"	"99/41"	140
controllo_3	"POPTR_0010s05170.1"	908	"	"G/C"	"74,6/25,4"	"212/72"	284	stress_12bis	"POPTR_0010s05170.1"	908	"	"G/C"	"64,3/35,7"	"9/5"	14
controllo_3	"POPTR_0008s15780.1"	164	"	"A/G"	"74,6/25,4"	"4378/1488"	5868	stress_12bis	"POPTR_0008s15780.1"	164	"	"A/G"	"75,4/24,6"	"1609/526"	2135
controllo_3	"POPTR_0008s15780.1"	164	"	"A/G"	"74,6/25,4"	"4378/1488"	5868	stress_42	"POPTR_0008s15780.1"	164	"	"A/G"	"78,0/22,0"	"1741/491"	2232
controllo_3	"POPTR_0008s15780.1"	164	"	"A/G"	"74,6/25,4"	"4378/1488"	5868	stress_45	"POPTR_0008s15780.1"	164	"	"A/G"	"77,1/22,9"	"2113/629"	2742
controllo_3	"POPTR_0016s10400.1"	871	"	"G/C"	"74,7/24,7"	"139/46"	186	stress_12bis	"POPTR_0016s10400.1"	871	"	"G/C"	"75,0/25,0"	"15/5"	20
controllo_3	"POPTR_0016s10400.1"	871	"	"G/C"	"74,7/24,7"	"139/46"	186	stress_42	"POPTR_0016s10400.1"	871	"	"G/C"	"76,1/23,9"	"86/27"	113
controllo_3	"POPTR_0016s10400.1"	871	"	"G/C"	"74,7/24,7"	"139/46"	186	stress_45	"POPTR_0016s10400.1"	871	"	"G/C"	"82,1/17,9"	"92/20"	112
controllo_3	"POPTR_0005s17740.1"	465	"	"C/T"	"74,7/25,3"	"109/37"	146	stress_12bis	"POPTR_0005s17740.1"	465	"	"C/T"	"77,4/19,4"	"24/6"	31
controllo_3	"POPTR_0005s17740.1"	465	"	"C/T"	"74,7/25,3"	"109/37"	146	stress_42	"POPTR_0005s17740.1"	465	"	"C/T"	"62,5/37,5"	"15/9"	24
controllo_3	"POPTR_0005s17740.1"	465	"	"C/T"	"74,7/25,3"	"109/37"	146	stress_45	"POPTR_0005s17740.1"	465	"	"T/C"	"55,3/44,7"	"21/17"	38
controllo_3	"POPTR_0004s08500.1"	66	"	"A/T"	"74,7/25,3"	"59/20"	79	stress_12bis	"POPTR_0004s08500.1"	66	"	"T/A"	"76,5/23,5"	"88/27"	115
controllo_3	"POPTR_0015s12900.1"	622	"	"A/T"	"74,7/25,3"	"121/41"	162	stress_12bis	"POPTR_0015s12900.1"	622	"	"A/T"	"72,2/27,8"	"57/22"	79
controllo_3	"POPTR_0015s12900.1"	622	"	"A/T"	"74,7/25,3"	"121/41"	162	stress_42	"POPTR_0015s12900.1"	622	"	"A/T"	"59,7/40,3"	"37/25"	62
controllo_3	"POPTR_0015s12900.1"	622	"	"A/T"	"74,7/25,3"	"121/41"	162	stress_45	"POPTR_0015s12900.1"	622	"	"A/T"	"72,0/28,0"	"18/7"	25
controllo_3	"POPTR_0001s26960.1"	834	"	"A/T"	"74,7/25,3"	"145/49"	194	stress_12bis	"POPTR_0001s26960.1"	834	"	"A/T"	"59,5/40,5"	"25/17"	42
controllo_3	"POPTR_0001s26960.1"	834	"	"A/T"	"74,7/25,3"	"145/49"	194	stress_45	"POPTR_0001s26960.1"	834	"	"A/T"	"62,5/37,5"	"10/6"	16
controllo_3	"POPTR_0015s12900.1"	702	"	"T/C"	"74,8/24,5"	"107/35"	143	stress_12bis	"POPTR_0015s12900.1"	702	"	"C/T"	"50,6/49,4"	"39/38"	77
controllo_3	"POPTR_0015s12900.1"	702	"	"T/C"	"74,8/24,5"	"107/35"	143	stress_42	"POPTR_0015s12900.1"	702	"	"C/T"	"51,1/46,7"	"23/21"	45
controllo_3	"POPTR_0015s12900.1"	702	"	"T/C"	"74,8/24,5"	"107/35"	143	stress_45	"POPTR_0015s12900.1"	702	"	"T/C"	"51,3/48,7"	"20/19"	39
controllo_3	"POPTR_0004s09910.1"	248	"	"A/C"	"74,8/25,0"	"6786/2271"	9069	stress_12bis	"POPTR_0004s09910.1"	248	"	"A/C"	"74,1/25,7"	"1219/423"	1644
controllo_3	"POPTR_0004s09910.1"	248	"	"A/C"	"74,8/25,0"	"6786/2271"	9069	stress_42	"POPTR_0004s09910.1"	248	"	"A/C"	"81,7/18,3"	"179/40"	219
controllo_3	"POPTR_0004s09910.1"	248	"	"A/C"	"74,8/25,0"	"6786/2271"	9069	stress_45	"POPTR_0004s09910.1"	248	"	"A/C"	"76,0/24,0"	"209/66"	275
controllo_3	"POPTR_0003s21070.1"	87	"	"C/T"	"74,8/25,2"	"116/39"	155	stress_12bis	"POPTR_0003s21070.1"	87	"	"C/T"	"73,0/27,0"	"27/10"	37
controllo_3	"POPTR_0003s21070.1"	87	"	"C/T"	"74,8/25,2"	"116/39"	155	stress_45	"POPTR_0003s21070.1"	87	"	"C/T"	"66,7/33,3"	"14/7"	21
controllo_3	"POPTR_0019s04970.1"	1025	"	"G/A"	"74,8/25,2"	"77/26"	103	stress_12bis	"POPTR_0019s04970.1"	1025	"	"G/A"	"70,4/29,6"	"19/8"	27
controllo_3	"POPTR_0001s36870.1"	1820	"	"T/A"	"74,8/25,2"	"110/37"	147	stress_12bis	"POPTR_0001s36870.1"	1820	"	"T/A"	"64,8/35,2"	"35/19"	54
controllo_3	"POPTR_0001s36870.1"	1820	"	"T/A"	"74,8/25,2"	"110/37"	147	stress_42	"POPTR_0001s36870.1"	1820	"	"T/A"	"60,4/39,6"	"29/19"	48
controllo_3	"POPTR_0001s36870.1"	1820	"	"T/A"	"74,8/25,2"	"110/37"	147	stress_45	"POPTR_0001s36870.1"	1820	"	"T/A"	"70,6/29,4"	"24/10"	34
controllo_3	"POPTR_0010s21270.1"	978	"	"C/T"	"74,8/25,2"	"80/27"	107	stress_12bis	"POPTR_0010s21270.1"	978	"	"C/T"	"74,1/25,9"	"40/14"	54
controllo_3	"POPTR_0010s21270.1"	978	"	"C/T"	"74,8/25,2"	"80/27"	107	stress_42	"POPTR_0010s21270.1"	978	"	"C/T"	"76,9/23,1"	"10/3"	13
controllo_3	"POPTR_0010s11780.1"	267	"	"T/G"	"74,8/25,2"	"89/30"	119	stress_12bis	"POPTR_0010s11780.1"	267	"	"T/G"	"72,0/28,0"	"18/7"	25
controllo_3	"POPTR_0010s11780.1"	267	"	"T/G"	"74,8/25,2"	"89/30"	119	stress_42	"POPTR_0010s11780.1"	267	"	"T/G"	"61,1/38,9"	"33/21"	54
controllo_3	"POPTR_0010s11780.1"	267	"	"T/G"	"74,8/25,2"	"89/30"	119	stress_45	"POPTR_0010s11780.1"	267	"	"T/G"	"64,2/35,8"	"61/34"	95
controllo_3	"POPTR_0002s08010.1"	1536	"	"A/C"	"74,8/25,2"	"80/27"	107	stress_12bis	"POPTR_0002s08010.1"	1536	"	"A/C"	"66,7/33,3"	"18/9"	27
controllo_3	"POPTR_0013s00730.1"	105	"	"A/T"	"74,9/25,1"	"149/50"	199	stress_12bis	"POPTR_0013s00730.1"	105	"	"A/T"	"60,0/40,0"	"54/36"	90
controllo_3	"POPTR_0013s00730.1"	105	"	"A/T"	"74,9/25,1"	"149/50"	199	stress_42	"POPTR_0013s00730.1"	105	"	"A/T"	"54,5/45,5"	"18/15"	33
controllo_3	"POPTR_0013s00730.1"	105	"	"A/T"	"74,9/25,1"	"149/50"	199	stress_45	"POPTR_0013s00730.1"	105	"	"A/T"	"60,0/40,0"	"27/18"	45
controllo_3	"POPTR_0013s02710.1"	275	"	"G/A"	"74,9/25,1"	"140/47"	187	stress_12bis	"POPTR_0013s02710.1"	275	"	"G/A"	"80,0/20,0"	"40/10"	50
controllo_3	"POPTR_0013s02710.1"	275	"	"G/A"	"74,9/25,1"	"140/47"	187	stress_42	"POPTR_0013s02710.1"	275	"	"G/A"	"81,0/19,0"	"17/4"	21
controllo_3	"POPTR_0004s09510.1"	117	"	"A/T"	"74,9/25,1"	"140/47"	187	stress_12bis	"POPTR_0004s09510.1"	117	"	"A/T"	"70,0/30,0"	"14/6"	20
controllo_3	"POPTR_0004s09510.1"	117	"	"A/T"	"74,9/25,1"	"140/47"	187	stress_42	"POPTR_0004s09510.1"	117	"	"A/T"	"50,0/50,0"	"5/5"	10
controllo_3	"POPTR_0002s14730.1"	1647	"	"G/A"	"74,9/25,1"	"665/223"	888	stress_12bis	"POPTR_0002s14730.1"	1647	"	"G/A"	"70,1/29,9"	"190/81"	271
controllo_3	"POPTR_0002s14730.1"	1647	"	"G/A"	"74,9/25,1"	"665/223"	888	stress_42	"POPTR_0002s14730.1"	1647	"	"A/G"	"60,4/39,6"	"58/38"	96
controllo_3	"POPTR_0002s14730.1"	1647	"	"G/A"	"74,9/25,1"	"665/223"	888	stress_45	"POPTR_0002s14730.1"	1647	"	"A/G"	"65,8/34,2"	"98/51"	149
controllo_3	"POPTR_0010s16790.1"	1162	"	"G/T"	"75,0/24,2"	"90/29"	120	stress_12bis	"POPTR_0010s16790.1"	1162	"	"G/T"	"64,7/35,3"	"22/12"	34
controllo_3	"POPTR_0010s16790.1"	1162	"	"G/T"	"75,0/24,2"	"90/29"	120	stress_42	"POPTR_0010s16790.1"	1162	"	"G/T"	"80,0/20,0"	"12/3"	15
controllo_3	"POPTR_0010s16790.1"	1162	"	"G/T"	"75,0/24,2"	"90/29"	120	stress_45	"POPTR_0010s16790.1"	1162	"	"G/T"	"82,6/17,4"	"19/4"	23
controllo_3	"POPTR_0004s10120.2"	54	"	"C/A"	"75,0/25,0"	"120/40"	160	stress_12bis	"POPTR_0004s10120.2"	54	"	"C/A"	"83,3/16,7"	"40/8"	48
controllo_3	"POPTR_0004s10120.2"	54	"	"C/A"	"75,0/25,0"	"120/40"	160	stress_45	"POPTR_0004s10120.2"	54	"	"C/A"	"78,4/21,6"	"58/16"	74
controllo_3	"POPTR_0009s13210.1"	104	"	"G/A"	"75,0/25,0"	"84/28"	112	stress_12bis	"POPTR_0009s13210.1"	104	"	"G/A"	"82,5/17,5"	"33/7"	40
controllo_3	"POPTR_0009s13210.1"	104	"	"G/A"	"75,0/25,0"	"84/28"	112	stress_45	"POPTR_0009s13210.1"	104	"	"G/A"	"73,3/26,7"	"11/4"	15
controllo_3	"POPTR_0012s07270.1"	576	"	"A/G"	"75,0/25,0"	"90/30"	120	stress_12bis	"POPTR_0012s07270.1"	576	"	"A/G"	"83,3/16,7"	"40/8"	48
controllo_3	"POPTR_0012s07270.1"	576	"	"A/G"	"75,0/25,0"	"90/30"	120	stress_45	"POPTR_0012s07270.1"	576	"	"A/G"	"81,2/18,8"	"52/12"	64
controllo_3	"POPTR_0010s21350.1"	1018	"	"G/A"	"75,0/25,0"	"84/28"	112	stress_12bis	"POPTR_0010s21350.1"	1018	"	"G/A"	"80,0/20,0"	"16/4"	20
controllo_3	"POPTR_0010s21350.1"	1018	"	"G/A"	"75,0/25,0"	"84/28"	112	stress_42	"POPTR_0010s21350.1"	1018	"	"G/A"	"53,3/46,7"	"8/7"	15
controllo_3	"POPTR_0010s21350.1"	1018	"	"G/A"	"75,0/25,0"	"84/28"	112	stress_45	"POPTR_0010s21350.1"	1018	"	"G/A"	"60,0/40,0"	"9/6"	15
controllo_3	"POPTR_0002s15600.1"	707	"	"G/A"	"75,0/25,0"	"84/28"	112	stress_12bis	"POPTR_0002s15600.1"	707	"	"G/A"	"65,0/35,0"	"13/7"	20
controllo_3	"POPTR_0002s15600.1"	707	"	"G/A"	"75,0/25,0"	"84/28"	112	stress_42	"POPTR_0002s15600.1"	707	"	"G/A"	"82,4/17,6"	"14/3"	17
controllo_3	"POPTR_0002s15600.1"	707	"	"G/A"	"75,0/25,0"	"84/28"	112	stress_45	"POPTR_0002s15600.1"	707	"	"G/A"	"83,3/16,7"	"15/3"	18
controllo_3	"POPTR_0017s05700.1"	591	"	"G/A"	"75,1/24,9"	"275/91"	366	stress_12bis	"POPTR_0017s05700.1"	591	"	"G/A"	"79,6/20,4"	"86/22"	108
controllo_3	"POPTR_0017s05700.1"	591	"	"G/A"	"75,1/24,9"	"275/91"	366	stress_42	"POPTR_0017s05700.1"	591	"	"G/A"	"83,8/16,2"	"57/11"	68
controllo_3	"POPTR_0017s05700.1"	591	"	"G/A"	"75,1/24,9"	"275/91"	366	stress_45	"POPTR_0017s05700.1"	591	"	"G/A"	"69,9/29,0"	"65/27"	93
controllo_3	"POPTR_0014s11580.1"	271	"	"T/C"	"75,1/24,9"	"320/106"	426	stress_12bis	"POPTR_0014s11580.1"	271	"	"T/C"	"77,9/22,1"	"53/15"	68
controllo_3	"POPTR_0014s11580.1"	271	"	"T/C"	"75,1/24,9"	"320/106"	426	stress_42	"POPTR_0014s11580.1"	271	"	"T/C"	"78,4/21,6"	"40/11"	51
controllo_3	"POPTR_0014s11580.1"	271	"	"T/C"	"75,1/24,9"	"320/106"	426	stress_45	"POPTR_0014s11580.1"	271	"	"T/C"	"84,0/16,0"	"42/8"	50
controllo_3	"POPTR_0003s21070.1"	84	"	"T/C"	"75,2/24,8"	"118/39"	157	stress_12bis	"POPTR_0003s21070.1"	84	"	"T/C"	"73,7/26,3"	"28/10"	38
controllo_3	"POPTR_0003s21070.1"	84	"	"T/C"	"75,2/24,8"	"118/39"	157	stress_45	"POPTR_0003s21070.1"	84	"	"T/C"	"63,6/36,4"	"14/8"	22
controllo_3	"POPTR_0004s09910.1"	222	"	"T/C"	"75,2/24,8"	"7222/2386"	9609	stress_12bis	"POPTR_0004s09910.1"	222	"	"T/C"	"73,9/26,1"	"1309/463"	1772
controllo_3	"POPTR_0004s09910.1"	222	"	"T/C"	"75,2/24,8"	"7222/2386"	9609	stress_42	"POPTR_0004s09910.1"	222	"	"T/C"	"71,7/28,3"	"147/58"	205
controllo_3	"POPTR_0004s09910.1"	222	"	"T/C"	"75,2/24,8"	"7222/2386"	9609	stress_45	"POPTR_0004s09910.1"	222	"	"T/C"	"78,2/21,8"	"215/60"	275
controllo_3	"POPTR_0011s02600.1"	123	"	"C/T"	"75,2/24,8"	"76/25"	101	stress_12bis	"POPTR_0011s02600.1"	123	"	"C/T"	"50,0/50,0"	"7/7"	14
controllo_3	"POPTR_0008s15720.1"	480	"	"T/C"	"75,2/24,8"	"197/65"	262	stress_12bis	"POPTR_0008s15720.1"	480	"	"T/C"	"74,5/25,5"	"70/24"	94
controllo_3	"POPTR_0002s19710.1"	128	"	"G/C"	"75,3/24,3"	"198/64"	263	stress_12bis	"POPTR_0002s19710.1"	128	"	"G/C"	"72,6/27,4"	"61/23"	84
controllo_3	"POPTR_0002s19710.1"	128	"	"G/C"	"75,3/24,3"	"198/64"	263	stress_42	"POPTR_0002s19710.1"	128	"	"G/C"	"76,5/23,5"	"26/8"	34
controllo_3	"POPTR_0002s19710.1"	128	"	"G/C"	"75,3/24,3"	"198/64"	263	stress_45	"POPTR_0002s19710.1"	128	"	"G/C"	"82,9/17,1"	"34/7"	41
controllo_3	"POPTR_0017s05700.1"	276	"	"G/A"	"75,3/24,7"	"338/111"	449	stress_12bis	"POPTR_0017s05700.1"	276	"	"G/A"	"80,6/18,5"	"100/23"	124
controllo_3	"POPTR_0017s05700.1"	276	"	"G/A"	"75,3/24,7"	"338/111"	449	stress_42	"POPTR_0017s05700.1"	276	"	"G/A"	"66,3/33,7"	"59/30"	89
controllo_3	"POPTR_0017s05700.1"	276	"	"G/A"	"75,3/24,7"	"338/111"	449	stress_45	"POPTR_0017s05700.1"	276	"	"G/A"	"73,2/26,8"	"82/30"	112
controllo_3	"POPTR_0001s02040.1"	936	"	"A/C"	"75,3/24,7"	"119/39"	158	stress_12bis	"POPTR_0001s02040.1"	936	"	"A/C"	"67,1/32,9"	"47/23"	70
controllo_3	"POPTR_0001s02040.1"	936	"	"A/C"	"75,3/24,7"	"119/39"	158	stress_42	"POPTR_0001s02040.1"	936	"	"A/C"	"54,8/45,2"	"23/19"	42
controllo_3	"POPTR_0001s02040.1"	936	"	"A/C"	"75,3/24,7"	"119/39"	158	stress_45	"POPTR_0001s02040.1"	936	"	"A/C"	"66,7/33,3"	"32/16"	48
controllo_3	"POPTR_0008s05470.1"	1479	"	"T/C"	"75,3/24,7"	"186/61"	247	stress_12bis	"POPTR_0008s05470.1"	1479	"	"T/C"	"79,6/20,4"	"39/10"	49
controllo_3	"POPTR_0008s05470.1"	1479	"	"T/C"	"75,3/24,7"	"186/61"	247	stress_42	"POPTR_0008s05470.1"	1479	"	"T/C"	"68,4/31,6"	"13/6"	19
controllo_3	"POPTR_0008s05470.1"	1479	"	"T/C"	"75,3/24,7"	"186/61"	247	stress_45	"POPTR_0008s05470.1"	1479	"	"T/C"	"81,8/18,2"	"45/10"	55
controllo_3	"POPTR_0013s14520.1"	281	"	"C/G"	"75,4/24,6"	"214/70"	284	stress_12bis	"POPTR_0013s14520.1"	281	"	"C/G"	"64,4/35,6"	"56/31"	87
controllo_3	"POPTR_0001s36700.1"	1137	"	"G/A"	"75,4/24,6"	"92/30"	122	stress_12bis	"POPTR_0001s36700.1"	1137	"	"G/A"	"71,7/28,3"	"33/13"	46
controllo_3	"POPTR_0001s36700.1"	1137	"	"G/A"	"75,4/24,6"	"92/30"	122	stress_42	"POPTR_0001s36700.1"	1137	"	"G/A"	"64,8/35,2"	"35/19"	54
controllo_3	"POPTR_0001s36700.1"	1137	"	"G/A"	"75,4/24,6"	"92/30"	122	stress_45	"POPTR_0001s36700.1"	1137	"	"G/A"	"67,4/32,6"	"31/15"	46
controllo_3	"POPTR_0006s00780.1"	2164	"	"G/C"	"75,5/24,5"	"117/38"	155	stress_12bis	"POPTR_0006s00780.1"	2164	"	"C/G"	"50,0/50,0"	"12/12"	24
controllo_3	"POPTR_0006s00780.1"	2164	"	"G/C"	"75,5/24,5"	"117/38"	155	stress_42	"POPTR_0006s00780.1"	2164	"	"G/C"	"83,3/16,7"	"10/2"	12
controllo_3	"POPTR_0009s05720.1"	75	"	"T/C"	"75,5/24,5"	"329/107"	436	stress_12bis	"POPTR_0009s05720.1"	75	"	"T/C"	"75,9/24,1"	"66/21"	87
controllo_3	"POPTR_0009s05720.1"	75	"	"T/C"	"75,5/24,5"	"329/107"	436	stress_42	"POPTR_0009s05720.1"	75	"	"T/C"	"77,8/22,2"	"21/6"	27
controllo_3	"POPTR_0009s05720.1"	75	"	"T/C"	"75,5/24,5"	"329/107"	436	stress_45	"POPTR_0009s05720.1"	75	"	"T/C"	"80,0/20,0"	"8/2"	10
controllo_3	"POPTR_0009s09240.1"	858	"	"C/T"	"75,5/24,5"	"123/40"	163	stress_12bis	"POPTR_0009s09240.1"	858	"	"C/T"	"72,5/27,5"	"66/25"	91
controllo_3	"POPTR_0009s09240.1"	858	"	"C/T"	"75,5/24,5"	"123/40"	163	stress_42	"POPTR_0009s09240.1"	858	"	"C/T"	"75,0/25,0"	"24/8"	32
controllo_3	"POPTR_0009s09240.1"	858	"	"C/T"	"75,5/24,5"	"123/40"	163	stress_45	"POPTR_0009s09240.1"	858	"	"C/T"	"69,4/30,6"	"25/11"	36
controllo_3	"POPTR_0001s30460.1"	255	"	"C/A"	"75,5/24,5"	"80/26"	106	stress_12bis	"POPTR_0001s30460.1"	255	"	"C/A"	"65,0/35,0"	"13/7"	20
controllo_3	"POPTR_0001s30460.1"	255	"	"C/A"	"75,5/24,5"	"80/26"	106	stress_42	"POPTR_0001s30460.1"	255	"	"A/C"	"58,3/41,7"	"7/5"	12
controllo_3	"POPTR_0001s30460.1"	255	"	"C/A"	"75,5/24,5"	"80/26"	106	stress_45	"POPTR_0001s30460.1"	255	"	"A/C"	"60,0/40,0"	"6/4"	10
controllo_3	"POPTR_0010s16790.1"	1357	"	"G/A"	"75,5/24,5"	"114/37"	151	stress_12bis	"POPTR_0010s16790.1"	1357	"	"G/A"	"65,8/34,2"	"25/13"	38
controllo_3	"POPTR_0010s16790.1"	1357	"	"G/A"	"75,5/24,5"	"114/37"	151	stress_42	"POPTR_0010s16790.1"	1357	"	"G/A"	"73,9/26,1"	"17/6"	23
controllo_3	"POPTR_0010s16790.1"	1357	"	"G/A"	"75,5/24,5"	"114/37"	151	stress_45	"POPTR_0010s16790.1"	1357	"	"G/A"	"75,0/25,0"	"30/10"	40
controllo_3	"POPTR_0006s14400.1"	1068	"	"G/T"	"75,6/24,4"	"204/66"	270	stress_12bis	"POPTR_0006s14400.1"	1068	"	"G/T"	"71,1/28,9"	"54/22"	76
controllo_3	"POPTR_0006s14400.1"	1068	"	"G/T"	"75,6/24,4"	"204/66"	270	stress_42	"POPTR_0006s14400.1"	1068	"	"G/T"	"50,0/49,3"	"69/68"	138
controllo_3	"POPTR_0006s14400.1"	1068	"	"G/T"	"75,6/24,4"	"204/66"	270	stress_45	"POPTR_0006s14400.1"	1068	"	"T/G"	"54,5/44,7"	"67/55"	123
controllo_3	"POPTR_0001s30460.1"	294	"	"C/G"	"75,6/24,4"	"90/29"	119	stress_12bis	"POPTR_0001s30460.1"	294	"	"C/G"	"76,9/23,1"	"20/6"	26
controllo_3	"POPTR_0001s30460.1"	294	"	"C/G"	"75,6/24,4"	"90/29"	119	stress_42	"POPTR_0001s30460.1"	294	"	"G/C"	"75,0/25,0"	"9/3"	12
controllo_3	"POPTR_0001s30460.1"	294	"	"C/G"	"75,6/24,4"	"90/29"	119	stress_45	"POPTR_0001s30460.1"	294	"	"C/G"	"66,7/33,3"	"14/7"	21
controllo_3	"POPTR_0010s21350.1"	1599	"	"C/T"	"75,6/24,4"	"186/60"	246	stress_12bis	"POPTR_0010s21350.1"	1599	"	"C/T"	"71,0/29,0"	"44/18"	62
controllo_3	"POPTR_0010s21350.1"	1599	"	"C/T"	"75,6/24,4"	"186/60"	246	stress_42	"POPTR_0010s21350.1"	1599	"	"C/T"	"71,4/28,6"	"15/6"	21
controllo_3	"POPTR_0010s21350.1"	1599	"	"C/T"	"75,6/24,4"	"186/60"	246	stress_45	"POPTR_0010s21350.1"	1599	"	"C/T"	"70,7/29,3"	"41/17"	58
controllo_3	"POPTR_0010s21700.1"	429	"	"T/C"	"75,6/24,4"	"149/48"	197	stress_42	"POPTR_0010s21700.1"	429	"	"T/C"	"65,7/34,3"	"23/12"	35
controllo_3	"POPTR_0010s21700.1"	429	"	"T/C"	"75,6/24,4"	"149/48"	197	stress_45	"POPTR_0010s21700.1"	429	"	"T/C"	"63,2/36,8"	"12/7"	19
controllo_3	"POPTR_0019s12320.1"	374	"	"A/C"	"75,7/24,3"	"78/25"	103	stress_12bis	"POPTR_0019s12320.1"	374	"	"A/C"	"83,8/16,2"	"31/6"	37
controllo_3	"POPTR_0015s09910.1"	172	"	"C/A"	"75,7/24,3"	"103/33"	136	stress_12bis	"POPTR_0015s09910.1"	172	"	"C/A"	"74,6/25,4"	"53/18"	71
controllo_3	"POPTR_0015s09910.1"	172	"	"C/A"	"75,7/24,3"	"103/33"	136	stress_45	"POPTR_0015s09910.1"	172	"	"C/A"	"79,2/20,8"	"19/5"	24
controllo_3	"POPTR_0015s09910.1"	264	"	"G/T"	"75,7/24,3"	"165/53"	218	stress_12bis	"POPTR_0015s09910.1"	264	"	"G/T"	"82,0/17,2"	"100/21"	122
controllo_3	"POPTR_0001s36870.1"	1311	"	"G/C"	"75,7/24,3"	"78/25"	103	stress_12bis	"POPTR_0001s36870.1"	1311	"	"G/C"	"51,5/48,5"	"17/16"	33
controllo_3	"POPTR_0001s36870.1"	1311	"	"G/C"	"75,7/24,3"	"78/25"	103	stress_42	"POPTR_0001s36870.1"	1311	"	"G/C"	"68,0/32,0"	"17/8"	25
controllo_3	"POPTR_0001s36870.1"	1311	"	"G/C"	"75,7/24,3"	"78/25"	103	stress_45	"POPTR_0001s36870.1"	1311	"	"G/C"	"51,6/48,4"	"16/15"	31
controllo_3	"POPTR_0001s36870.1"	1436	"	"C/G"	"75,7/24,3"	"81/26"	107	stress_12bis	"POPTR_0001s36870.1"	1436	"	"C/G"	"53,3/46,7"	"16/14"	30
controllo_3	"POPTR_0001s36870.1"	1436	"	"C/G"	"75,7/24,3"	"81/26"	107	stress_42	"POPTR_0001s36870.1"	1436	"	"C/G"	"62,1/37,9"	"18/11"	29
controllo_3	"POPTR_0001s36870.1"	1436	"	"C/G"	"75,7/24,3"	"81/26"	107	stress_45	"POPTR_0001s36870.1"	1436	"	"C/G"	"63,3/36,7"	"19/11"	30
controllo_3	"POPTR_0001s30460.1"	288	"	"G/A"	"75,7/24,3"	"87/28"	115	stress_12bis	"POPTR_0001s30460.1"	288	"	"G/A"	"67,9/32,1"	"19/9"	28
controllo_3	"POPTR_0001s30460.1"	288	"	"G/A"	"75,7/24,3"	"87/28"	115	stress_42	"POPTR_0001s30460.1"	288	"	"A/G"	"63,6/36,4"	"7/4"	11
controllo_3	"POPTR_0001s30460.1"	288	"	"G/A"	"75,7/24,3"	"87/28"	115	stress_45	"POPTR_0001s30460.1"	288	"	"G/A"	"60,0/40,0"	"15/10"	25
controllo_3	"POPTR_0010s21980.1"	600	"	"T/A"	"75,7/24,3"	"87/28"	115	stress_12bis	"POPTR_0010s21980.1"	600	"	"T/A"	"71,4/28,6"	"20/8"	28
controllo_3	"POPTR_0010s21980.1"	600	"	"T/A"	"75,7/24,3"	"87/28"	115	stress_42	"POPTR_0010s21980.1"	600	"	"T/A"	"68,2/31,8"	"30/14"	44
controllo_3	"POPTR_0010s21980.1"	600	"	"T/A"	"75,7/24,3"	"87/28"	115	stress_45	"POPTR_0010s21980.1"	600	"	"T/A"	"66,7/33,3"	"32/16"	48
controllo_3	"POPTR_0009s13210.1"	672	"	"C/T"	"75,8/24,2"	"97/31"	128	stress_12bis	"POPTR_0009s13210.1"	672	"	"C/T"	"79,1/20,9"	"34/9"	43
controllo_3	"POPTR_0009s13210.1"	672	"	"C/T"	"75,8/24,2"	"97/31"	128	stress_42	"POPTR_0009s13210.1"	672	"	"C/T"	"73,3/26,7"	"11/4"	15
controllo_3	"POPTR_0009s13210.1"	672	"	"C/T"	"75,8/24,2"	"97/31"	128	stress_45	"POPTR_0009s13210.1"	672	"	"C/T"	"70,0/30,0"	"7/3"	10
controllo_3	"POPTR_0001s25760.1"	414	"	"C/T"	"75,8/24,2"	"122/39"	161	stress_12bis	"POPTR_0001s25760.1"	414	"	"C/T"	"65,5/34,5"	"19/10"	29
controllo_3	"POPTR_0001s25760.1"	414	"	"C/T"	"75,8/24,2"	"122/39"	161	stress_42	"POPTR_0001s25760.1"	414	"	"C/T"	"50,0/50,0"	"10/10"	20
controllo_3	"POPTR_0001s25760.1"	414	"	"C/T"	"75,8/24,2"	"122/39"	161	stress_45	"POPTR_0001s25760.1"	414	"	"C/T"	"55,2/44,8"	"16/13"	29
controllo_3	"POPTR_0010s21280.1"	702	"	"T/A"	"75,8/24,2"	"270/86"	356	stress_12bis	"POPTR_0010s21280.1"	702	"	"T/A"	"77,3/22,7"	"102/30"	132
controllo_3	"POPTR_0010s21280.1"	702	"	"T/A"	"75,8/24,2"	"270/86"	356	stress_42	"POPTR_0010s21280.1"	702	"	"T/A"	"78,6/21,4"	"44/12"	56
controllo_3	"POPTR_0010s21280.1"	702	"	"T/A"	"75,8/24,2"	"270/86"	356	stress_45	"POPTR_0010s21280.1"	702	"	"T/A"	"79,3/20,7"	"96/25"	121
controllo_3	"POPTR_0004s09910.1"	243	"	"A/G"	"75,9/24,0"	"6637/2098"	8739	stress_12bis	"POPTR_0004s09910.1"	243	"	"A/G"	"72,8/27,1"	"1166/434"	1601
controllo_3	"POPTR_0004s09910.1"	243	"	"A/G"	"75,9/24,0"	"6637/2098"	8739	stress_42	"POPTR_0004s09910.1"	243	"	"A/G"	"71,7/28,3"	"132/52"	184
controllo_3	"POPTR_0004s09910.1"	243	"	"A/G"	"75,9/24,0"	"6637/2098"	8739	stress_45	"POPTR_0004s09910.1"	243	"	"A/G"	"72,8/26,9"	"195/72"	268
controllo_3	"POPTR_0018s02960.1"	664	"	"G/A"	"75,9/24,1"	"82/26"	108	stress_12bis	"POPTR_0018s02960.1"	664	"	"G/A"	"66,7/33,3"	"8/4"	12
controllo_3	"POPTR_0018s02960.1"	666	"	"C/T"	"75,9/24,1"	"82/26"	108	stress_12bis	"POPTR_0018s02960.1"	666	"	"C/T"	"66,7/33,3"	"8/4"	12
controllo_3	"POPTR_0018s02770.1"	93	"	"C/G"	"75,9/24,1"	"110/35"	145	stress_42	"POPTR_0018s02770.1"	93	"	"C/G"	"55,9/44,1"	"19/15"	34
controllo_3	"POPTR_0018s02770.1"	93	"	"C/G"	"75,9/24,1"	"110/35"	145	stress_45	"POPTR_0018s02770.1"	93	"	"G/C"	"56,2/43,8"	"18/14"	32
controllo_3	"POPTR_0009s10270.1"	552	"	"G/A"	"75,9/24,1"	"104/33"	137	stress_45	"POPTR_0009s10270.1"	552	"	"G/A"	"64,7/35,3"	"11/6"	17
controllo_3	"POPTR_0007s10980.1"	73	"	"T/C"	"75,9/24,1"	"88/28"	116	stress_12bis	"POPTR_0007s10980.1"	73	"	"T/C"	"77,8/22,2"	"28/8"	36
controllo_3	"POPTR_0002s15840.1"	462	"	"G/T"	"75,9/24,1"	"85/27"	112	stress_12bis	"POPTR_0002s15840.1"	462	"	"G/T"	"81,0/19,0"	"34/8"	42
controllo_3	"POPTR_0002s15840.1"	462	"	"G/T"	"75,9/24,1"	"85/27"	112	stress_45	"POPTR_0002s15840.1"	462	"	"G/T"	"63,6/36,4"	"7/4"	11
controllo_3	"POPTR_0016s09280.1"	2212	"	"G/T"	"76,0/23,6"	"158/49"	208	stress_42	"POPTR_0016s09280.1"	2212	"	"G/T"	"78,3/21,7"	"65/18"	83
controllo_3	"POPTR_0016s09280.1"	2212	"	"G/T"	"76,0/23,6"	"158/49"	208	stress_45	"POPTR_0016s09280.1"	2212	"	"G/T"	"76,7/22,3"	"79/23"	103
controllo_3	"POPTR_0008s19370.1"	198	"	"T/C"	"76,0/23,8"	"1353/423"	1780	stress_12bis	"POPTR_0008s19370.1"	198	"	"T/C"	"79,2/20,7"	"792/207"	1000
controllo_3	"POPTR_0008s19370.1"	198	"	"T/C"	"76,0/23,8"	"1353/423"	1780	stress_42	"POPTR_0008s19370.1"	198	"	"T/C"	"85,0/15,0"	"51/9"	60
controllo_3	"POPTR_0011s00500.1"	104	"	"T/C"	"76,0/24,0"	"330/104"	434	stress_12bis	"POPTR_0011s00500.1"	104	"	"T/C"	"78,6/21,4"	"11/3"	14
controllo_3	"POPTR_0010s08230.1"	1533	"	"C/T"	"76,0/24,0"	"155/49"	204	stress_12bis	"POPTR_0010s08230.1"	1533	"	"C/T"	"69,2/30,8"	"9/4"	13
controllo_3	"POPTR_0010s08230.1"	1533	"	"C/T"	"76,0/24,0"	"155/49"	204	stress_42	"POPTR_0010s08230.1"	1533	"	"T/C"	"74,1/25,9"	"20/7"	27
controllo_3	"POPTR_0010s08230.1"	1533	"	"C/T"	"76,0/24,0"	"155/49"	204	stress_45	"POPTR_0010s08230.1"	1533	"	"T/C"	"70,4/29,6"	"38/16"	54
controllo_3	"POPTR_0010s21700.1"	417	"	"T/G"	"76,0/24,0"	"133/42"	175	stress_42	"POPTR_0010s21700.1"	417	"	"T/G"	"81,5/18,5"	"22/5"	27
controllo_3	"POPTR_0010s21700.1"	417	"	"T/G"	"76,0/24,0"	"133/42"	175	stress_45	"POPTR_0010s21700.1"	417	"	"T/G"	"61,1/38,9"	"11/7"	18
controllo_3	"POPTR_0021s00380.1"	213	"	"G/A"	"76,1/23,9"	"328/103"	431	stress_12bis	"POPTR_0021s00380.1"	213	"	"G/A"	"73,0/27,0"	"111/41"	152
controllo_3	"POPTR_0021s00380.1"	213	"	"G/A"	"76,1/23,9"	"328/103"	431	stress_45	"POPTR_0021s00380.1"	213	"	"G/A"	"70,4/29,6"	"19/8"	27
controllo_3	"POPTR_0003s12160.1"	1257	"	"A/G"	"76,1/23,9"	"331/104"	435	stress_12bis	"POPTR_0003s12160.1"	1257	"	"A/G"	"63,4/36,6"	"85/49"	134
controllo_3	"POPTR_0003s12160.1"	1257	"	"A/G"	"76,1/23,9"	"331/104"	435	stress_42	"POPTR_0003s12160.1"	1257	"	"A/G"	"60,9/39,1"	"28/18"	46
controllo_3	"POPTR_0003s12160.1"	1257	"	"A/G"	"76,1/23,9"	"331/104"	435	stress_45	"POPTR_0003s12160.1"	1257	"	"A/G"	"62,5/37,5"	"40/24"	64
controllo_3	"POPTR_0013s03700.1"	816	"	"C/T"	"76,1/23,9"	"86/27"	113	stress_12bis	"POPTR_0013s03700.1"	816	"	"C/T"	"66,7/33,3"	"20/10"	30
controllo_3	"POPTR_0013s03700.1"	816	"	"C/T"	"76,1/23,9"	"86/27"	113	stress_42	"POPTR_0013s03700.1"	816	"	"C/T"	"69,2/30,8"	"9/4"	13
controllo_3	"POPTR_0013s03700.1"	816	"	"C/T"	"76,1/23,9"	"86/27"	113	stress_45	"POPTR_0013s03700.1"	816	"	"C/T"	"50,0/50,0"	"7/7"	14
controllo_3	"POPTR_0001s01630.1"	86	"	"A/C"	"76,1/23,9"	"201/63"	264	stress_12bis	"POPTR_0001s01630.1"	86	"	"A/C"	"83,1/16,9"	"74/15"	89
controllo_3	"POPTR_0010s21350.1"	30	"	"A/C"	"76,1/23,9"	"83/26"	109	stress_12bis	"POPTR_0010s21350.1"	30	"	"A/C"	"66,7/33,3"	"18/9"	27
controllo_3	"POPTR_0010s21350.1"	30	"	"A/C"	"76,1/23,9"	"83/26"	109	stress_45	"POPTR_0010s21350.1"	30	"	"C/A"	"60,0/40,0"	"6/4"	10
controllo_3	"POPTR_0010s08230.1"	1422	"	"T/C"	"76,1/23,9"	"169/53"	222	stress_12bis	"POPTR_0010s08230.1"	1422	"	"T/C"	"72,2/27,8"	"13/5"	18
controllo_3	"POPTR_0010s08230.1"	1422	"	"T/C"	"76,1/23,9"	"169/53"	222	stress_42	"POPTR_0010s08230.1"	1422	"	"C/T"	"63,6/36,4"	"21/12"	33
controllo_3	"POPTR_0010s08230.1"	1422	"	"T/C"	"76,1/23,9"	"169/53"	222	stress_45	"POPTR_0010s08230.1"	1422	"	"C/T"	"70,9/29,1"	"39/16"	55
controllo_3	"POPTR_0016s02570.1"	261	"	"T/A"	"76,1/23,9"	"325/102"	427	stress_12bis	"POPTR_0016s02570.1"	261	"	"T/A"	"75,9/24,1"	"63/20"	83
controllo_3	"POPTR_0016s02570.1"	261	"	"T/A"	"76,1/23,9"	"325/102"	427	stress_42	"POPTR_0016s02570.1"	261	"	"T/A"	"77,8/22,2"	"21/6"	27
controllo_3	"POPTR_0016s02570.1"	261	"	"T/A"	"76,1/23,9"	"325/102"	427	stress_45	"POPTR_0016s02570.1"	261	"	"T/A"	"66,7/33,3"	"12/6"	18
controllo_3	"POPTR_0015s00510.1"	63	"	"T/C"	"76,2/23,8"	"80/25"	105	stress_45	"POPTR_0015s00510.1"	63	"	"C/T"	"79,2/20,8"	"19/5"	24
controllo_3	"POPTR_0001s11350.1"	825	"	"A/T"	"76,2/23,8"	"115/36"	151	stress_12bis	"POPTR_0001s11350.1"	825	"	"A/T"	"73,1/26,9"	"76/28"	104
controllo_3	"POPTR_0001s11350.1"	825	"	"A/T"	"76,2/23,8"	"115/36"	151	stress_42	"POPTR_0001s11350.1"	825	"	"T/A"	"70,8/29,2"	"34/14"	48
controllo_3	"POPTR_0001s11350.1"	825	"	"A/T"	"76,2/23,8"	"115/36"	151	stress_45	"POPTR_0001s11350.1"	825	"	"A/T"	"52,4/47,6"	"22/20"	42
controllo_3	"POPTR_0001s37490.1"	909	"	"A/C"	"76,2/23,8"	"173/54"	227	stress_12bis	"POPTR_0001s37490.1"	909	"	"A/C"	"74,0/26,0"	"37/13"	50
controllo_3	"POPTR_0001s37490.1"	909	"	"A/C"	"76,2/23,8"	"173/54"	227	stress_45	"POPTR_0001s37490.1"	909	"	"A/C"	"83,5/16,5"	"111/22"	133
controllo_3	"POPTR_0004s01030.1"	658	"	"T/C"	"76,3/22,9"	"100/30"	131	stress_12bis	"POPTR_0004s01030.1"	658	"	"T/C"	"69,7/30,3"	"23/10"	33
controllo_3	"POPTR_0004s01030.1"	658	"	"T/C"	"76,3/22,9"	"100/30"	131	stress_42	"POPTR_0004s01030.1"	658	"	"T/C"	"63,6/36,4"	"7/4"	11
controllo_3	"POPTR_0004s01030.1"	658	"	"T/C"	"76,3/22,9"	"100/30"	131	stress_45	"POPTR_0004s01030.1"	658	"	"C/T"	"69,6/30,4"	"16/7"	23
controllo_3	"POPTR_0015s08540.1"	1422	"	"C/T"	"76,3/23,2"	"145/44"	190	stress_12bis	"POPTR_0015s08540.1"	1422	"	"C/T"	"72,6/27,4"	"45/17"	62
controllo_3	"POPTR_0015s08540.1"	1422	"	"C/T"	"76,3/23,2"	"145/44"	190	stress_42	"POPTR_0015s08540.1"	1422	"	"C/T"	"66,7/33,3"	"24/12"	36
controllo_3	"POPTR_0015s08540.1"	1422	"	"C/T"	"76,3/23,2"	"145/44"	190	stress_45	"POPTR_0015s08540.1"	1422	"	"C/T"	"72,2/27,8"	"13/5"	18
controllo_3	"POPTR_0019s12320.1"	1671	"	"G/T"	"76,3/23,7"	"190/59"	249	stress_12bis	"POPTR_0019s12320.1"	1671	"	"G/T"	"74,8/25,2"	"80/27"	107
controllo_3	"POPTR_0011s11960.1"	31	"	"G/C"	"76,3/23,7"	"7953/2465"	10420	stress_12bis	"POPTR_0011s11960.1"	31	"	"G/C"	"79,1/20,9"	"3229/853"	4084
controllo_3	"POPTR_0010s12680.1"	1530	"	"T/C"	"76,3/23,7"	"103/32"	135	stress_12bis	"POPTR_0010s12680.1"	1530	"	"T/C"	"62,5/37,5"	"30/18"	48
controllo_3	"POPTR_0010s12680.1"	1530	"	"T/C"	"76,3/23,7"	"103/32"	135	stress_42	"POPTR_0010s12680.1"	1530	"	"T/C"	"83,2/16,8"	"79/16"	95
controllo_3	"POPTR_0010s12680.1"	1530	"	"T/C"	"76,3/23,7"	"103/32"	135	stress_45	"POPTR_0010s12680.1"	1530	"	"T/C"	"80,1/19,9"	"109/27"	136
controllo_3	"POPTR_0010s05170.1"	243	"	"T/A"	"76,3/23,7"	"421/131"	552	stress_12bis	"POPTR_0010s05170.1"	243	"	"A/T"	"63,4/36,6"	"85/49"	134
controllo_3	"POPTR_0017s06650.1"	622	"	"G/C"	"76,4/23,6"	"123/38"	161	stress_12bis	"POPTR_0017s06650.1"	622	"	"G/C"	"64,0/36,0"	"16/9"	25
controllo_3	"POPTR_0017s06650.1"	622	"	"G/C"	"76,4/23,6"	"123/38"	161	stress_45	"POPTR_0017s06650.1"	622	"	"G/C"	"69,2/30,8"	"9/4"	13
controllo_3	"POPTR_0006s28120.1"	59	"	"C/G"	"76,4/23,6"	"133/41"	174	stress_42	"POPTR_0006s28120.1"	59	"	"C/G"	"82,6/17,4"	"19/4"	23
controllo_3	"POPTR_0006s28120.1"	87	"	"C/A"	"76,4/23,6"	"152/47"	199	stress_12bis	"POPTR_0006s28120.1"	87	"	"C/A"	"75,8/24,2"	"72/23"	95
controllo_3	"POPTR_0006s28120.1"	87	"	"C/A"	"76,4/23,6"	"152/47"	199	stress_42	"POPTR_0006s28120.1"	87	"	"C/A"	"75,0/25,0"	"27/9"	36
controllo_3	"POPTR_0006s28120.1"	87	"	"C/A"	"76,4/23,6"	"152/47"	199	stress_45	"POPTR_0006s28120.1"	87	"	"C/A"	"76,7/23,3"	"33/10"	43
controllo_3	"POPTR_0006s27170.1"	360	"	"C/T"	"76,4/23,6"	"549/170"	719	stress_12bis	"POPTR_0006s27170.1"	360	"	"C/T"	"78,7/21,3"	"196/53"	249
controllo_3	"POPTR_0006s27170.1"	360	"	"C/T"	"76,4/23,6"	"549/170"	719	stress_42	"POPTR_0006s27170.1"	360	"	"C/T"	"68,4/26,3"	"13/5"	19
controllo_3	"POPTR_0006s27170.1"	360	"	"C/T"	"76,4/23,6"	"549/170"	719	stress_45	"POPTR_0006s27170.1"	360	"	"C/T"	"76,1/23,9"	"35/11"	46
controllo_3	"POPTR_0011s16780.1"	163	"	"C/T"	"76,4/23,6"	"84/26"	110	stress_12bis	"POPTR_0011s16780.1"	163	"	"C/T"	"75,7/24,3"	"28/9"	37
controllo_3	"POPTR_0001s36870.1"	1459	"	"G/A"	"76,4/23,6"	"84/26"	110	stress_12bis	"POPTR_0001s36870.1"	1459	"	"G/A"	"60,6/39,4"	"20/13"	33
controllo_3	"POPTR_0001s36870.1"	1459	"	"G/A"	"76,4/23,6"	"84/26"	110	stress_42	"POPTR_0001s36870.1"	1459	"	"G/A"	"69,2/30,8"	"18/8"	26
controllo_3	"POPTR_0001s36870.1"	1459	"	"G/A"	"76,4/23,6"	"84/26"	110	stress_45	"POPTR_0001s36870.1"	1459	"	"G/A"	"66,7/33,3"	"22/11"	33
controllo_3	"POPTR_0001s02040.1"	942	"	"A/T"	"76,4/23,6"	"136/42"	178	stress_12bis	"POPTR_0001s02040.1"	942	"	"A/T"	"63,6/36,4"	"49/28"	77
controllo_3	"POPTR_0001s02040.1"	942	"	"A/T"	"76,4/23,6"	"136/42"	178	stress_42	"POPTR_0001s02040.1"	942	"	"A/T"	"54,7/45,3"	"29/24"	53
controllo_3	"POPTR_0001s02040.1"	942	"	"A/T"	"76,4/23,6"	"136/42"	178	stress_45	"POPTR_0001s02040.1"	942	"	"A/T"	"67,3/32,7"	"37/18"	55
controllo_3	"POPTR_0001s41780.1"	267	"	"G/A"	"76,4/23,6"	"126/39"	165	stress_12bis	"POPTR_0001s41780.1"	267	"	"A/G"	"57,9/42,1"	"11/8"	19
controllo_3	"POPTR_0001s41780.1"	267	"	"G/A"	"76,4/23,6"	"126/39"	165	stress_42	"POPTR_0001s41780.1"	267	"	"G/A"	"82,6/17,4"	"19/4"	23
controllo_3	"POPTR_0001s41780.1"	267	"	"G/A"	"76,4/23,6"	"126/39"	165	stress_45	"POPTR_0001s41780.1"	267	"	"G/A"	"80,0/20,0"	"12/3"	15
controllo_3	"POPTR_0002s12100.1"	27	"	"A/G"	"76,4/23,6"	"81/25"	106	stress_12bis	"POPTR_0002s12100.1"	27	"	"A/G"	"75,0/25,0"	"60/20"	80
controllo_3	"POPTR_0002s12100.1"	27	"	"A/G"	"76,4/23,6"	"81/25"	106	stress_42	"POPTR_0002s12100.1"	27	"	"A/G"	"60,9/39,1"	"14/9"	23
controllo_3	"POPTR_0015s09910.1"	302	"	"G/A"	"76,5/23,5"	"163/50"	213	stress_12bis	"POPTR_0015s09910.1"	302	"	"G/A"	"76,5/23,5"	"91/28"	119
controllo_3	"POPTR_0010s20060.1"	180	"	"G/A"	"76,5/23,5"	"228/70"	298	stress_12bis	"POPTR_0010s20060.1"	180	"	"G/A"	"73,8/26,2"	"76/27"	103
controllo_3	"POPTR_0006s08530.1"	131	"	"T/G"	"76,6/23,4"	"1641/501"	2142	stress_12bis	"POPTR_0006s08530.1"	131	"	"T/G"	"73,6/26,4"	"966/347"	1313
controllo_3	"POPTR_0006s08530.1"	131	"	"T/G"	"76,6/23,4"	"1641/501"	2142	stress_42	"POPTR_0006s08530.1"	131	"	"T/G"	"53,6/46,4"	"651/563"	1214
controllo_3	"POPTR_0006s08530.1"	131	"	"T/G"	"76,6/23,4"	"1641/501"	2142	stress_45	"POPTR_0006s08530.1"	131	"	"T/G"	"63,5/36,5"	"948/545"	1493
controllo_3	"POPTR_0019s15250.1"	108	"	"C/T"	"76,6/23,4"	"121/37"	158	stress_12bis	"POPTR_0019s15250.1"	108	"	"C/T"	"59,7/40,3"	"43/29"	72
controllo_3	"POPTR_0019s15250.1"	108	"	"C/T"	"76,6/23,4"	"121/37"	158	stress_42	"POPTR_0019s15250.1"	108	"	"C/T"	"78,6/21,4"	"44/12"	56
controllo_3	"POPTR_0019s15250.1"	108	"	"C/T"	"76,6/23,4"	"121/37"	158	stress_45	"POPTR_0019s15250.1"	108	"	"C/T"	"72,5/27,5"	"100/38"	138
controllo_3	"POPTR_0001s07850.1"	224	"	"A/C"	"76,6/23,4"	"131/40"	171	stress_12bis	"POPTR_0001s07850.1"	224	"	"A/C"	"51,7/48,3"	"15/14"	29
controllo_3	"POPTR_0001s07850.1"	224	"	"A/C"	"76,6/23,4"	"131/40"	171	stress_42	"POPTR_0001s07850.1"	224	"	"A/C"	"80,0/20,0"	"20/5"	25
controllo_3	"POPTR_0001s07850.1"	224	"	"A/C"	"76,6/23,4"	"131/40"	171	stress_45	"POPTR_0001s07850.1"	224	"	"A/C"	"57,8/42,2"	"26/19"	45
controllo_3	"POPTR_0005s26930.1"	315	"	"G/A"	"76,7/23,3"	"102/31"	133	stress_12bis	"POPTR_0005s26930.1"	315	"	"G/A"	"80,6/19,4"	"29/7"	36
controllo_3	"POPTR_0005s17740.1"	430	"	"A/T"	"76,7/23,3"	"92/28"	120	stress_12bis	"POPTR_0005s17740.1"	430	"	"A/T"	"77,4/22,6"	"24/7"	31
controllo_3	"POPTR_0005s17740.1"	430	"	"A/T"	"76,7/23,3"	"92/28"	120	stress_42	"POPTR_0005s17740.1"	430	"	"A/T"	"60,9/39,1"	"14/9"	23
controllo_3	"POPTR_0005s17740.1"	430	"	"A/T"	"76,7/23,3"	"92/28"	120	stress_45	"POPTR_0005s17740.1"	430	"	"A/T"	"56,8/43,2"	"21/16"	37
controllo_3	"POPTR_0001s42720.1"	1596	"	"C/T"	"76,7/23,3"	"79/24"	103	stress_12bis	"POPTR_0001s42720.1"	1596	"	"C/T"	"47,1/47,1"	"8/8"	17
controllo_3	"POPTR_0001s42720.1"	1596	"	"C/T"	"76,7/23,3"	"79/24"	103	stress_45	"POPTR_0001s42720.1"	1596	"	"C/T"	"71,4/28,6"	"10/4"	14
controllo_3	"POPTR_0001s11350.1"	675	"	"A/G"	"76,7/23,3"	"89/27"	116	stress_12bis	"POPTR_0001s11350.1"	675	"	"A/G"	"58,8/41,2"	"57/40"	97
controllo_3	"POPTR_0001s11350.1"	675	"	"A/G"	"76,7/23,3"	"89/27"	116	stress_42	"POPTR_0001s11350.1"	675	"	"G/A"	"70,5/29,5"	"31/13"	44
controllo_3	"POPTR_0001s11350.1"	675	"	"A/G"	"76,7/23,3"	"89/27"	116	stress_45	"POPTR_0001s11350.1"	675	"	"G/A"	"52,0/48,0"	"26/24"	50
controllo_3	"POPTR_0010s16790.1"	354	"	"T/C"	"76,7/23,3"	"135/41"	176	stress_12bis	"POPTR_0010s16790.1"	354	"	"T/C"	"66,7/33,3"	"28/14"	42
controllo_3	"POPTR_0010s16790.1"	354	"	"T/C"	"76,7/23,3"	"135/41"	176	stress_45	"POPTR_0010s16790.1"	354	"	"T/C"	"79,4/20,6"	"27/7"	34
controllo_3	"POPTR_0010s21350.1"	295	"	"A/G"	"76,7/23,3"	"122/37"	159	stress_12bis	"POPTR_0010s21350.1"	295	"	"A/G"	"52,5/47,5"	"21/19"	40
controllo_3	"POPTR_0010s21350.1"	295	"	"A/G"	"76,7/23,3"	"122/37"	159	stress_42	"POPTR_0010s21350.1"	295	"	"G/A"	"62,5/37,5"	"10/6"	16
controllo_3	"POPTR_0010s21350.1"	295	"	"A/G"	"76,7/23,3"	"122/37"	159	stress_45	"POPTR_0010s21350.1"	295	"	"A/G"	"64,3/35,7"	"18/10"	28
controllo_3	"POPTR_0003s08180.1"	327	"	"T/C"	"76,8/23,2"	"106/32"	138	stress_12bis	"POPTR_0003s08180.1"	327	"	"T/C"	"75,7/24,3"	"28/9"	37
controllo_3	"POPTR_0003s08180.1"	327	"	"T/C"	"76,8/23,2"	"106/32"	138	stress_42	"POPTR_0003s08180.1"	327	"	"T/C"	"53,3/46,7"	"8/7"	15
controllo_3	"POPTR_0003s08180.1"	327	"	"T/C"	"76,8/23,2"	"106/32"	138	stress_45	"POPTR_0003s08180.1"	327	"	"T/C"	"84,6/15,4"	"22/4"	26
controllo_3	"POPTR_0011s05670.1"	78	"	"T/A"	"76,8/23,2"	"149/45"	194	stress_12bis	"POPTR_0011s05670.1"	78	"	"T/A"	"70,4/29,6"	"38/16"	54
controllo_3	"POPTR_0011s05670.1"	78	"	"T/A"	"76,8/23,2"	"149/45"	194	stress_42	"POPTR_0011s05670.1"	78	"	"T/A"	"61,1/38,9"	"11/7"	18
controllo_3	"POPTR_0011s05670.1"	78	"	"T/A"	"76,8/23,2"	"149/45"	194	stress_45	"POPTR_0011s05670.1"	78	"	"T/A"	"71,4/28,6"	"30/12"	42
controllo_3	"POPTR_0001s07850.1"	223	"	"C/T"	"76,8/23,2"	"129/39"	168	stress_12bis	"POPTR_0001s07850.1"	223	"	"C/T"	"50,0/50,0"	"14/14"	28
controllo_3	"POPTR_0001s07850.1"	223	"	"C/T"	"76,8/23,2"	"129/39"	168	stress_42	"POPTR_0001s07850.1"	223	"	"C/T"	"82,6/17,4"	"19/4"	23
controllo_3	"POPTR_0001s07850.1"	223	"	"C/T"	"76,8/23,2"	"129/39"	168	stress_45	"POPTR_0001s07850.1"	223	"	"C/T"	"58,1/41,9"	"25/18"	43
controllo_3	"POPTR_0008s20770.1"	303	"	"A/G"	"76,9/22,8"	"233/69"	303	stress_12bis	"POPTR_0008s20770.1"	303	"	"A/G"	"67,6/32,4"	"100/48"	148
controllo_3	"POPTR_0008s20770.1"	303	"	"A/G"	"76,9/22,8"	"233/69"	303	stress_42	"POPTR_0008s20770.1"	303	"	"A/G"	"50,5/48,5"	"52/50"	103
controllo_3	"POPTR_0008s20770.1"	303	"	"A/G"	"76,9/22,8"	"233/69"	303	stress_45	"POPTR_0008s20770.1"	303	"	"A/G"	"56,4/43,6"	"75/58"	133
controllo_3	"POPTR_0005s24120.1"	249	"	"C/T"	"76,9/23,1"	"90/27"	117	stress_42	"POPTR_0005s24120.1"	249	"	"C/T"	"79,7/20,3"	"63/16"	79
controllo_3	"POPTR_0005s24120.1"	249	"	"C/T"	"76,9/23,1"	"90/27"	117	stress_45	"POPTR_0005s24120.1"	249	"	"C/T"	"80,3/19,7"	"106/26"	132
controllo_3	"POPTR_0014s17610.1"	1098	"	"T/G"	"76,9/23,1"	"100/30"	130	stress_12bis	"POPTR_0014s17610.1"	1098	"	"T/G"	"80,0/20,0"	"48/12"	60
controllo_3	"POPTR_0014s17610.1"	1098	"	"T/G"	"76,9/23,1"	"100/30"	130	stress_42	"POPTR_0014s17610.1"	1098	"	"T/G"	"82,6/17,4"	"19/4"	23
controllo_3	"POPTR_0014s17610.1"	1098	"	"T/G"	"76,9/23,1"	"100/30"	130	stress_45	"POPTR_0014s17610.1"	1098	"	"T/G"	"72,7/27,3"	"16/6"	22
controllo_3	"POPTR_0004s04120.1"	162	"	"C/T"	"76,9/23,1"	"90/27"	117	stress_12bis	"POPTR_0004s04120.1"	162	"	"C/T"	"50,0/50,0"	"11/11"	22
controllo_3	"POPTR_0004s04120.1"	162	"	"C/T"	"76,9/23,1"	"90/27"	117	stress_42	"POPTR_0004s04120.1"	162	"	"C/T"	"81,0/19,0"	"17/4"	21
controllo_3	"POPTR_0004s04120.1"	180	"	"A/G"	"76,9/23,1"	"83/25"	108	stress_12bis	"POPTR_0004s04120.1"	180	"	"A/G"	"57,9/42,1"	"11/8"	19
controllo_3	"POPTR_0004s04120.1"	180	"	"A/G"	"76,9/23,1"	"83/25"	108	stress_42	"POPTR_0004s04120.1"	180	"	"A/G"	"83,3/16,7"	"20/4"	24
controllo_3	"POPTR_0011s16780.1"	983	"	"G/C"	"76,9/23,1"	"83/25"	108	stress_12bis	"POPTR_0011s16780.1"	983	"	"G/C"	"80,9/19,1"	"38/9"	47
controllo_3	"POPTR_0001s02040.1"	934	"	"C/A"	"76,9/23,1"	"120/36"	156	stress_12bis	"POPTR_0001s02040.1"	934	"	"C/A"	"66,7/33,3"	"46/23"	69
controllo_3	"POPTR_0001s02040.1"	934	"	"C/A"	"76,9/23,1"	"120/36"	156	stress_42	"POPTR_0001s02040.1"	934	"	"C/A"	"56,1/43,9"	"23/18"	41
controllo_3	"POPTR_0001s02040.1"	934	"	"C/A"	"76,9/23,1"	"120/36"	156	stress_45	"POPTR_0001s02040.1"	934	"	"C/A"	"68,1/31,9"	"32/15"	47
controllo_3	"POPTR_0010s20060.1"	280	"	"C/A"	"76,9/23,1"	"293/88"	381	stress_12bis	"POPTR_0010s20060.1"	280	"	"C/A"	"72,5/26,8"	"103/38"	142
controllo_3	"POPTR_0010s20060.1"	280	"	"C/A"	"76,9/23,1"	"293/88"	381	stress_42	"POPTR_0010s20060.1"	280	"	"C/A"	"82,4/17,6"	"28/6"	34
controllo_3	"POPTR_0010s20060.1"	280	"	"C/A"	"76,9/23,1"	"293/88"	381	stress_45	"POPTR_0010s20060.1"	280	"	"C/A"	"84,2/15,8"	"32/6"	38
controllo_3	"POPTR_0010s00900.1"	211	"	"A/G"	"76,9/23,1"	"10/3"	13	stress_42	"POPTR_0010s00900.1"	211	"	"G/A"	"58,9/41,1"	"113/79"	192
controllo_3	"POPTR_0010s00900.1"	211	"	"A/G"	"76,9/23,1"	"10/3"	13	stress_45	"POPTR_0010s00900.1"	211	"	"G/A"	"60,1/39,9"	"176/117"	293
controllo_3	"POPTR_0007s08400.1"	1824	"	"T/C"	"76,9/23,1"	"133/40"	173	stress_12bis	"POPTR_0007s08400.1"	1824	"	"T/C"	"76,1/23,9"	"35/11"	46
controllo_3	"POPTR_0007s08400.1"	1824	"	"T/C"	"76,9/23,1"	"133/40"	173	stress_42	"POPTR_0007s08400.1"	1824	"	"T/C"	"76,9/23,1"	"40/12"	52
controllo_3	"POPTR_0007s08400.1"	1824	"	"T/C"	"76,9/23,1"	"133/40"	173	stress_45	"POPTR_0007s08400.1"	1824	"	"T/C"	"71,0/29,0"	"98/40"	138
controllo_3	"POPTR_0004s08380.1"	54	"	"G/A"	"77,0/23,0"	"649/194"	843	stress_12bis	"POPTR_0004s08380.1"	54	"	"G/A"	"80,6/19,4"	"191/46"	237
controllo_3	"POPTR_0004s08380.1"	54	"	"G/A"	"77,0/23,0"	"649/194"	843	stress_42	"POPTR_0004s08380.1"	54	"	"G/A"	"75,0/25,0"	"15/5"	20
controllo_3	"POPTR_0004s08380.1"	54	"	"G/A"	"77,0/23,0"	"649/194"	843	stress_45	"POPTR_0004s08380.1"	54	"	"G/A"	"83,9/16,1"	"26/5"	31
controllo_3	"POPTR_0004s04120.1"	525	"	"T/C"	"77,0/23,0"	"114/34"	148	stress_12bis	"POPTR_0004s04120.1"	525	"	"T/C"	"75,0/25,0"	"18/6"	24
controllo_3	"POPTR_0001s13100.1"	253	"	"G/A"	"77,0/23,0"	"181/54"	235	stress_12bis	"POPTR_0001s13100.1"	253	"	"A/G"	"61,3/38,5"	"325/204"	530
controllo_3	"POPTR_0001s13100.1"	253	"	"G/A"	"77,0/23,0"	"181/54"	235	stress_42	"POPTR_0001s13100.1"	253	"	"G/A"	"60,3/38,5"	"47/30"	78
controllo_3	"POPTR_0001s13100.1"	253	"	"G/A"	"77,0/23,0"	"181/54"	235	stress_45	"POPTR_0001s13100.1"	253	"	"G/A"	"58,9/41,1"	"33/23"	56
controllo_3	"POPTR_0006s24520.1"	270	"	"A/G"	"77,1/22,9"	"128/38"	166	stress_12bis	"POPTR_0006s24520.1"	270	"	"A/G"	"64,0/36,0"	"16/9"	25
controllo_3	"POPTR_0015s10920.1"	1437	"	"A/G"	"77,1/22,9"	"165/49"	214	stress_12bis	"POPTR_0015s10920.1"	1437	"	"A/G"	"77,3/22,7"	"51/15"	66
controllo_3	"POPTR_0015s10920.1"	1437	"	"A/G"	"77,1/22,9"	"165/49"	214	stress_42	"POPTR_0015s10920.1"	1437	"	"G/A"	"55,6/44,4"	"20/16"	36
controllo_3	"POPTR_0015s10920.1"	1437	"	"A/G"	"77,1/22,9"	"165/49"	214	stress_45	"POPTR_0015s10920.1"	1437	"	"A/G"	"68,2/31,8"	"45/21"	66
controllo_3	"POPTR_0010s16860.1"	9	"	"A/G"	"77,1/22,9"	"101/30"	131	stress_12bis	"POPTR_0010s16860.1"	9	"	"A/G"	"81,1/18,9"	"60/14"	74
controllo_3	"POPTR_0010s16790.1"	1110	"	"A/T"	"77,1/22,9"	"84/25"	109	stress_12bis	"POPTR_0010s16790.1"	1110	"	"A/T"	"58,1/41,9"	"18/13"	31
controllo_3	"POPTR_0010s16790.1"	1110	"	"A/T"	"77,1/22,9"	"84/25"	109	stress_42	"POPTR_0010s16790.1"	1110	"	"A/T"	"58,8/41,2"	"10/7"	17
controllo_3	"POPTR_0010s16790.1"	1110	"	"A/T"	"77,1/22,9"	"84/25"	109	stress_45	"POPTR_0010s16790.1"	1110	"	"A/T"	"55,0/45,0"	"11/9"	20
controllo_3	"POPTR_0008s10050.1"	1194	"	"C/A"	"77,2/22,2"	"146/42"	189	stress_12bis	"POPTR_0008s10050.1"	1194	"	"C/A"	"81,0/17,7"	"64/14"	79
controllo_3	"POPTR_0008s10050.1"	1194	"	"C/A"	"77,2/22,2"	"146/42"	189	stress_42	"POPTR_0008s10050.1"	1194	"	"C/A"	"80,6/19,4"	"29/7"	36
controllo_3	"POPTR_0008s10050.1"	1194	"	"C/A"	"77,2/22,2"	"146/42"	189	stress_45	"POPTR_0008s10050.1"	1194	"	"C/A"	"83,3/16,7"	"15/3"	18
controllo_3	"POPTR_0004s15960.1"	1099	"	"G/A"	"77,2/22,8"	"98/29"	127	stress_42	"POPTR_0004s15960.1"	1099	"	"G/A"	"72,2/27,8"	"13/5"	18
controllo_3	"POPTR_0015s00510.1"	60	"	"T/G"	"77,2/22,8"	"78/23"	101	stress_45	"POPTR_0015s00510.1"	60	"	"G/T"	"79,2/20,8"	"19/5"	24
controllo_3	"POPTR_0001s37480.1"	1008	"	"T/G"	"77,2/22,8"	"142/42"	184	stress_12bis	"POPTR_0001s37480.1"	1008	"	"T/G"	"68,0/32,0"	"17/8"	25
controllo_3	"POPTR_0001s37480.1"	1008	"	"T/G"	"77,2/22,8"	"142/42"	184	stress_42	"POPTR_0001s37480.1"	1008	"	"T/G"	"75,0/25,0"	"30/10"	40
controllo_3	"POPTR_0001s07850.1"	532	"	"G/A"	"77,2/22,8"	"149/44"	193	stress_42	"POPTR_0001s07850.1"	532	"	"G/A"	"71,4/28,6"	"25/10"	35
controllo_3	"POPTR_0001s07850.1"	532	"	"G/A"	"77,2/22,8"	"149/44"	193	stress_45	"POPTR_0001s07850.1"	532	"	"G/A"	"63,8/36,2"	"30/17"	47
controllo_3	"POPTR_0010s16790.1"	1635	"	"C/T"	"77,2/22,8"	"98/29"	127	stress_12bis	"POPTR_0010s16790.1"	1635	"	"C/T"	"77,3/22,7"	"34/10"	44
controllo_3	"POPTR_0010s16790.1"	1635	"	"C/T"	"77,2/22,8"	"98/29"	127	stress_42	"POPTR_0010s16790.1"	1635	"	"C/T"	"76,5/23,5"	"13/4"	17
controllo_3	"POPTR_0010s16790.1"	1635	"	"C/T"	"77,2/22,8"	"98/29"	127	stress_45	"POPTR_0010s16790.1"	1635	"	"C/T"	"69,7/30,3"	"23/10"	33
controllo_3	"POPTR_0006s00780.1"	2160	"	"G/A"	"77,3/22,7"	"116/34"	150	stress_12bis	"POPTR_0006s00780.1"	2160	"	"A/G"	"54,5/45,5"	"12/10"	22
controllo_3	"POPTR_0006s00780.1"	2160	"	"G/A"	"77,3/22,7"	"116/34"	150	stress_42	"POPTR_0006s00780.1"	2160	"	"G/A"	"81,8/18,2"	"9/2"	11
controllo_3	"POPTR_0003s17010.1"	38	"	"T/C"	"77,3/22,7"	"296/87"	383	stress_12bis	"POPTR_0003s17010.1"	38	"	"T/C"	"70,9/29,1"	"95/39"	134
controllo_3	"POPTR_0003s17010.1"	38	"	"T/C"	"77,3/22,7"	"296/87"	383	stress_42	"POPTR_0003s17010.1"	38	"	"T/C"	"76,7/23,3"	"23/7"	30
controllo_3	"POPTR_0003s17010.1"	38	"	"T/C"	"77,3/22,7"	"296/87"	383	stress_45	"POPTR_0003s17010.1"	38	"	"T/C"	"65,4/34,6"	"34/18"	52
controllo_3	"POPTR_0014s13660.1"	167	"	"G/A"	"77,3/22,7"	"734/215"	949	stress_12bis	"POPTR_0014s13660.1"	167	"	"G/A"	"78,4/21,2"	"181/49"	231
controllo_3	"POPTR_0014s13660.1"	167	"	"G/A"	"77,3/22,7"	"734/215"	949	stress_42	"POPTR_0014s13660.1"	167	"	"G/A"	"73,6/26,4"	"39/14"	53
controllo_3	"POPTR_0014s13660.1"	167	"	"G/A"	"77,3/22,7"	"734/215"	949	stress_45	"POPTR_0014s13660.1"	167	"	"G/A"	"69,3/30,7"	"52/23"	75
controllo_3	"POPTR_0004s08500.1"	90	"	"T/C"	"77,3/22,7"	"214/63"	277	stress_12bis	"POPTR_0004s08500.1"	90	"	"T/C"	"81,8/18,2"	"153/34"	187
controllo_3	"POPTR_0005s18890.1"	1269	"	"A/G"	"77,4/22,6"	"106/31"	137	stress_12bis	"POPTR_0005s18890.1"	1269	"	"A/G"	"75,0/25,0"	"30/10"	40
controllo_3	"POPTR_0005s18890.1"	1269	"	"A/G"	"77,4/22,6"	"106/31"	137	stress_42	"POPTR_0005s18890.1"	1269	"	"A/G"	"69,4/30,6"	"25/11"	36
controllo_3	"POPTR_0005s18890.1"	1269	"	"A/G"	"77,4/22,6"	"106/31"	137	stress_45	"POPTR_0005s18890.1"	1269	"	"A/G"	"81,5/18,5"	"22/5"	27
controllo_3	"POPTR_0013s03700.1"	381	"	"C/T"	"77,4/22,6"	"123/36"	159	stress_12bis	"POPTR_0013s03700.1"	381	"	"C/T"	"78,0/22,0"	"32/9"	41
controllo_3	"POPTR_0013s03700.1"	381	"	"C/T"	"77,4/22,6"	"123/36"	159	stress_42	"POPTR_0013s03700.1"	381	"	"T/C"	"53,3/46,7"	"8/7"	15
controllo_3	"POPTR_0013s03700.1"	381	"	"C/T"	"77,4/22,6"	"123/36"	159	stress_45	"POPTR_0013s03700.1"	381	"	"C/T"	"76,0/24,0"	"19/6"	25
controllo_3	"POPTR_0009s13890.1"	754	"	"C/T"	"77,4/22,6"	"171/50"	221	stress_12bis	"POPTR_0009s13890.1"	754	"	"C/T"	"58,5/41,5"	"55/39"	94
controllo_3	"POPTR_0009s13890.1"	754	"	"C/T"	"77,4/22,6"	"171/50"	221	stress_42	"POPTR_0009s13890.1"	754	"	"C/T"	"72,0/26,9"	"67/25"	93
controllo_3	"POPTR_0009s13890.1"	754	"	"C/T"	"77,4/22,6"	"171/50"	221	stress_45	"POPTR_0009s13890.1"	754	"	"C/T"	"69,0/31,0"	"69/31"	100
controllo_3	"POPTR_0001s36870.1"	1456	"	"A/G"	"77,4/22,6"	"89/26"	115	stress_12bis	"POPTR_0001s36870.1"	1456	"	"A/G"	"60,5/39,5"	"23/15"	38
controllo_3	"POPTR_0001s36870.1"	1456	"	"A/G"	"77,4/22,6"	"89/26"	115	stress_42	"POPTR_0001s36870.1"	1456	"	"A/G"	"73,3/26,7"	"22/8"	30
controllo_3	"POPTR_0001s36870.1"	1456	"	"A/G"	"77,4/22,6"	"89/26"	115	stress_45	"POPTR_0001s36870.1"	1456	"	"A/G"	"66,7/33,3"	"24/12"	36
controllo_3	"POPTR_0001s41780.1"	72	"	"T/A"	"77,4/22,6"	"288/84"	372	stress_12bis	"POPTR_0001s41780.1"	72	"	"T/A"	"66,7/33,3"	"34/17"	51
controllo_3	"POPTR_0001s41780.1"	72	"	"T/A"	"77,4/22,6"	"288/84"	372	stress_42	"POPTR_0001s41780.1"	72	"	"T/A"	"80,0/20,0"	"28/7"	35
controllo_3	"POPTR_0001s41780.1"	72	"	"T/A"	"77,4/22,6"	"288/84"	372	stress_45	"POPTR_0001s41780.1"	72	"	"T/A"	"78,0/22,0"	"32/9"	41
controllo_3	"POPTR_0010s22790.1"	453	"	"T/G"	"77,4/22,6"	"325/95"	420	stress_12bis	"POPTR_0010s22790.1"	453	"	"T/G"	"81,3/18,7"	"126/29"	155
controllo_3	"POPTR_0010s22790.1"	453	"	"T/G"	"77,4/22,6"	"325/95"	420	stress_42	"POPTR_0010s22790.1"	453	"	"T/G"	"76,0/24,0"	"38/12"	50
controllo_3	"POPTR_0013s07150.1"	2316	"	"T/C"	"77,5/22,5"	"79/23"	102	stress_12bis	"POPTR_0013s07150.1"	2316	"	"T/C"	"71,9/28,1"	"23/9"	32
controllo_3	"POPTR_0013s07150.1"	2316	"	"T/C"	"77,5/22,5"	"79/23"	102	stress_45	"POPTR_0013s07150.1"	2316	"	"T/C"	"75,0/25,0"	"18/6"	24
controllo_3	"POPTR_0004s04120.1"	160	"	"C/A"	"77,5/22,5"	"93/27"	120	stress_12bis	"POPTR_0004s04120.1"	160	"	"A/C"	"50,0/50,0"	"11/11"	22
controllo_3	"POPTR_0004s04120.1"	160	"	"C/A"	"77,5/22,5"	"93/27"	120	stress_42	"POPTR_0004s04120.1"	160	"	"C/A"	"81,8/18,2"	"18/4"	22
controllo_3	"POPTR_0008s13780.1"	619	"	"A/G"	"77,5/22,5"	"241/70"	311	stress_12bis	"POPTR_0008s13780.1"	619	"	"A/G"	"68,1/31,9"	"32/15"	47
controllo_3	"POPTR_0008s13780.1"	619	"	"A/G"	"77,5/22,5"	"241/70"	311	stress_45	"POPTR_0008s13780.1"	619	"	"A/G"	"78,6/21,4"	"22/6"	28
controllo_3	"POPTR_0010s21350.1"	1063	"	"C/T"	"77,6/21,9"	"142/40"	183	stress_12bis	"POPTR_0010s21350.1"	1063	"	"C/T"	"77,4/22,6"	"41/12"	53
controllo_3	"POPTR_0010s21350.1"	1063	"	"C/T"	"77,6/21,9"	"142/40"	183	stress_42	"POPTR_0010s21350.1"	1063	"	"C/T"	"61,9/38,1"	"13/8"	21
controllo_3	"POPTR_0010s21350.1"	1063	"	"C/T"	"77,6/21,9"	"142/40"	183	stress_45	"POPTR_0010s21350.1"	1063	"	"C/T"	"56,0/44,0"	"14/11"	25
controllo_3	"POPTR_0001s13100.1"	240	"	"G/T"	"77,6/22,4"	"177/51"	228	stress_12bis	"POPTR_0001s13100.1"	240	"	"T/G"	"59,2/40,8"	"284/196"	480
controllo_3	"POPTR_0001s13100.1"	240	"	"G/T"	"77,6/22,4"	"177/51"	228	stress_42	"POPTR_0001s13100.1"	240	"	"G/T"	"65,8/34,2"	"48/25"	73
controllo_3	"POPTR_0001s13100.1"	240	"	"G/T"	"77,6/22,4"	"177/51"	228	stress_45	"POPTR_0001s13100.1"	240	"	"G/T"	"53,6/46,4"	"30/26"	56
controllo_3	"POPTR_0010s25500.1"	267	"	"G/C"	"77,6/22,4"	"152/44"	196	stress_12bis	"POPTR_0010s25500.1"	267	"	"G/C"	"80,0/20,0"	"44/11"	55
controllo_3	"POPTR_0010s25500.1"	267	"	"G/C"	"77,6/22,4"	"152/44"	196	stress_45	"POPTR_0010s25500.1"	267	"	"G/C"	"72,7/27,3"	"8/3"	11
controllo_3	"POPTR_0012s04550.1"	370	"	"T/C"	"77,7/21,3"	"73/20"	94	stress_45	"POPTR_0012s04550.1"	370	"	"T/C"	"62,5/36,5"	"65/38"	104
controllo_3	"POPTR_0006s24520.1"	616	"	"G/C"	"77,7/21,8"	"150/42"	193	stress_42	"POPTR_0006s24520.1"	616	"	"C/G"	"50,0/50,0"	"5/5"	10
controllo_3	"POPTR_0002s22220.1"	477	"	"C/A"	"77,7/21,8"	"417/117"	537	stress_12bis	"POPTR_0002s22220.1"	477	"	"C/A"	"72,4/27,6"	"84/32"	116
controllo_3	"POPTR_0002s22220.1"	477	"	"C/A"	"77,7/21,8"	"417/117"	537	stress_42	"POPTR_0002s22220.1"	477	"	"C/A"	"66,3/31,3"	"55/26"	83
controllo_3	"POPTR_0002s22220.1"	477	"	"C/A"	"77,7/21,8"	"417/117"	537	stress_45	"POPTR_0002s22220.1"	477	"	"C/A"	"67,0/33,0"	"69/34"	103
controllo_3	"POPTR_0014s06370.1"	372	"	"T/C"	"77,7/22,3"	"101/29"	130	stress_12bis	"POPTR_0014s06370.1"	372	"	"T/C"	"82,9/17,1"	"29/6"	35
controllo_3	"POPTR_0014s06370.1"	372	"	"T/C"	"77,7/22,3"	"101/29"	130	stress_42	"POPTR_0014s06370.1"	372	"	"T/C"	"81,2/18,8"	"26/6"	32
controllo_3	"POPTR_0014s06370.1"	372	"	"T/C"	"77,7/22,3"	"101/29"	130	stress_45	"POPTR_0014s06370.1"	372	"	"T/C"	"60,0/37,8"	"27/17"	45
controllo_3	"POPTR_0009s01470.1"	537	"	"C/T"	"77,8/21,4"	"91/25"	117	stress_12bis	"POPTR_0009s01470.1"	537	"	"C/T"	"70,6/26,5"	"24/9"	34
controllo_3	"POPTR_0009s01470.1"	537	"	"C/T"	"77,8/21,4"	"91/25"	117	stress_42	"POPTR_0009s01470.1"	537	"	"C/T"	"78,6/21,4"	"11/3"	14
controllo_3	"POPTR_0009s01470.1"	537	"	"C/T"	"77,8/21,4"	"91/25"	117	stress_45	"POPTR_0009s01470.1"	537	"	"C/T"	"72,0/28,0"	"18/7"	25
controllo_3	"POPTR_0015s00510.1"	360	"	"A/G"	"77,8/22,2"	"112/32"	144	stress_42	"POPTR_0015s00510.1"	360	"	"G/A"	"63,6/36,4"	"14/8"	22
controllo_3	"POPTR_0015s00510.1"	360	"	"A/G"	"77,8/22,2"	"112/32"	144	stress_45	"POPTR_0015s00510.1"	360	"	"G/A"	"63,9/36,1"	"23/13"	36
controllo_3	"POPTR_0001s26960.1"	855	"	"C/T"	"77,8/22,2"	"140/40"	180	stress_12bis	"POPTR_0001s26960.1"	855	"	"C/T"	"75,0/25,0"	"24/8"	32
controllo_3	"POPTR_0001s26960.1"	855	"	"C/T"	"77,8/22,2"	"140/40"	180	stress_42	"POPTR_0001s26960.1"	855	"	"C/T"	"70,0/30,0"	"7/3"	10
controllo_3	"POPTR_0001s26960.1"	855	"	"C/T"	"77,8/22,2"	"140/40"	180	stress_45	"POPTR_0001s26960.1"	855	"	"C/T"	"56,2/43,8"	"9/7"	16
controllo_3	"POPTR_0001s14260.1"	363	"	"C/T"	"77,9/22,1"	"81/23"	104	stress_12bis	"POPTR_0001s14260.1"	363	"	"C/T"	"55,6/44,4"	"15/12"	27
controllo_3	"POPTR_0001s14260.1"	363	"	"C/T"	"77,9/22,1"	"81/23"	104	stress_42	"POPTR_0001s14260.1"	363	"	"T/C"	"63,6/36,4"	"14/8"	22
controllo_3	"POPTR_0001s14260.1"	363	"	"C/T"	"77,9/22,1"	"81/23"	104	stress_45	"POPTR_0001s14260.1"	363	"	"C/T"	"64,3/35,7"	"36/20"	56
controllo_3	"POPTR_0002s14730.1"	902	"	"C/A"	"77,9/22,1"	"660/187"	847	stress_12bis	"POPTR_0002s14730.1"	902	"	"C/A"	"76,5/23,5"	"205/63"	268
controllo_3	"POPTR_0002s14730.1"	902	"	"C/A"	"77,9/22,1"	"660/187"	847	stress_42	"POPTR_0002s14730.1"	902	"	"A/C"	"55,6/44,4"	"45/36"	81
controllo_3	"POPTR_0002s14730.1"	902	"	"C/A"	"77,9/22,1"	"660/187"	847	stress_45	"POPTR_0002s14730.1"	902	"	"A/C"	"58,7/41,3"	"61/43"	104
controllo_3	"POPTR_0002s14730.1"	975	"	"G/C"	"77,9/22,1"	"483/137"	620	stress_12bis	"POPTR_0002s14730.1"	975	"	"G/C"	"76,5/23,5"	"143/44"	187
controllo_3	"POPTR_0002s14730.1"	975	"	"G/C"	"77,9/22,1"	"483/137"	620	stress_42	"POPTR_0002s14730.1"	975	"	"C/G"	"50,8/49,2"	"31/30"	61
controllo_3	"POPTR_0002s14730.1"	975	"	"G/C"	"77,9/22,1"	"483/137"	620	stress_45	"POPTR_0002s14730.1"	975	"	"C/G"	"55,2/44,8"	"37/30"	67
controllo_3	"POPTR_0014s11580.1"	226	"	"C/G"	"78,0/22,0"	"334/94"	428	stress_12bis	"POPTR_0014s11580.1"	226	"	"C/G"	"79,4/20,6"	"54/14"	68
controllo_3	"POPTR_0014s11580.1"	226	"	"C/G"	"78,0/22,0"	"334/94"	428	stress_42	"POPTR_0014s11580.1"	226	"	"C/G"	"78,4/21,6"	"40/11"	51
controllo_3	"POPTR_0014s11580.1"	226	"	"C/G"	"78,0/22,0"	"334/94"	428	stress_45	"POPTR_0014s11580.1"	226	"	"C/G"	"79,3/20,7"	"65/17"	82
controllo_3	"POPTR_0004s15440.1"	153	"	"A/G"	"78,0/22,0"	"124/35"	159	stress_12bis	"POPTR_0004s15440.1"	153	"	"A/G"	"73,3/26,7"	"33/12"	45
controllo_3	"POPTR_0004s15440.1"	153	"	"A/G"	"78,0/22,0"	"124/35"	159	stress_45	"POPTR_0004s15440.1"	153	"	"A/G"	"58,3/41,7"	"7/5"	12
controllo_3	"POPTR_0009s13890.1"	264	"	"T/C"	"78,0/22,0"	"145/41"	186	stress_12bis	"POPTR_0009s13890.1"	264	"	"T/C"	"69,5/30,5"	"41/18"	59
controllo_3	"POPTR_0009s13890.1"	264	"	"T/C"	"78,0/22,0"	"145/41"	186	stress_42	"POPTR_0009s13890.1"	264	"	"T/C"	"68,1/31,9"	"32/15"	47
controllo_3	"POPTR_0009s13890.1"	264	"	"T/C"	"78,0/22,0"	"145/41"	186	stress_45	"POPTR_0009s13890.1"	264	"	"T/C"	"53,7/46,3"	"58/50"	108
controllo_3	"POPTR_0001s11350.1"	1197	"	"T/C"	"78,0/22,0"	"110/31"	141	stress_12bis	"POPTR_0001s11350.1"	1197	"	"T/C"	"67,4/32,6"	"64/31"	95
controllo_3	"POPTR_0001s11350.1"	1197	"	"T/C"	"78,0/22,0"	"110/31"	141	stress_42	"POPTR_0001s11350.1"	1197	"	"T/C"	"59,0/41,0"	"23/16"	39
controllo_3	"POPTR_0001s11350.1"	1197	"	"T/C"	"78,0/22,0"	"110/31"	141	stress_45	"POPTR_0001s11350.1"	1197	"	"T/C"	"55,1/44,9"	"27/22"	49
controllo_3	"POPTR_0002s22220.1"	489	"	"C/T"	"78,0/22,0"	"442/125"	567	stress_12bis	"POPTR_0002s22220.1"	489	"	"C/T"	"70,9/29,1"	"78/32"	110
controllo_3	"POPTR_0002s22220.1"	489	"	"C/T"	"78,0/22,0"	"442/125"	567	stress_42	"POPTR_0002s22220.1"	489	"	"C/T"	"69,9/30,1"	"58/25"	83
controllo_3	"POPTR_0002s22220.1"	489	"	"C/T"	"78,0/22,0"	"442/125"	567	stress_45	"POPTR_0002s22220.1"	489	"	"C/T"	"77,9/22,1"	"88/25"	113
controllo_3	"POPTR_0002s19710.1"	252	"	"C/T"	"78,0/22,0"	"678/191"	869	stress_12bis	"POPTR_0002s19710.1"	252	"	"C/T"	"79,4/20,6"	"269/70"	339
controllo_3	"POPTR_0002s19710.1"	252	"	"C/T"	"78,0/22,0"	"678/191"	869	stress_42	"POPTR_0002s19710.1"	252	"	"C/T"	"81,4/18,6"	"114/26"	140
controllo_3	"POPTR_0002s19710.1"	252	"	"C/T"	"78,0/22,0"	"678/191"	869	stress_45	"POPTR_0002s19710.1"	252	"	"C/T"	"82,5/16,7"	"99/20"	120
controllo_3	"POPTR_0002s08010.1"	393	"	"G/A"	"78,0/22,0"	"92/26"	118	stress_12bis	"POPTR_0002s08010.1"	393	"	"G/A"	"80,6/19,4"	"25/6"	31
controllo_3	"POPTR_0002s08010.1"	393	"	"G/A"	"78,0/22,0"	"92/26"	118	stress_45	"POPTR_0002s08010.1"	393	"	"G/A"	"80,0/20,0"	"8/2"	10
controllo_3	"POPTR_0008s15720.1"	186	"	"A/G"	"78,0/22,0"	"156/44"	200	stress_12bis	"POPTR_0008s15720.1"	186	"	"A/G"	"76,5/23,5"	"52/16"	68
controllo_3	"POPTR_0008s02430.1"	180	"	"C/A"	"78,0/22,0"	"92/26"	118	stress_12bis	"POPTR_0008s02430.1"	180	"	"C/A"	"77,1/22,9"	"27/8"	35
controllo_3	"POPTR_0008s02430.1"	180	"	"C/A"	"78,0/22,0"	"92/26"	118	stress_42	"POPTR_0008s02430.1"	180	"	"C/A"	"73,9/26,1"	"34/12"	46
controllo_3	"POPTR_0016s03230.1"	55	"	"A/G"	"78,0/22,0"	"174/49"	223	stress_12bis	"POPTR_0016s03230.1"	55	"	"A/G"	"83,7/16,3"	"149/29"	178
controllo_3	"POPTR_0016s03230.1"	55	"	"A/G"	"78,0/22,0"	"174/49"	223	stress_42	"POPTR_0016s03230.1"	55	"	"A/G"	"73,7/26,3"	"42/15"	57
controllo_3	"POPTR_0016s03230.1"	55	"	"A/G"	"78,0/22,0"	"174/49"	223	stress_45	"POPTR_0016s03230.1"	55	"	"A/G"	"67,3/32,7"	"33/16"	49
controllo_3	"POPTR_0010s22570.1"	48	"	"T/G"	"78,1/21,9"	"100/28"	128	stress_45	"POPTR_0010s22570.1"	48	"	"T/G"	"77,8/22,2"	"70/20"	90
controllo_3	"POPTR_0008s13780.1"	885	"	"T/A"	"78,1/21,9"	"210/59"	269	stress_12bis	"POPTR_0008s13780.1"	885	"	"T/A"	"77,8/22,2"	"35/10"	45
controllo_3	"POPTR_0008s13780.1"	885	"	"T/A"	"78,1/21,9"	"210/59"	269	stress_45	"POPTR_0008s13780.1"	885	"	"T/A"	"83,3/16,7"	"20/4"	24
controllo_3	"POPTR_0006s24520.1"	54	"	"G/A"	"78,2/21,8"	"86/24"	110	stress_12bis	"POPTR_0006s24520.1"	54	"	"G/A"	"78,6/21,4"	"11/3"	14
controllo_3	"POPTR_0006s03660.1"	3877	"	"C/T"	"78,2/21,8"	"115/32"	147	stress_12bis	"POPTR_0006s03660.1"	3877	"	"C/T"	"72,7/27,3"	"24/9"	33
controllo_3	"POPTR_0006s03660.1"	3877	"	"C/T"	"78,2/21,8"	"115/32"	147	stress_42	"POPTR_0006s03660.1"	3877	"	"C/T"	"68,4/31,6"	"13/6"	19
controllo_3	"POPTR_0006s03660.1"	3877	"	"C/T"	"78,2/21,8"	"115/32"	147	stress_45	"POPTR_0006s03660.1"	3877	"	"C/T"	"81,1/18,9"	"30/7"	37
controllo_3	"POPTR_0013s14520.1"	172	"	"G/A"	"78,2/21,8"	"169/47"	216	stress_12bis	"POPTR_0013s14520.1"	172	"	"G/A"	"73,4/26,6"	"80/29"	109
controllo_3	"POPTR_0001s11350.1"	671	"	"T/C"	"78,2/21,8"	"93/26"	119	stress_12bis	"POPTR_0001s11350.1"	671	"	"T/C"	"56,7/41,2"	"55/40"	97
controllo_3	"POPTR_0001s11350.1"	671	"	"T/C"	"78,2/21,8"	"93/26"	119	stress_42	"POPTR_0001s11350.1"	671	"	"C/T"	"71,4/26,2"	"30/11"	42
controllo_3	"POPTR_0001s11350.1"	671	"	"T/C"	"78,2/21,8"	"93/26"	119	stress_45	"POPTR_0001s11350.1"	671	"	"C/T"	"55,1/44,9"	"27/22"	49
controllo_3	"POPTR_0010s16790.1"	1341	"	"T/C"	"78,3/21,7"	"112/31"	143	stress_12bis	"POPTR_0010s16790.1"	1341	"	"T/C"	"63,9/36,1"	"23/13"	36
controllo_3	"POPTR_0010s16790.1"	1341	"	"T/C"	"78,3/21,7"	"112/31"	143	stress_42	"POPTR_0010s16790.1"	1341	"	"T/C"	"72,0/28,0"	"18/7"	25
controllo_3	"POPTR_0010s16790.1"	1341	"	"T/C"	"78,3/21,7"	"112/31"	143	stress_45	"POPTR_0010s16790.1"	1341	"	"T/C"	"76,2/23,8"	"32/10"	42
controllo_3	"POPTR_0010s19380.1"	181	"	"C/A"	"78,4/20,7"	"91/24"	116	stress_12bis	"POPTR_0010s19380.1"	181	"	"C/A"	"85,0/15,0"	"17/3"	20
controllo_3	"POPTR_0010s19380.1"	181	"	"C/A"	"78,4/20,7"	"91/24"	116	stress_42	"POPTR_0010s19380.1"	181	"	"C/A"	"77,2/22,8"	"44/13"	57
controllo_3	"POPTR_0010s19380.1"	181	"	"C/A"	"78,4/20,7"	"91/24"	116	stress_45	"POPTR_0010s19380.1"	181	"	"C/A"	"69,2/30,8"	"45/20"	65
controllo_3	"POPTR_0015s12900.1"	241	"	"T/A"	"78,4/21,2"	"174/47"	222	stress_12bis	"POPTR_0015s12900.1"	241	"	"T/A"	"60,0/40,0"	"60/40"	100
controllo_3	"POPTR_0015s12900.1"	241	"	"T/A"	"78,4/21,2"	"174/47"	222	stress_42	"POPTR_0015s12900.1"	241	"	"T/A"	"66,7/33,3"	"40/20"	60
controllo_3	"POPTR_0015s12900.1"	241	"	"T/A"	"78,4/21,2"	"174/47"	222	stress_45	"POPTR_0015s12900.1"	241	"	"T/A"	"64,3/35,7"	"45/25"	70
controllo_3	"POPTR_0006s00470.1"	1572	"	"T/C"	"78,4/21,6"	"80/22"	102	stress_12bis	"POPTR_0006s00470.1"	1572	"	"T/C"	"67,7/32,3"	"21/10"	31
controllo_3	"POPTR_0006s00470.1"	1572	"	"T/C"	"78,4/21,6"	"80/22"	102	stress_42	"POPTR_0006s00470.1"	1572	"	"T/C"	"54,5/45,5"	"6/5"	11
controllo_3	"POPTR_0006s00470.1"	1572	"	"T/C"	"78,4/21,6"	"80/22"	102	stress_45	"POPTR_0006s00470.1"	1572	"	"T/C"	"81,1/18,9"	"30/7"	37
controllo_3	"POPTR_0006s13240.1"	439	"	"G/A"	"78,4/21,6"	"105/29"	134	stress_12bis	"POPTR_0006s13240.1"	439	"	"G/A"	"77,8/22,2"	"56/16"	72
controllo_3	"POPTR_0006s13240.1"	439	"	"G/A"	"78,4/21,6"	"105/29"	134	stress_42	"POPTR_0006s13240.1"	439	"	"G/A"	"79,5/20,5"	"31/8"	39
controllo_3	"POPTR_0006s13240.1"	439	"	"G/A"	"78,4/21,6"	"105/29"	134	stress_45	"POPTR_0006s13240.1"	439	"	"G/A"	"72,3/27,7"	"34/13"	47
controllo_3	"POPTR_0014s14200.1"	699	"	"T/A"	"78,4/21,6"	"185/51"	236	stress_12bis	"POPTR_0014s14200.1"	699	"	"T/A"	"69,2/30,8"	"9/4"	13
controllo_3	"POPTR_0009s01470.1"	547	"	"A/G"	"78,4/21,6"	"91/25"	116	stress_12bis	"POPTR_0009s01470.1"	547	"	"A/G"	"69,4/30,6"	"25/11"	36
controllo_3	"POPTR_0009s01470.1"	547	"	"A/G"	"78,4/21,6"	"91/25"	116	stress_42	"POPTR_0009s01470.1"	547	"	"A/G"	"66,7/33,3"	"10/5"	15
controllo_3	"POPTR_0009s01470.1"	547	"	"A/G"	"78,4/21,6"	"91/25"	116	stress_45	"POPTR_0009s01470.1"	547	"	"A/G"	"79,3/20,7"	"23/6"	29
controllo_3	"POPTR_0010s20060.1"	243	"	"C/T"	"78,4/21,6"	"243/67"	310	stress_12bis	"POPTR_0010s20060.1"	243	"	"C/T"	"82,0/18,0"	"91/20"	111
controllo_3	"POPTR_0010s20060.1"	243	"	"C/T"	"78,4/21,6"	"243/67"	310	stress_45	"POPTR_0010s20060.1"	243	"	"C/T"	"82,1/17,9"	"23/5"	28
controllo_3	"POPTR_0013s13480.1"	108	"	"T/C"	"78,5/21,5"	"102/28"	130	stress_12bis	"POPTR_0013s13480.1"	108	"	"T/C"	"73,9/26,1"	"17/6"	23
controllo_3	"POPTR_0013s13480.1"	108	"	"T/C"	"78,5/21,5"	"102/28"	130	stress_42	"POPTR_0013s13480.1"	108	"	"C/T"	"57,4/42,6"	"27/20"	47
controllo_3	"POPTR_0013s13480.1"	108	"	"T/C"	"78,5/21,5"	"102/28"	130	stress_45	"POPTR_0013s13480.1"	108	"	"C/T"	"60,5/39,5"	"23/15"	38
controllo_3	"POPTR_0015s09910.1"	341	"	"T/A"	"78,5/21,5"	"150/41"	191	stress_12bis	"POPTR_0015s09910.1"	341	"	"T/A"	"78,9/21,1"	"71/19"	90
controllo_3	"POPTR_0001s07850.1"	1226	"	"T/G"	"78,5/21,5"	"183/50"	233	stress_45	"POPTR_0001s07850.1"	1226	"	"T/G"	"79,7/20,3"	"51/13"	64
controllo_3	"POPTR_0008s13780.1"	886	"	"T/A"	"78,5/21,5"	"208/57"	265	stress_12bis	"POPTR_0008s13780.1"	886	"	"T/A"	"77,3/22,7"	"34/10"	44
controllo_3	"POPTR_0008s13780.1"	886	"	"T/A"	"78,5/21,5"	"208/57"	265	stress_45	"POPTR_0008s13780.1"	886	"	"T/A"	"83,3/16,7"	"20/4"	24
controllo_3	"POPTR_0006s12350.1"	462	"	"G/T"	"78,6/21,4"	"22/6"	28	stress_42	"POPTR_0006s12350.1"	462	"	"T/G"	"60,4/39,6"	"81/53"	134
controllo_3	"POPTR_0006s12350.1"	462	"	"G/T"	"78,6/21,4"	"22/6"	28	stress_45	"POPTR_0006s12350.1"	462	"	"T/G"	"68,5/31,5"	"76/35"	111
controllo_3	"POPTR_0013s13480.1"	87	"	"C/T"	"78,6/21,4"	"114/31"	145	stress_12bis	"POPTR_0013s13480.1"	87	"	"C/T"	"76,2/23,8"	"16/5"	21
controllo_3	"POPTR_0013s13480.1"	87	"	"C/T"	"78,6/21,4"	"114/31"	145	stress_42	"POPTR_0013s13480.1"	87	"	"T/C"	"53,1/46,9"	"26/23"	49
controllo_3	"POPTR_0013s13480.1"	87	"	"C/T"	"78,6/21,4"	"114/31"	145	stress_45	"POPTR_0013s13480.1"	87	"	"T/C"	"58,8/41,2"	"20/14"	34
controllo_3	"POPTR_0008s13780.1"	618	"	"T/G"	"78,6/21,4"	"232/63"	295	stress_12bis	"POPTR_0008s13780.1"	618	"	"T/G"	"66,7/33,3"	"30/15"	45
controllo_3	"POPTR_0008s13780.1"	618	"	"T/G"	"78,6/21,4"	"232/63"	295	stress_45	"POPTR_0008s13780.1"	618	"	"T/G"	"78,6/21,4"	"22/6"	28
controllo_3	"POPTR_0008s05480.1"	1386	"	"T/A"	"78,7/20,7"	"133/35"	169	stress_45	"POPTR_0008s05480.1"	1386	"	"T/A"	"76,3/22,8"	"87/26"	114
controllo_3	"POPTR_0014s17070.1"	825	"	"G/A"	"78,7/21,3"	"96/26"	122	stress_12bis	"POPTR_0014s17070.1"	825	"	"G/A"	"70,3/29,7"	"26/11"	37
controllo_3	"POPTR_0014s17070.1"	825	"	"G/A"	"78,7/21,3"	"96/26"	122	stress_42	"POPTR_0014s17070.1"	825	"	"G/A"	"57,1/42,9"	"8/6"	14
controllo_3	"POPTR_0014s17070.1"	825	"	"G/A"	"78,7/21,3"	"96/26"	122	stress_45	"POPTR_0014s17070.1"	825	"	"G/A"	"70,6/29,4"	"12/5"	17
controllo_3	"POPTR_0004s04860.1"	519	"	"C/T"	"78,7/21,3"	"281/76"	357	stress_12bis	"POPTR_0004s04860.1"	519	"	"C/T"	"82,4/17,6"	"84/18"	102
controllo_3	"POPTR_0004s04860.1"	519	"	"C/T"	"78,7/21,3"	"281/76"	357	stress_42	"POPTR_0004s04860.1"	519	"	"C/T"	"64,3/35,7"	"18/10"	28
controllo_3	"POPTR_0004s04860.1"	519	"	"C/T"	"78,7/21,3"	"281/76"	357	stress_45	"POPTR_0004s04860.1"	519	"	"C/T"	"70,3/29,7"	"26/11"	37
controllo_3	"POPTR_0004s04120.1"	819	"	"G/A"	"78,7/21,3"	"155/42"	197	stress_12bis	"POPTR_0004s04120.1"	819	"	"G/A"	"75,0/25,0"	"24/8"	32
controllo_3	"POPTR_0011s16780.1"	660	"	"A/G"	"78,7/21,3"	"85/23"	108	stress_12bis	"POPTR_0011s16780.1"	660	"	"A/G"	"76,2/23,8"	"48/15"	63
controllo_3	"POPTR_0011s16780.1"	660	"	"A/G"	"78,7/21,3"	"85/23"	108	stress_42	"POPTR_0011s16780.1"	660	"	"A/G"	"73,3/26,7"	"11/4"	15
controllo_3	"POPTR_0001s07850.1"	1031	"	"A/G"	"78,7/21,3"	"155/42"	197	stress_12bis	"POPTR_0001s07850.1"	1031	"	"A/G"	"74,5/25,5"	"38/13"	51
controllo_3	"POPTR_0001s07850.1"	1031	"	"A/G"	"78,7/21,3"	"155/42"	197	stress_42	"POPTR_0001s07850.1"	1031	"	"A/G"	"83,0/17,0"	"44/9"	53
controllo_3	"POPTR_0001s07850.1"	1031	"	"A/G"	"78,7/21,3"	"155/42"	197	stress_45	"POPTR_0001s07850.1"	1031	"	"A/G"	"74,5/25,5"	"41/14"	55
controllo_3	"POPTR_0008s05470.1"	1389	"	"T/G"	"78,8/20,8"	"216/57"	274	stress_45	"POPTR_0008s05470.1"	1389	"	"T/G"	"71,9/28,1"	"41/16"	57
controllo_3	"POPTR_0017s11410.1"	579	"	"A/G"	"78,8/21,2"	"130/35"	165	stress_45	"POPTR_0017s11410.1"	579	"	"A/G"	"70,8/29,2"	"17/7"	24
controllo_3	"POPTR_0004s04120.1"	940	"	"G/T"	"78,8/21,2"	"93/25"	118	stress_12bis	"POPTR_0004s04120.1"	940	"	"G/T"	"72,7/27,3"	"24/9"	33
controllo_3	"POPTR_0004s04120.1"	940	"	"G/T"	"78,8/21,2"	"93/25"	118	stress_45	"POPTR_0004s04120.1"	940	"	"G/T"	"83,0/17,0"	"39/8"	47
controllo_3	"POPTR_0009s07210.1"	1398	"	"A/T"	"78,8/21,2"	"67/18"	85	stress_45	"POPTR_0009s07210.1"	1398	"	"A/T"	"75,8/24,2"	"138/44"	182
controllo_3	"POPTR_0002s25260.1"	418	"	"A/T"	"78,8/21,2"	"242/65"	307	stress_12bis	"POPTR_0002s25260.1"	418	"	"A/T"	"67,7/31,8"	"149/70"	220
controllo_3	"POPTR_0002s25260.1"	418	"	"A/T"	"78,8/21,2"	"242/65"	307	stress_42	"POPTR_0002s25260.1"	418	"	"T/A"	"58,2/41,8"	"99/71"	170
controllo_3	"POPTR_0002s25260.1"	418	"	"A/T"	"78,8/21,2"	"242/65"	307	stress_45	"POPTR_0002s25260.1"	418	"	"A/T"	"51,3/48,7"	"119/113"	232
controllo_3	"POPTR_0008s20770.1"	291	"	"G/A"	"78,8/21,2"	"287/77"	364	stress_12bis	"POPTR_0008s20770.1"	291	"	"G/A"	"69,0/31,0"	"118/53"	171
controllo_3	"POPTR_0008s20770.1"	291	"	"G/A"	"78,8/21,2"	"287/77"	364	stress_42	"POPTR_0008s20770.1"	291	"	"G/A"	"54,6/45,4"	"65/54"	119
controllo_3	"POPTR_0008s20770.1"	291	"	"G/A"	"78,8/21,2"	"287/77"	364	stress_45	"POPTR_0008s20770.1"	291	"	"G/A"	"51,6/48,4"	"83/78"	161
controllo_3	"POPTR_0005s26700.1"	397	"	"G/C"	"78,9/21,1"	"138/37"	175	stress_42	"POPTR_0005s26700.1"	397	"	"G/C"	"78,3/21,7"	"18/5"	23
controllo_3	"POPTR_0005s26700.1"	397	"	"G/C"	"78,9/21,1"	"138/37"	175	stress_45	"POPTR_0005s26700.1"	397	"	"G/C"	"83,3/16,7"	"15/3"	18
controllo_3	"POPTR_0006s27170.1"	579	"	"A/G"	"78,9/21,1"	"711/190"	901	stress_12bis	"POPTR_0006s27170.1"	579	"	"A/G"	"80,8/19,2"	"215/51"	266
controllo_3	"POPTR_0019s13040.1"	105	"	"A/C"	"78,9/21,1"	"86/23"	109	stress_42	"POPTR_0019s13040.1"	105	"	"A/C"	"83,9/16,1"	"26/5"	31
controllo_3	"POPTR_0001s47020.1"	534	"	"T/C"	"78,9/21,1"	"112/30"	142	stress_12bis	"POPTR_0001s47020.1"	534	"	"T/C"	"80,6/19,4"	"25/6"	31
controllo_3	"POPTR_0001s47020.1"	534	"	"T/C"	"78,9/21,1"	"112/30"	142	stress_45	"POPTR_0001s47020.1"	534	"	"T/C"	"74,5/25,5"	"35/12"	47
controllo_3	"POPTR_0002s21420.1"	739	"	"G/C"	"78,9/21,1"	"90/24"	114	stress_12bis	"POPTR_0002s21420.1"	739	"	"G/C"	"78,6/21,4"	"22/6"	28
controllo_3	"POPTR_0002s21420.1"	739	"	"G/C"	"78,9/21,1"	"90/24"	114	stress_42	"POPTR_0002s21420.1"	739	"	"G/C"	"67,9/32,1"	"19/9"	28
controllo_3	"POPTR_0002s21420.1"	739	"	"G/C"	"78,9/21,1"	"90/24"	114	stress_45	"POPTR_0002s21420.1"	739	"	"G/C"	"52,3/47,7"	"23/21"	44
controllo_3	"POPTR_0002s01460.1"	698	"	"A/T"	"78,9/21,1"	"97/26"	123	stress_45	"POPTR_0002s01460.1"	698	"	"A/T"	"84,6/15,4"	"11/2"	13
controllo_3	"POPTR_0018s02770.1"	99	"	"G/A"	"79,0/21,0"	"98/26"	124	stress_42	"POPTR_0018s02770.1"	99	"	"G/A"	"50,0/46,4"	"14/13"	28
controllo_3	"POPTR_0018s02770.1"	99	"	"G/A"	"79,0/21,0"	"98/26"	124	stress_45	"POPTR_0018s02770.1"	99	"	"G/A"	"58,3/41,7"	"14/10"	24
controllo_3	"POPTR_0013s07050.1"	1308	"	"C/T"	"79,0/21,0"	"94/25"	119	stress_12bis	"POPTR_0013s07050.1"	1308	"	"C/T"	"71,0/29,0"	"22/9"	31
controllo_3	"POPTR_0013s07050.1"	1308	"	"C/T"	"79,0/21,0"	"94/25"	119	stress_42	"POPTR_0013s07050.1"	1308	"	"C/T"	"75,9/24,1"	"22/7"	29
controllo_3	"POPTR_0013s07050.1"	1308	"	"C/T"	"79,0/21,0"	"94/25"	119	stress_45	"POPTR_0013s07050.1"	1308	"	"C/T"	"56,5/43,5"	"35/27"	62
controllo_3	"POPTR_0008s19370.1"	225	"	"G/A"	"79,0/21,0"	"1160/309"	1469	stress_12bis	"POPTR_0008s19370.1"	225	"	"G/A"	"82,8/17,2"	"692/144"	836
controllo_3	"POPTR_0008s19370.1"	225	"	"G/A"	"79,0/21,0"	"1160/309"	1469	stress_42	"POPTR_0008s19370.1"	225	"	"G/A"	"82,2/17,8"	"37/8"	45
controllo_3	"POPTR_0006s19870.1"	105	"	"T/C"	"79,1/20,9"	"151/40"	191	stress_12bis	"POPTR_0006s19870.1"	105	"	"T/C"	"80,3/19,7"	"49/12"	61
controllo_3	"POPTR_0006s19870.1"	105	"	"T/C"	"79,1/20,9"	"151/40"	191	stress_42	"POPTR_0006s19870.1"	105	"	"T/C"	"84,4/15,6"	"76/14"	90
controllo_3	"POPTR_0006s19870.1"	105	"	"T/C"	"79,1/20,9"	"151/40"	191	stress_45	"POPTR_0006s19870.1"	105	"	"T/C"	"84,9/15,1"	"79/14"	93
controllo_3	"POPTR_0018s02770.1"	111	"	"C/T"	"79,1/20,9"	"125/33"	158	stress_12bis	"POPTR_0018s02770.1"	111	"	"C/T"	"84,5/15,5"	"49/9"	58
controllo_3	"POPTR_0018s02770.1"	111	"	"C/T"	"79,1/20,9"	"125/33"	158	stress_42	"POPTR_0018s02770.1"	111	"	"T/C"	"53,3/46,7"	"24/21"	45
controllo_3	"POPTR_0018s02770.1"	111	"	"C/T"	"79,1/20,9"	"125/33"	158	stress_45	"POPTR_0018s02770.1"	111	"	"T/C"	"54,8/45,2"	"17/14"	31
controllo_3	"POPTR_0014s11210.1"	62	"	"C/T"	"79,1/20,9"	"212/56"	268	stress_12bis	"POPTR_0014s11210.1"	62	"	"C/T"	"64,7/35,3"	"90/49"	139
controllo_3	"POPTR_0014s11210.1"	62	"	"C/T"	"79,1/20,9"	"212/56"	268	stress_42	"POPTR_0014s11210.1"	62	"	"T/C"	"71,2/28,8"	"42/17"	59
controllo_3	"POPTR_0014s11210.1"	62	"	"C/T"	"79,1/20,9"	"212/56"	268	stress_45	"POPTR_0014s11210.1"	62	"	"C/T"	"55,1/44,9"	"49/40"	89
controllo_3	"POPTR_0006s00470.1"	1011	"	"T/C"	"79,2/20,8"	"145/38"	183	stress_12bis	"POPTR_0006s00470.1"	1011	"	"T/C"	"80,6/19,4"	"29/7"	36
controllo_3	"POPTR_0006s00470.1"	1011	"	"T/C"	"79,2/20,8"	"145/38"	183	stress_42	"POPTR_0006s00470.1"	1011	"	"T/C"	"65,0/35,0"	"13/7"	20
controllo_3	"POPTR_0006s00470.1"	1011	"	"T/C"	"79,2/20,8"	"145/38"	183	stress_45	"POPTR_0006s00470.1"	1011	"	"T/C"	"71,8/28,2"	"28/11"	39
controllo_3	"POPTR_0003s12160.1"	85	"	"C/A"	"79,2/20,8"	"396/104"	500	stress_12bis	"POPTR_0003s12160.1"	85	"	"C/A"	"74,1/25,9"	"126/44"	170
controllo_3	"POPTR_0003s12160.1"	85	"	"C/A"	"79,2/20,8"	"396/104"	500	stress_42	"POPTR_0003s12160.1"	85	"	"C/A"	"72,5/27,5"	"29/11"	40
controllo_3	"POPTR_0003s12160.1"	85	"	"C/A"	"79,2/20,8"	"396/104"	500	stress_45	"POPTR_0003s12160.1"	85	"	"C/A"	"70,3/29,7"	"45/19"	64
controllo_3	"POPTR_0002s10290.1"	110	"	"C/T"	"79,2/20,8"	"84/22"	106	stress_12bis	"POPTR_0002s10290.1"	110	"	"C/T"	"84,6/15,4"	"22/4"	26
controllo_3	"POPTR_0002s10290.1"	110	"	"C/T"	"79,2/20,8"	"84/22"	106	stress_42	"POPTR_0002s10290.1"	110	"	"C/T"	"80,0/20,0"	"16/4"	20
controllo_3	"POPTR_0014s13660.1"	160	"	"T/A"	"79,3/20,7"	"826/215"	1041	stress_12bis	"POPTR_0014s13660.1"	160	"	"T/A"	"82,0/18,0"	"223/49"	272
controllo_3	"POPTR_0014s13660.1"	160	"	"T/A"	"79,3/20,7"	"826/215"	1041	stress_42	"POPTR_0014s13660.1"	160	"	"T/A"	"77,8/22,2"	"49/14"	63
controllo_3	"POPTR_0014s13660.1"	160	"	"T/A"	"79,3/20,7"	"826/215"	1041	stress_45	"POPTR_0014s13660.1"	160	"	"T/A"	"69,7/30,3"	"53/23"	76
controllo_3	"POPTR_0004s08380.1"	196	"	"C/G"	"79,3/20,7"	"840/219"	1059	stress_12bis	"POPTR_0004s08380.1"	196	"	"C/G"	"75,7/24,0"	"199/63"	263
controllo_3	"POPTR_0004s08380.1"	196	"	"C/G"	"79,3/20,7"	"840/219"	1059	stress_42	"POPTR_0004s08380.1"	196	"	"C/G"	"77,8/22,2"	"21/6"	27
controllo_3	"POPTR_0004s08380.1"	196	"	"C/G"	"79,3/20,7"	"840/219"	1059	stress_45	"POPTR_0004s08380.1"	196	"	"C/G"	"80,4/19,6"	"37/9"	46
controllo_3	"POPTR_0009s11650.1"	868	"	"G/T"	"79,3/20,7"	"88/23"	111	stress_12bis	"POPTR_0009s11650.1"	868	"	"G/T"	"75,0/25,0"	"9/3"	12
controllo_3	"POPTR_0010s21350.1"	1626	"	"G/T"	"79,3/20,7"	"203/53"	256	stress_12bis	"POPTR_0010s21350.1"	1626	"	"G/T"	"66,1/33,9"	"41/21"	62
controllo_3	"POPTR_0010s21350.1"	1626	"	"G/T"	"79,3/20,7"	"203/53"	256	stress_42	"POPTR_0010s21350.1"	1626	"	"T/G"	"55,2/44,8"	"16/13"	29
controllo_3	"POPTR_0010s21350.1"	1626	"	"G/T"	"79,3/20,7"	"203/53"	256	stress_45	"POPTR_0010s21350.1"	1626	"	"G/T"	"76,4/23,6"	"42/13"	55
controllo_3	"POPTR_0002s10290.1"	303	"	"C/T"	"79,3/20,7"	"92/24"	116	stress_45	"POPTR_0002s10290.1"	303	"	"C/T"	"83,3/16,7"	"20/4"	24
controllo_3	"POPTR_0008s20770.1"	378	"	"T/C"	"79,4/20,6"	"392/102"	494	stress_12bis	"POPTR_0008s20770.1"	378	"	"T/C"	"72,1/27,9"	"181/70"	251
controllo_3	"POPTR_0008s20770.1"	378	"	"T/C"	"79,4/20,6"	"392/102"	494	stress_42	"POPTR_0008s20770.1"	378	"	"T/C"	"54,5/45,5"	"84/70"	154
controllo_3	"POPTR_0008s20770.1"	378	"	"T/C"	"79,4/20,6"	"392/102"	494	stress_45	"POPTR_0008s20770.1"	378	"	"T/C"	"55,5/44,5"	"131/105"	236
controllo_3	"POPTR_0010s20060.1"	561	"	"T/C"	"79,5/20,3"	"337/86"	424	stress_12bis	"POPTR_0010s20060.1"	561	"	"T/C"	"79,0/21,0"	"98/26"	124
controllo_3	"POPTR_0010s20060.1"	561	"	"T/C"	"79,5/20,3"	"337/86"	424	stress_42	"POPTR_0010s20060.1"	561	"	"T/C"	"62,9/37,1"	"22/13"	35
controllo_3	"POPTR_0010s20060.1"	561	"	"T/C"	"79,5/20,3"	"337/86"	424	stress_45	"POPTR_0010s20060.1"	561	"	"T/C"	"61,9/38,1"	"13/8"	21
controllo_3	"POPTR_0010s05530.1"	921	"	"A/C"	"79,6/20,3"	"611/156"	768	stress_12bis	"POPTR_0010s05530.1"	921	"	"A/C"	"81,2/18,8"	"225/52"	277
controllo_3	"POPTR_0010s05530.1"	921	"	"A/C"	"79,6/20,3"	"611/156"	768	stress_42	"POPTR_0010s05530.1"	921	"	"A/C"	"84,1/15,9"	"37/7"	44
controllo_3	"POPTR_0017s06650.1"	2325	"	"G/T"	"79,6/20,4"	"117/30"	147	stress_12bis	"POPTR_0017s06650.1"	2325	"	"G/T"	"82,4/17,6"	"28/6"	34
controllo_3	"POPTR_0017s06650.1"	2325	"	"G/T"	"79,6/20,4"	"117/30"	147	stress_45	"POPTR_0017s06650.1"	2325	"	"G/T"	"80,0/20,0"	"8/2"	10
controllo_3	"POPTR_0006s20640.1"	519	"	"C/T"	"79,6/20,4"	"82/21"	103	stress_12bis	"POPTR_0006s20640.1"	519	"	"C/T"	"84,2/15,8"	"16/3"	19
controllo_3	"POPTR_0006s20640.1"	519	"	"C/T"	"79,6/20,4"	"82/21"	103	stress_42	"POPTR_0006s20640.1"	519	"	"C/T"	"64,3/35,7"	"9/5"	14
controllo_3	"POPTR_0006s20640.1"	519	"	"C/T"	"79,6/20,4"	"82/21"	103	stress_45	"POPTR_0006s20640.1"	519	"	"C/T"	"72,2/27,8"	"26/10"	36
controllo_3	"POPTR_0014s17610.1"	1093	"	"T/A"	"79,6/20,4"	"90/23"	113	stress_12bis	"POPTR_0014s17610.1"	1093	"	"T/A"	"81,5/18,5"	"44/10"	54
controllo_3	"POPTR_0014s17610.1"	1093	"	"T/A"	"79,6/20,4"	"90/23"	113	stress_42	"POPTR_0014s17610.1"	1093	"	"T/A"	"81,8/18,2"	"18/4"	22
controllo_3	"POPTR_0014s17610.1"	1093	"	"T/A"	"79,6/20,4"	"90/23"	113	stress_45	"POPTR_0014s17610.1"	1093	"	"T/A"	"78,3/21,7"	"18/5"	23
controllo_3	"POPTR_0004s09150.1"	777	"	"C/T"	"79,6/20,4"	"82/21"	103	stress_12bis	"POPTR_0004s09150.1"	777	"	"C/T"	"70,0/30,0"	"7/3"	10
controllo_3	"POPTR_0004s04120.1"	103	"	"T/G"	"79,6/20,4"	"113/29"	142	stress_12bis	"POPTR_0004s04120.1"	103	"	"T/G"	"75,6/24,4"	"31/10"	41
controllo_3	"POPTR_0004s04120.1"	103	"	"T/G"	"79,6/20,4"	"113/29"	142	stress_45	"POPTR_0004s04120.1"	103	"	"T/G"	"81,7/18,3"	"49/11"	60
controllo_3	"POPTR_0004s04120.1"	854	"	"G/A"	"79,6/20,4"	"168/43"	211	stress_12bis	"POPTR_0004s04120.1"	854	"	"G/A"	"60,0/40,0"	"15/10"	25
controllo_3	"POPTR_0007s12070.1"	543	"	"T/C"	"79,6/20,4"	"434/111"	545	stress_12bis	"POPTR_0007s12070.1"	543	"	"T/C"	"77,2/22,8"	"190/56"	246
controllo_3	"POPTR_0007s12070.1"	543	"	"T/C"	"79,6/20,4"	"434/111"	545	stress_42	"POPTR_0007s12070.1"	543	"	"T/C"	"71,9/28,1"	"41/16"	57
controllo_3	"POPTR_0007s12070.1"	543	"	"T/C"	"79,6/20,4"	"434/111"	545	stress_45	"POPTR_0007s12070.1"	543	"	"T/C"	"83,1/16,9"	"49/10"	59
controllo_3	"POPTR_0001s29350.1"	1443	"	"C/T"	"79,7/20,3"	"118/30"	148	stress_12bis	"POPTR_0001s29350.1"	1443	"	"C/T"	"75,0/25,0"	"30/10"	40
controllo_3	"POPTR_0007s15080.1"	1653	"	"T/A"	"79,7/20,3"	"200/51"	251	stress_12bis	"POPTR_0007s15080.1"	1653	"	"T/A"	"79,3/20,7"	"73/19"	92
controllo_3	"POPTR_0007s15080.1"	1653	"	"T/A"	"79,7/20,3"	"200/51"	251	stress_45	"POPTR_0007s15080.1"	1653	"	"T/A"	"77,8/22,2"	"21/6"	27
controllo_3	"POPTR_0002s22600.1"	980	"	"A/T"	"79,8/20,1"	"843/212"	1057	stress_12bis	"POPTR_0002s22600.1"	980	"	"A/T"	"79,8/20,2"	"166/42"	208
controllo_3	"POPTR_0002s22600.1"	980	"	"A/T"	"79,8/20,1"	"843/212"	1057	stress_42	"POPTR_0002s22600.1"	980	"	"A/T"	"74,2/25,8"	"46/16"	62
controllo_3	"POPTR_0002s22600.1"	980	"	"A/T"	"79,8/20,1"	"843/212"	1057	stress_45	"POPTR_0002s22600.1"	980	"	"A/T"	"68,1/31,9"	"64/30"	94
controllo_3	"POPTR_0009s10780.1"	200	"	"C/A"	"79,8/20,2"	"83/21"	104	stress_12bis	"POPTR_0009s10780.1"	200	"	"A/C"	"50,0/50,0"	"6/6"	12
controllo_3	"POPTR_0010s25500.1"	257	"	"T/C"	"79,8/20,2"	"158/40"	198	stress_12bis	"POPTR_0010s25500.1"	257	"	"T/C"	"80,4/19,6"	"45/11"	56
controllo_3	"POPTR_0010s25500.1"	257	"	"T/C"	"79,8/20,2"	"158/40"	198	stress_45	"POPTR_0010s25500.1"	257	"	"T/C"	"69,2/30,8"	"9/4"	13
controllo_3	"POPTR_0004s02080.1"	243	"	"T/C"	"79,9/20,1"	"214/54"	268	stress_12bis	"POPTR_0004s02080.1"	243	"	"T/C"	"83,0/17,0"	"73/15"	88
controllo_3	"POPTR_0004s02080.1"	243	"	"T/C"	"79,9/20,1"	"214/54"	268	stress_42	"POPTR_0004s02080.1"	243	"	"T/C"	"83,9/16,1"	"146/28"	174
controllo_3	"POPTR_0004s02080.1"	243	"	"T/C"	"79,9/20,1"	"214/54"	268	stress_45	"POPTR_0004s02080.1"	243	"	"T/C"	"78,7/21,3"	"214/58"	272
controllo_3	"POPTR_0008s05470.1"	1395	"	"C/T"	"79,9/20,1"	"207/52"	259	stress_45	"POPTR_0008s05470.1"	1395	"	"C/T"	"73,6/26,4"	"39/14"	53
controllo_3	"POPTR_0006s27170.1"	355	"	"T/G"	"80,0/19,1"	"608/145"	760	stress_12bis	"POPTR_0006s27170.1"	355	"	"T/G"	"74,8/24,1"	"202/65"	270
controllo_3	"POPTR_0006s27170.1"	355	"	"T/G"	"80,0/19,1"	"608/145"	760	stress_42	"POPTR_0006s27170.1"	355	"	"T/G"	"58,3/41,7"	"14/10"	24
controllo_3	"POPTR_0006s27170.1"	355	"	"T/G"	"80,0/19,1"	"608/145"	760	stress_45	"POPTR_0006s27170.1"	355	"	"T/G"	"66,7/33,3"	"32/16"	48
controllo_3	"POPTR_0005s23590.1"	684	"	"A/G"	"80,0/20,0"	"12/3"	15	stress_42	"POPTR_0005s23590.1"	684	"	"G/A"	"69,6/30,4"	"117/51"	168
controllo_3	"POPTR_0005s23590.1"	684	"	"A/G"	"80,0/20,0"	"12/3"	15	stress_45	"POPTR_0005s23590.1"	684	"	"G/A"	"74,7/25,3"	"127/43"	170
controllo_3	"POPTR_0013s14520.1"	18	"	"C/G"	"80,0/20,0"	"112/28"	140	stress_12bis	"POPTR_0013s14520.1"	18	"	"C/G"	"73,2/26,8"	"41/15"	56
controllo_3	"POPTR_0001s14260.1"	570	"	"A/G"	"80,0/20,0"	"100/25"	125	stress_42	"POPTR_0001s14260.1"	570	"	"A/G"	"75,0/25,0"	"45/15"	60
controllo_3	"POPTR_0001s14260.1"	570	"	"A/G"	"80,0/20,0"	"100/25"	125	stress_45	"POPTR_0001s14260.1"	570	"	"A/G"	"63,0/37,0"	"34/20"	54
controllo_3	"POPTR_0010s00900.1"	480	"	"A/C"	"80,0/20,0"	"8/2"	10	stress_42	"POPTR_0010s00900.1"	480	"	"C/A"	"55,2/44,8"	"64/52"	116
controllo_3	"POPTR_0010s00900.1"	480	"	"A/C"	"80,0/20,0"	"8/2"	10	stress_45	"POPTR_0010s00900.1"	480	"	"C/A"	"55,1/44,9"	"59/48"	107
controllo_3	"POPTR_0005s26700.1"	466	"	"T/A"	"80,1/19,9"	"113/28"	141	stress_12bis	"POPTR_0005s26700.1"	466	"	"T/A"	"76,0/24,0"	"38/12"	50
controllo_3	"POPTR_0005s26700.1"	466	"	"T/A"	"80,1/19,9"	"113/28"	141	stress_45	"POPTR_0005s26700.1"	466	"	"T/A"	"83,3/16,7"	"10/2"	12
controllo_3	"POPTR_0009s01470.1"	552	"	"T/C"	"80,2/19,8"	"89/22"	111	stress_12bis	"POPTR_0009s01470.1"	552	"	"T/C"	"65,7/34,3"	"23/12"	35
controllo_3	"POPTR_0009s01470.1"	552	"	"T/C"	"80,2/19,8"	"89/22"	111	stress_42	"POPTR_0009s01470.1"	552	"	"T/C"	"81,8/18,2"	"9/2"	11
controllo_3	"POPTR_0010s17860.1"	934	"	"C/T"	"80,2/19,8"	"130/32"	162	stress_12bis	"POPTR_0010s17860.1"	934	"	"C/T"	"73,9/26,1"	"17/6"	23
controllo_3	"POPTR_0010s25500.1"	246	"	"C/G"	"80,2/19,8"	"162/40"	202	stress_12bis	"POPTR_0010s25500.1"	246	"	"C/G"	"76,7/23,3"	"46/14"	60
controllo_3	"POPTR_0010s25500.1"	246	"	"C/G"	"80,2/19,8"	"162/40"	202	stress_45	"POPTR_0010s25500.1"	246	"	"C/G"	"69,2/30,8"	"9/4"	13
controllo_3	"POPTR_0006s22950.1"	150	"	"G/T"	"80,3/19,7"	"147/36"	183	stress_12bis	"POPTR_0006s22950.1"	150	"	"G/T"	"71,1/28,9"	"32/13"	45
controllo_3	"POPTR_0006s22950.1"	150	"	"G/T"	"80,3/19,7"	"147/36"	183	stress_45	"POPTR_0006s22950.1"	150	"	"G/T"	"70,4/29,6"	"19/8"	27
controllo_3	"POPTR_0003s20870.1"	516	"	"T/C"	"80,3/19,7"	"155/38"	193	stress_12bis	"POPTR_0003s20870.1"	516	"	"T/C"	"75,9/24,1"	"41/13"	54
controllo_3	"POPTR_0003s20870.1"	516	"	"T/C"	"80,3/19,7"	"155/38"	193	stress_42	"POPTR_0003s20870.1"	516	"	"C/T"	"52,9/47,1"	"9/8"	17
controllo_3	"POPTR_0003s20870.1"	516	"	"T/C"	"80,3/19,7"	"155/38"	193	stress_45	"POPTR_0003s20870.1"	516	"	"T/C"	"76,1/23,9"	"35/11"	46
controllo_3	"POPTR_0014s17610.1"	1077	"	"G/A"	"80,3/19,7"	"106/26"	132	stress_12bis	"POPTR_0014s17610.1"	1077	"	"G/A"	"69,1/30,9"	"38/17"	55
controllo_3	"POPTR_0014s17610.1"	1077	"	"G/A"	"80,3/19,7"	"106/26"	132	stress_42	"POPTR_0014s17610.1"	1077	"	"G/A"	"76,0/24,0"	"19/6"	25
controllo_3	"POPTR_0014s17610.1"	1077	"	"G/A"	"80,3/19,7"	"106/26"	132	stress_45	"POPTR_0014s17610.1"	1077	"	"G/A"	"78,6/21,4"	"22/6"	28
controllo_3	"POPTR_0010s21350.1"	753	"	"T/C"	"80,3/19,7"	"155/38"	193	stress_12bis	"POPTR_0010s21350.1"	753	"	"T/C"	"73,3/26,7"	"33/12"	45
controllo_3	"POPTR_0010s21350.1"	753	"	"T/C"	"80,3/19,7"	"155/38"	193	stress_42	"POPTR_0010s21350.1"	753	"	"T/C"	"57,1/42,9"	"12/9"	21
controllo_3	"POPTR_0010s21350.1"	753	"	"T/C"	"80,3/19,7"	"155/38"	193	stress_45	"POPTR_0010s21350.1"	753	"	"T/C"	"77,8/22,2"	"21/6"	27
controllo_3	"POPTR_0009s13890.1"	735	"	"T/C"	"80,4/19,6"	"181/44"	225	stress_12bis	"POPTR_0009s13890.1"	735	"	"T/C"	"67,4/32,6"	"58/28"	86
controllo_3	"POPTR_0009s13890.1"	735	"	"T/C"	"80,4/19,6"	"181/44"	225	stress_42	"POPTR_0009s13890.1"	735	"	"T/C"	"69,7/30,3"	"62/27"	89
controllo_3	"POPTR_0009s13890.1"	735	"	"T/C"	"80,4/19,6"	"181/44"	225	stress_45	"POPTR_0009s13890.1"	735	"	"T/C"	"67,8/32,2"	"82/39"	121
controllo_3	"POPTR_0001s10520.1"	355	"	"A/G"	"80,4/19,6"	"86/21"	107	stress_12bis	"POPTR_0001s10520.1"	355	"	"A/G"	"70,4/29,6"	"38/16"	54
controllo_3	"POPTR_0001s10520.1"	355	"	"A/G"	"80,4/19,6"	"86/21"	107	stress_42	"POPTR_0001s10520.1"	355	"	"A/G"	"71,7/28,3"	"33/13"	46
controllo_3	"POPTR_0001s10520.1"	355	"	"A/G"	"80,4/19,6"	"86/21"	107	stress_45	"POPTR_0001s10520.1"	355	"	"A/G"	"72,6/27,4"	"45/17"	62
controllo_3	"POPTR_0002s07290.1"	383	"	"A/C"	"80,4/19,6"	"230/56"	286	stress_42	"POPTR_0002s07290.1"	383	"	"A/C"	"70,9/29,1"	"56/23"	79
controllo_3	"POPTR_0002s07290.1"	383	"	"A/C"	"80,4/19,6"	"230/56"	286	stress_45	"POPTR_0002s07290.1"	383	"	"A/C"	"80,0/20,0"	"68/17"	85
controllo_3	"POPTR_0002s22600.1"	979	"	"G/T"	"80,5/19,4"	"831/200"	1032	stress_12bis	"POPTR_0002s22600.1"	979	"	"G/T"	"79,6/20,4"	"160/41"	201
controllo_3	"POPTR_0002s22600.1"	979	"	"G/T"	"80,5/19,4"	"831/200"	1032	stress_42	"POPTR_0002s22600.1"	979	"	"G/T"	"73,8/26,2"	"45/16"	61
controllo_3	"POPTR_0002s22600.1"	979	"	"G/T"	"80,5/19,4"	"831/200"	1032	stress_45	"POPTR_0002s22600.1"	979	"	"G/T"	"68,8/31,2"	"64/29"	93
controllo_3	"POPTR_0006s23580.1"	594	"	"G/A"	"80,5/19,5"	"95/23"	118	stress_12bis	"POPTR_0006s23580.1"	594	"	"G/A"	"70,6/29,4"	"24/10"	34
controllo_3	"POPTR_0006s23580.1"	594	"	"G/A"	"80,5/19,5"	"95/23"	118	stress_42	"POPTR_0006s23580.1"	594	"	"G/A"	"65,6/34,4"	"40/21"	61
controllo_3	"POPTR_0006s23580.1"	594	"	"G/A"	"80,5/19,5"	"95/23"	118	stress_45	"POPTR_0006s23580.1"	594	"	"G/A"	"67,2/32,8"	"41/20"	61
controllo_3	"POPTR_0001s37480.1"	1017	"	"A/G"	"80,5/19,5"	"124/30"	154	stress_12bis	"POPTR_0001s37480.1"	1017	"	"A/G"	"70,8/29,2"	"17/7"	24
controllo_3	"POPTR_0001s37480.1"	1017	"	"A/G"	"80,5/19,5"	"124/30"	154	stress_42	"POPTR_0001s37480.1"	1017	"	"A/G"	"73,0/27,0"	"27/10"	37
controllo_3	"POPTR_0001s37480.1"	1017	"	"A/G"	"80,5/19,5"	"124/30"	154	stress_45	"POPTR_0001s37480.1"	1017	"	"A/G"	"83,6/16,4"	"61/12"	73
controllo_3	"POPTR_0010s20060.1"	1068	"	"T/C"	"80,5/19,5"	"239/58"	297	stress_45	"POPTR_0010s20060.1"	1068	"	"T/C"	"82,8/17,2"	"24/5"	29
controllo_3	"POPTR_0017s11410.1"	606	"	"C/T"	"80,6/19,4"	"108/26"	134	stress_12bis	"POPTR_0017s11410.1"	606	"	"C/T"	"80,7/19,3"	"46/11"	57
controllo_3	"POPTR_0017s11410.1"	606	"	"C/T"	"80,6/19,4"	"108/26"	134	stress_42	"POPTR_0017s11410.1"	606	"	"C/T"	"70,0/30,0"	"14/6"	20
controllo_3	"POPTR_0006s06770.1"	1216	"	"A/G"	"80,6/19,4"	"129/31"	160	stress_42	"POPTR_0006s06770.1"	1216	"	"A/G"	"81,4/18,6"	"70/16"	86
controllo_3	"POPTR_0006s06770.1"	1216	"	"A/G"	"80,6/19,4"	"129/31"	160	stress_45	"POPTR_0006s06770.1"	1216	"	"A/G"	"68,5/31,5"	"100/46"	146
controllo_3	"POPTR_0019s12320.1"	1632	"	"A/C"	"80,6/19,4"	"203/49"	252	stress_12bis	"POPTR_0019s12320.1"	1632	"	"A/C"	"78,5/21,5"	"62/17"	79
controllo_3	"POPTR_0013s12970.1"	199	"	"G/A"	"80,6/19,4"	"125/30"	155	stress_12bis	"POPTR_0013s12970.1"	199	"	"G/A"	"80,3/19,7"	"49/12"	61
controllo_3	"POPTR_0013s12970.1"	199	"	"G/A"	"80,6/19,4"	"125/30"	155	stress_45	"POPTR_0013s12970.1"	199	"	"G/A"	"85,0/15,0"	"34/6"	40
controllo_3	"POPTR_0019s12320.1"	99	"	"C/T"	"80,7/19,3"	"92/22"	114	stress_12bis	"POPTR_0019s12320.1"	99	"	"C/T"	"82,6/17,4"	"38/8"	46
controllo_3	"POPTR_0011s13820.1"	445	"	"C/A"	"80,7/19,3"	"92/22"	114	stress_12bis	"POPTR_0011s13820.1"	445	"	"C/A"	"84,4/15,6"	"38/7"	45
controllo_3	"POPTR_0015s12900.1"	308	"	"C/T"	"80,7/19,3"	"167/40"	207	stress_12bis	"POPTR_0015s12900.1"	308	"	"C/T"	"71,6/28,4"	"58/23"	81
controllo_3	"POPTR_0015s12900.1"	308	"	"C/T"	"80,7/19,3"	"167/40"	207	stress_42	"POPTR_0015s12900.1"	308	"	"C/T"	"63,8/36,2"	"44/25"	69
controllo_3	"POPTR_0015s12900.1"	308	"	"C/T"	"80,7/19,3"	"167/40"	207	stress_45	"POPTR_0015s12900.1"	308	"	"C/T"	"70,3/29,7"	"45/19"	64
controllo_3	"POPTR_0005s21570.1"	139	"	"T/C"	"80,8/18,9"	"252/59"	312	stress_45	"POPTR_0005s21570.1"	139	"	"T/C"	"76,9/23,1"	"10/3"	13
controllo_3	"POPTR_0017s05700.1"	324	"	"G/T"	"80,8/19,2"	"287/68"	355	stress_12bis	"POPTR_0017s05700.1"	324	"	"G/T"	"79,8/20,2"	"71/18"	89
controllo_3	"POPTR_0017s05700.1"	324	"	"G/T"	"80,8/19,2"	"287/68"	355	stress_42	"POPTR_0017s05700.1"	324	"	"G/T"	"78,1/21,9"	"50/14"	64
controllo_3	"POPTR_0017s05700.1"	324	"	"G/T"	"80,8/19,2"	"287/68"	355	stress_45	"POPTR_0017s05700.1"	324	"	"G/T"	"72,9/27,1"	"70/26"	96
controllo_3	"POPTR_0001s37480.1"	507	"	"T/G"	"80,8/19,2"	"215/51"	266	stress_12bis	"POPTR_0001s37480.1"	507	"	"T/G"	"73,5/26,5"	"36/13"	49
controllo_3	"POPTR_0001s37480.1"	507	"	"T/G"	"80,8/19,2"	"215/51"	266	stress_45	"POPTR_0001s37480.1"	507	"	"T/G"	"80,6/18,7"	"112/26"	139
controllo_3	"POPTR_0007s04191.1"	248	"	"A/T"	"80,8/19,2"	"84/20"	104	stress_12bis	"POPTR_0007s04191.1"	248	"	"A/T"	"84,2/15,8"	"16/3"	19
controllo_3	"POPTR_0006s03660.1"	4149	"	"T/C"	"80,9/19,1"	"93/22"	115	stress_42	"POPTR_0006s03660.1"	4149	"	"T/C"	"69,2/30,8"	"9/4"	13
controllo_3	"POPTR_0006s03660.1"	4149	"	"T/C"	"80,9/19,1"	"93/22"	115	stress_45	"POPTR_0006s03660.1"	4149	"	"T/C"	"84,4/15,6"	"27/5"	32
controllo_3	"POPTR_0015s09990.1"	633	"	"A/G"	"80,9/19,1"	"131/31"	162	stress_12bis	"POPTR_0015s09990.1"	633	"	"A/G"	"82,7/17,3"	"43/9"	52
controllo_3	"POPTR_0015s09990.1"	633	"	"A/G"	"80,9/19,1"	"131/31"	162	stress_42	"POPTR_0015s09990.1"	633	"	"A/G"	"70,0/30,0"	"7/3"	10
controllo_3	"POPTR_0001s47020.1"	507	"	"T/C"	"80,9/19,1"	"89/21"	110	stress_12bis	"POPTR_0001s47020.1"	507	"	"T/C"	"73,7/26,3"	"28/10"	38
controllo_3	"POPTR_0001s47020.1"	507	"	"T/C"	"80,9/19,1"	"89/21"	110	stress_42	"POPTR_0001s47020.1"	507	"	"T/C"	"71,4/28,6"	"15/6"	21
controllo_3	"POPTR_0001s47020.1"	507	"	"T/C"	"80,9/19,1"	"89/21"	110	stress_45	"POPTR_0001s47020.1"	507	"	"T/C"	"78,8/21,2"	"41/11"	52
controllo_3	"POPTR_0010s08290.1"	378	"	"A/T"	"80,9/19,1"	"266/63"	329	stress_12bis	"POPTR_0010s08290.1"	378	"	"A/T"	"77,8/21,9"	"298/84"	383
controllo_3	"POPTR_0010s08290.1"	378	"	"A/T"	"80,9/19,1"	"266/63"	329	stress_42	"POPTR_0010s08290.1"	378	"	"A/T"	"74,9/25,0"	"1821/607"	2430
controllo_3	"POPTR_0010s08290.1"	378	"	"A/T"	"80,9/19,1"	"266/63"	329	stress_45	"POPTR_0010s08290.1"	378	"	"A/T"	"74,8/25,1"	"1824/612"	2437
controllo_3	"POPTR_0008s20770.1"	402	"	"T/A"	"80,9/19,1"	"330/78"	408	stress_12bis	"POPTR_0008s20770.1"	402	"	"T/A"	"77,4/22,6"	"144/42"	186
controllo_3	"POPTR_0008s20770.1"	402	"	"T/A"	"80,9/19,1"	"330/78"	408	stress_42	"POPTR_0008s20770.1"	402	"	"T/A"	"56,2/43,8"	"72/56"	128
controllo_3	"POPTR_0008s20770.1"	402	"	"T/A"	"80,9/19,1"	"330/78"	408	stress_45	"POPTR_0008s20770.1"	402	"	"T/A"	"63,4/36,6"	"109/63"	172
controllo_3	"POPTR_0018s11820.1"	528	"	"G/C"	"81,0/19,0"	"255/60"	315	stress_12bis	"POPTR_0018s11820.1"	528	"	"G/C"	"81,6/18,4"	"71/16"	87
controllo_3	"POPTR_0009s05720.1"	99	"	"C/G"	"81,1/18,8"	"924/214"	1139	stress_12bis	"POPTR_0009s05720.1"	99	"	"C/G"	"81,0/19,0"	"218/51"	269
controllo_3	"POPTR_0009s05720.1"	99	"	"C/G"	"81,1/18,8"	"924/214"	1139	stress_45	"POPTR_0009s05720.1"	99	"	"C/G"	"83,7/16,3"	"36/7"	43
controllo_3	"POPTR_0009s13890.1"	609	"	"T/C"	"81,1/18,9"	"193/45"	238	stress_12bis	"POPTR_0009s13890.1"	609	"	"T/C"	"64,0/36,0"	"48/27"	75
controllo_3	"POPTR_0009s13890.1"	609	"	"T/C"	"81,1/18,9"	"193/45"	238	stress_42	"POPTR_0009s13890.1"	609	"	"T/C"	"68,1/31,9"	"62/29"	91
controllo_3	"POPTR_0009s13890.1"	609	"	"T/C"	"81,1/18,9"	"193/45"	238	stress_45	"POPTR_0009s13890.1"	609	"	"T/C"	"69,3/30,7"	"95/42"	137
controllo_3	"POPTR_0002s21420.1"	2113	"	"C/G"	"81,1/18,9"	"116/27"	143	stress_12bis	"POPTR_0002s21420.1"	2113	"	"C/G"	"72,9/27,1"	"35/13"	48
controllo_3	"POPTR_0002s21420.1"	2113	"	"C/G"	"81,1/18,9"	"116/27"	143	stress_42	"POPTR_0002s21420.1"	2113	"	"C/G"	"57,4/42,6"	"35/26"	61
controllo_3	"POPTR_0002s21420.1"	2113	"	"C/G"	"81,1/18,9"	"116/27"	143	stress_45	"POPTR_0002s21420.1"	2113	"	"C/G"	"54,7/45,3"	"29/24"	53
controllo_3	"POPTR_0008s05480.1"	183	"	"A/G"	"81,1/18,9"	"210/49"	259	stress_42	"POPTR_0008s05480.1"	183	"	"A/G"	"76,1/23,9"	"35/11"	46
controllo_3	"POPTR_0005s25290.1"	230	"	"C/T"	"81,2/18,8"	"108/25"	133	stress_12bis	"POPTR_0005s25290.1"	230	"	"C/T"	"75,0/25,0"	"21/7"	28
controllo_3	"POPTR_0022s00530.1"	1758	"	"A/G"	"81,2/18,8"	"177/41"	218	stress_42	"POPTR_0022s00530.1"	1758	"	"A/G"	"84,4/15,6"	"27/5"	32
controllo_3	"POPTR_0009s15580.1"	3903	"	"A/T"	"81,2/18,8"	"104/24"	128	stress_45	"POPTR_0009s15580.1"	3903	"	"A/T"	"50,0/50,0"	"7/7"	14
controllo_3	"POPTR_0001s11350.1"	159	"	"T/G"	"81,2/18,8"	"91/21"	112	stress_12bis	"POPTR_0001s11350.1"	159	"	"T/G"	"68,6/31,4"	"59/27"	86
controllo_3	"POPTR_0001s11350.1"	159	"	"T/G"	"81,2/18,8"	"91/21"	112	stress_42	"POPTR_0001s11350.1"	159	"	"G/T"	"54,8/45,2"	"17/14"	31
controllo_3	"POPTR_0001s11350.1"	159	"	"T/G"	"81,2/18,8"	"91/21"	112	stress_45	"POPTR_0001s11350.1"	159	"	"T/G"	"60,0/40,0"	"21/14"	35
controllo_3	"POPTR_0001s14310.1"	807	"	"G/A"	"81,2/18,8"	"108/25"	133	stress_45	"POPTR_0001s14310.1"	807	"	"G/A"	"66,7/33,3"	"42/21"	63
controllo_3	"POPTR_0006s13240.1"	415	"	"C/T"	"81,3/18,7"	"113/26"	139	stress_12bis	"POPTR_0006s13240.1"	415	"	"C/T"	"81,8/18,2"	"63/14"	77
controllo_3	"POPTR_0006s13240.1"	415	"	"C/T"	"81,3/18,7"	"113/26"	139	stress_45	"POPTR_0006s13240.1"	415	"	"C/T"	"82,5/17,5"	"33/7"	40
controllo_3	"POPTR_0001s45510.1"	597	"	"T/C"	"81,3/18,7"	"87/20"	107	stress_12bis	"POPTR_0001s45510.1"	597	"	"T/C"	"83,3/16,7"	"15/3"	18
controllo_3	"POPTR_0001s07520.1"	1167	"	"C/T"	"81,3/18,7"	"148/34"	182	stress_12bis	"POPTR_0001s07520.1"	1167	"	"C/T"	"82,8/17,2"	"48/10"	58
controllo_3	"POPTR_0001s07520.1"	1167	"	"C/T"	"81,3/18,7"	"148/34"	182	stress_42	"POPTR_0001s07520.1"	1167	"	"C/T"	"78,8/21,2"	"52/14"	66
controllo_3	"POPTR_0010s20060.1"	543	"	"T/C"	"81,3/18,7"	"457/105"	562	stress_12bis	"POPTR_0010s20060.1"	543	"	"T/C"	"78,4/21,6"	"131/36"	167
controllo_3	"POPTR_0010s20060.1"	543	"	"T/C"	"81,3/18,7"	"457/105"	562	stress_42	"POPTR_0010s20060.1"	543	"	"T/C"	"79,3/20,7"	"23/6"	29
controllo_3	"POPTR_0010s20060.1"	543	"	"T/C"	"81,3/18,7"	"457/105"	562	stress_45	"POPTR_0010s20060.1"	543	"	"T/C"	"76,9/23,1"	"20/6"	26
controllo_3	"POPTR_0007s08400.1"	1479	"	"T/G"	"81,4/18,3"	"289/65"	355	stress_12bis	"POPTR_0007s08400.1"	1479	"	"T/G"	"81,2/18,1"	"112/25"	138
controllo_3	"POPTR_0007s08400.1"	1479	"	"T/G"	"81,4/18,3"	"289/65"	355	stress_42	"POPTR_0007s08400.1"	1479	"	"T/G"	"82,5/17,5"	"99/21"	120
controllo_3	"POPTR_0005s25290.1"	189	"	"G/A"	"81,4/18,6"	"83/19"	102	stress_45	"POPTR_0005s25290.1"	189	"	"G/A"	"83,3/16,7"	"10/2"	12
controllo_3	"POPTR_0017s05700.1"	240	"	"T/C"	"81,4/18,6"	"377/86"	463	stress_12bis	"POPTR_0017s05700.1"	240	"	"T/C"	"81,7/18,3"	"116/26"	142
controllo_3	"POPTR_0017s05700.1"	240	"	"T/C"	"81,4/18,6"	"377/86"	463	stress_42	"POPTR_0017s05700.1"	240	"	"T/C"	"78,4/21,6"	"69/19"	88
controllo_3	"POPTR_0017s05700.1"	240	"	"T/C"	"81,4/18,6"	"377/86"	463	stress_45	"POPTR_0017s05700.1"	240	"	"T/C"	"74,8/25,2"	"92/31"	123
controllo_3	"POPTR_0004s00460.1"	672	"	"T/C"	"81,4/18,6"	"92/21"	113	stress_12bis	"POPTR_0004s00460.1"	672	"	"T/C"	"80,0/20,0"	"8/2"	10
controllo_3	"POPTR_0012s00670.1"	267	"	"T/A"	"81,5/18,5"	"123/28"	151	stress_12bis	"POPTR_0012s00670.1"	267	"	"T/A"	"84,6/15,4"	"11/2"	13
controllo_3	"POPTR_0012s00670.1"	267	"	"T/A"	"81,5/18,5"	"123/28"	151	stress_42	"POPTR_0012s00670.1"	267	"	"T/A"	"68,8/31,2"	"22/10"	32
controllo_3	"POPTR_0012s00670.1"	267	"	"T/A"	"81,5/18,5"	"123/28"	151	stress_45	"POPTR_0012s00670.1"	267	"	"T/A"	"68,8/31,2"	"33/15"	48
controllo_3	"POPTR_0011s11960.1"	50	"	"T/G"	"81,5/18,5"	"12663/2872"	15539	stress_12bis	"POPTR_0011s11960.1"	50	"	"T/G"	"84,0/16,0"	"5322/1014"	6338
controllo_3	"POPTR_0006s20640.1"	1258	"	"T/C"	"81,6/18,4"	"84/19"	103	stress_12bis	"POPTR_0006s20640.1"	1258	"	"T/C"	"76,7/23,3"	"23/7"	30
controllo_3	"POPTR_0006s20640.1"	1258	"	"T/C"	"81,6/18,4"	"84/19"	103	stress_42	"POPTR_0006s20640.1"	1258	"	"T/C"	"53,1/46,9"	"17/15"	32
controllo_3	"POPTR_0006s20640.1"	1258	"	"T/C"	"81,6/18,4"	"84/19"	103	stress_45	"POPTR_0006s20640.1"	1258	"	"T/C"	"61,4/38,6"	"27/17"	44
controllo_3	"POPTR_0002s03020.1"	77	"	"A/C"	"81,6/18,4"	"182/41"	223	stress_12bis	"POPTR_0002s03020.1"	77	"	"A/C"	"80,6/19,4"	"50/12"	62
controllo_3	"POPTR_0016s07280.1"	61	"	"G/A"	"81,6/18,4"	"151/34"	185	stress_12bis	"POPTR_0016s07280.1"	61	"	"G/A"	"72,5/27,5"	"37/14"	51
controllo_3	"POPTR_0016s07280.1"	61	"	"G/A"	"81,6/18,4"	"151/34"	185	stress_42	"POPTR_0016s07280.1"	61	"	"G/A"	"73,3/26,7"	"11/4"	15
controllo_3	"POPTR_0005s25290.1"	177	"	"C/T"	"81,7/17,3"	"85/18"	104	stress_12bis	"POPTR_0005s25290.1"	177	"	"C/T"	"78,6/21,4"	"11/3"	14
controllo_3	"POPTR_0005s25290.1"	177	"	"C/T"	"81,7/17,3"	"85/18"	104	stress_45	"POPTR_0005s25290.1"	177	"	"C/T"	"80,0/20,0"	"12/3"	15
controllo_3	"POPTR_0002s14730.1"	630	"	"A/T"	"81,7/18,2"	"607/135"	743	stress_12bis	"POPTR_0002s14730.1"	630	"	"A/T"	"82,5/17,5"	"160/34"	194
controllo_3	"POPTR_0002s14730.1"	630	"	"A/T"	"81,7/18,2"	"607/135"	743	stress_42	"POPTR_0002s14730.1"	630	"	"T/A"	"58,7/41,3"	"27/19"	46
controllo_3	"POPTR_0002s14730.1"	630	"	"A/T"	"81,7/18,2"	"607/135"	743	stress_45	"POPTR_0002s14730.1"	630	"	"T/A"	"50,5/49,5"	"46/45"	91
controllo_3	"POPTR_0012s08780.1"	417	"	"T/G"	"81,7/18,3"	"94/21"	115	stress_12bis	"POPTR_0012s08780.1"	417	"	"T/G"	"80,0/20,0"	"20/5"	25
controllo_3	"POPTR_0012s08780.1"	417	"	"T/G"	"81,7/18,3"	"94/21"	115	stress_42	"POPTR_0012s08780.1"	417	"	"T/G"	"79,2/20,8"	"19/5"	24
controllo_3	"POPTR_0012s08780.1"	417	"	"T/G"	"81,7/18,3"	"94/21"	115	stress_45	"POPTR_0012s08780.1"	417	"	"T/G"	"69,2/30,8"	"9/4"	13
controllo_3	"POPTR_0001s07850.1"	217	"	"C/T"	"81,7/18,3"	"138/31"	169	stress_12bis	"POPTR_0001s07850.1"	217	"	"T/C"	"51,5/48,5"	"17/16"	33
controllo_3	"POPTR_0001s07850.1"	217	"	"C/T"	"81,7/18,3"	"138/31"	169	stress_45	"POPTR_0001s07850.1"	217	"	"C/T"	"62,2/37,8"	"28/17"	45
controllo_3	"POPTR_0002s15840.1"	451	"	"T/A"	"81,7/18,3"	"94/21"	115	stress_12bis	"POPTR_0002s15840.1"	451	"	"T/A"	"71,7/28,3"	"33/13"	46
controllo_3	"POPTR_0002s15840.1"	451	"	"T/A"	"81,7/18,3"	"94/21"	115	stress_42	"POPTR_0002s15840.1"	451	"	"T/A"	"76,9/23,1"	"10/3"	13
controllo_3	"POPTR_0010s21280.1"	1485	"	"G/A"	"81,8/18,2"	"347/77"	424	stress_12bis	"POPTR_0010s21280.1"	1485	"	"G/A"	"82,1/17,9"	"151/33"	184
controllo_3	"POPTR_0010s21280.1"	1485	"	"G/A"	"81,8/18,2"	"347/77"	424	stress_45	"POPTR_0010s21280.1"	1485	"	"G/A"	"80,0/20,0"	"112/28"	140
controllo_3	"POPTR_0003s15340.1"	1506	"	"G/A"	"81,9/18,1"	"95/21"	116	stress_12bis	"POPTR_0003s15340.1"	1506	"	"G/A"	"62,5/37,5"	"10/6"	16
controllo_3	"POPTR_0011s11960.1"	77	"	"G/A"	"81,9/18,1"	"5524/1219"	6747	stress_12bis	"POPTR_0011s11960.1"	77	"	"A/G"	"50,6/49,4"	"1758/1714"	3472
controllo_3	"POPTR_0011s11960.1"	77	"	"G/A"	"81,9/18,1"	"5524/1219"	6747	stress_42	"POPTR_0011s11960.1"	77	"	"A/G"	"80,5/19,5"	"9321/2262"	11586
controllo_3	"POPTR_0011s11960.1"	77	"	"G/A"	"81,9/18,1"	"5524/1219"	6747	stress_45	"POPTR_0011s11960.1"	77	"	"A/G"	"77,7/22,3"	"7618/2186"	9804
controllo_3	"POPTR_0015s12900.1"	295	"	"G/A"	"81,9/18,1"	"163/36"	199	stress_12bis	"POPTR_0015s12900.1"	295	"	"G/A"	"76,0/24,0"	"57/18"	75
controllo_3	"POPTR_0015s12900.1"	295	"	"G/A"	"81,9/18,1"	"163/36"	199	stress_42	"POPTR_0015s12900.1"	295	"	"G/A"	"74,2/25,8"	"46/16"	62
controllo_3	"POPTR_0015s12900.1"	295	"	"G/A"	"81,9/18,1"	"163/36"	199	stress_45	"POPTR_0015s12900.1"	295	"	"G/A"	"69,5/30,5"	"41/18"	59
controllo_3	"POPTR_0008s05470.1"	402	"	"C/T"	"82,0/17,1"	"91/19"	111	stress_12bis	"POPTR_0008s05470.1"	402	"	"C/T"	"73,1/26,9"	"19/7"	26
controllo_3	"POPTR_0008s05470.1"	402	"	"C/T"	"82,0/17,1"	"91/19"	111	stress_42	"POPTR_0008s05470.1"	402	"	"C/T"	"72,7/27,3"	"8/3"	11
controllo_3	"POPTR_0008s05470.1"	402	"	"C/T"	"82,0/17,1"	"91/19"	111	stress_45	"POPTR_0008s05470.1"	402	"	"C/T"	"72,2/27,8"	"13/5"	18
controllo_3	"POPTR_0017s11410.1"	603	"	"T/C"	"82,0/18,0"	"109/24"	133	stress_12bis	"POPTR_0017s11410.1"	603	"	"T/C"	"82,7/17,3"	"43/9"	52
controllo_3	"POPTR_0017s11410.1"	603	"	"T/C"	"82,0/18,0"	"109/24"	133	stress_42	"POPTR_0017s11410.1"	603	"	"T/C"	"72,7/27,3"	"16/6"	22
controllo_3	"POPTR_0017s11410.1"	603	"	"T/C"	"82,0/18,0"	"109/24"	133	stress_45	"POPTR_0017s11410.1"	603	"	"T/C"	"81,0/19,0"	"17/4"	21
controllo_3	"POPTR_0013s00760.1"	208	"	"C/T"	"82,0/18,0"	"214/47"	261	stress_12bis	"POPTR_0013s00760.1"	208	"	"C/T"	"72,1/27,9"	"44/17"	61
controllo_3	"POPTR_0013s00760.1"	208	"	"C/T"	"82,0/18,0"	"214/47"	261	stress_42	"POPTR_0013s00760.1"	208	"	"C/T"	"81,8/18,2"	"9/2"	11
controllo_3	"POPTR_0013s00760.1"	208	"	"C/T"	"82,0/18,0"	"214/47"	261	stress_45	"POPTR_0013s00760.1"	208	"	"C/T"	"78,6/21,4"	"11/3"	14
controllo_3	"POPTR_0012s08330.1"	34	"	"T/A"	"82,0/18,0"	"141/31"	172	stress_12bis	"POPTR_0012s08330.1"	34	"	"T/A"	"72,9/27,1"	"43/16"	59
controllo_3	"POPTR_0012s08330.1"	34	"	"T/A"	"82,0/18,0"	"141/31"	172	stress_45	"POPTR_0012s08330.1"	34	"	"T/A"	"83,9/16,1"	"52/10"	62
controllo_3	"POPTR_0002s07290.1"	122	"	"G/A"	"82,0/18,0"	"237/52"	289	stress_42	"POPTR_0002s07290.1"	122	"	"G/A"	"78,6/21,4"	"55/15"	70
controllo_3	"POPTR_0002s07290.1"	122	"	"G/A"	"82,0/18,0"	"237/52"	289	stress_45	"POPTR_0002s07290.1"	122	"	"G/A"	"74,0/26,0"	"57/20"	77
controllo_3	"POPTR_0012s08780.1"	195	"	"C/T"	"82,1/17,9"	"92/20"	112	stress_12bis	"POPTR_0012s08780.1"	195	"	"C/T"	"77,3/22,7"	"17/5"	22
controllo_3	"POPTR_0012s08780.1"	195	"	"C/T"	"82,1/17,9"	"92/20"	112	stress_42	"POPTR_0012s08780.1"	195	"	"C/T"	"75,0/25,0"	"18/6"	24
controllo_3	"POPTR_0012s08780.1"	196	"	"A/G"	"82,1/17,9"	"92/20"	112	stress_12bis	"POPTR_0012s08780.1"	196	"	"A/G"	"77,3/22,7"	"17/5"	22
controllo_3	"POPTR_0012s08780.1"	196	"	"A/G"	"82,1/17,9"	"92/20"	112	stress_42	"POPTR_0012s08780.1"	196	"	"A/G"	"76,0/24,0"	"19/6"	25
controllo_3	"POPTR_0001s13100.1"	272	"	"C/A"	"82,1/17,9"	"161/35"	196	stress_12bis	"POPTR_0001s13100.1"	272	"	"A/C"	"61,1/38,9"	"275/175"	450
controllo_3	"POPTR_0001s13100.1"	272	"	"C/A"	"82,1/17,9"	"161/35"	196	stress_42	"POPTR_0001s13100.1"	272	"	"A/C"	"50,8/49,2"	"33/32"	65
controllo_3	"POPTR_0001s13100.1"	272	"	"C/A"	"82,1/17,9"	"161/35"	196	stress_45	"POPTR_0001s13100.1"	272	"	"C/A"	"64,6/35,4"	"31/17"	48
controllo_3	"POPTR_0002s19710.1"	264	"	"G/A"	"82,2/17,7"	"659/142"	802	stress_12bis	"POPTR_0002s19710.1"	264	"	"G/A"	"81,5/18,5"	"255/58"	313
controllo_3	"POPTR_0002s19710.1"	264	"	"G/A"	"82,2/17,7"	"659/142"	802	stress_42	"POPTR_0002s19710.1"	264	"	"G/A"	"83,6/16,4"	"112/22"	134
controllo_3	"POPTR_0006s23580.1"	592	"	"G/A"	"82,2/17,8"	"97/21"	118	stress_12bis	"POPTR_0006s23580.1"	592	"	"G/A"	"74,3/25,7"	"26/9"	35
controllo_3	"POPTR_0006s23580.1"	592	"	"G/A"	"82,2/17,8"	"97/21"	118	stress_42	"POPTR_0006s23580.1"	592	"	"G/A"	"66,7/33,3"	"42/21"	63
controllo_3	"POPTR_0006s23580.1"	592	"	"G/A"	"82,2/17,8"	"97/21"	118	stress_45	"POPTR_0006s23580.1"	592	"	"G/A"	"68,6/31,4"	"48/22"	70
controllo_3	"POPTR_0006s20090.1"	1392	"	"T/C"	"82,2/17,8"	"282/61"	343	stress_12bis	"POPTR_0006s20090.1"	1392	"	"T/C"	"83,7/16,3"	"87/17"	104
controllo_3	"POPTR_0006s20090.1"	1392	"	"T/C"	"82,2/17,8"	"282/61"	343	stress_42	"POPTR_0006s20090.1"	1392	"	"T/C"	"69,7/30,3"	"23/10"	33
controllo_3	"POPTR_0006s20090.1"	1392	"	"T/C"	"82,2/17,8"	"282/61"	343	stress_45	"POPTR_0006s20090.1"	1392	"	"T/C"	"62,5/37,5"	"15/9"	24
controllo_3	"POPTR_0013s06710.1"	805	"	"T/A"	"82,2/17,8"	"97/21"	118	stress_45	"POPTR_0013s06710.1"	805	"	"T/A"	"81,2/18,8"	"13/3"	16
controllo_3	"POPTR_0013s04210.1"	242	"	"A/G"	"82,2/17,8"	"83/18"	101	stress_42	"POPTR_0013s04210.1"	242	"	"A/G"	"84,6/15,4"	"11/2"	13
controllo_3	"POPTR_0014s12470.1"	168	"	"C/T"	"82,2/17,8"	"83/18"	101	stress_42	"POPTR_0014s12470.1"	168	"	"C/T"	"54,2/45,8"	"13/11"	24
controllo_3	"POPTR_0014s12470.1"	168	"	"C/T"	"82,2/17,8"	"83/18"	101	stress_45	"POPTR_0014s12470.1"	168	"	"C/T"	"75,0/25,0"	"18/6"	24
controllo_3	"POPTR_0009s13890.1"	669	"	"G/A"	"82,2/17,8"	"162/35"	197	stress_12bis	"POPTR_0009s13890.1"	669	"	"G/A"	"68,0/32,0"	"51/24"	75
controllo_3	"POPTR_0009s13890.1"	669	"	"G/A"	"82,2/17,8"	"162/35"	197	stress_42	"POPTR_0009s13890.1"	669	"	"G/A"	"67,9/32,1"	"57/27"	84
controllo_3	"POPTR_0009s13890.1"	669	"	"G/A"	"82,2/17,8"	"162/35"	197	stress_45	"POPTR_0009s13890.1"	669	"	"G/A"	"65,2/34,8"	"86/46"	132
controllo_3	"POPTR_0015s04140.1"	2390	"	"T/G"	"82,2/17,8"	"111/24"	135	stress_12bis	"POPTR_0015s04140.1"	2390	"	"T/G"	"83,3/16,7"	"35/7"	42
controllo_3	"POPTR_0015s04140.1"	2390	"	"T/G"	"82,2/17,8"	"111/24"	135	stress_42	"POPTR_0015s04140.1"	2390	"	"T/G"	"80,9/19,1"	"89/21"	110
controllo_3	"POPTR_0007s08400.1"	1797	"	"A/C"	"82,2/17,8"	"97/21"	118	stress_12bis	"POPTR_0007s08400.1"	1797	"	"A/C"	"60,0/40,0"	"24/16"	40
controllo_3	"POPTR_0007s08400.1"	1797	"	"A/C"	"82,2/17,8"	"97/21"	118	stress_42	"POPTR_0007s08400.1"	1797	"	"A/C"	"80,6/19,4"	"29/7"	36
controllo_3	"POPTR_0007s08400.1"	1797	"	"A/C"	"82,2/17,8"	"97/21"	118	stress_45	"POPTR_0007s08400.1"	1797	"	"A/C"	"77,6/22,4"	"59/17"	76
controllo_3	"POPTR_0016s03630.1"	3010	"	"A/G"	"82,2/17,8"	"231/50"	281	stress_12bis	"POPTR_0016s03630.1"	3010	"	"A/G"	"81,8/18,2"	"54/12"	66
controllo_3	"POPTR_0016s03630.1"	3010	"	"A/G"	"82,2/17,8"	"231/50"	281	stress_42	"POPTR_0016s03630.1"	3010	"	"A/G"	"83,3/16,7"	"10/2"	12
controllo_3	"POPTR_0016s03630.1"	3010	"	"A/G"	"82,2/17,8"	"231/50"	281	stress_45	"POPTR_0016s03630.1"	3010	"	"A/G"	"71,4/28,6"	"20/8"	28
controllo_3	"POPTR_0002s14730.1"	1701	"	"C/T"	"82,3/17,5"	"414/88"	503	stress_12bis	"POPTR_0002s14730.1"	1701	"	"C/T"	"79,2/20,8"	"114/30"	144
controllo_3	"POPTR_0002s03020.1"	645	"	"C/T"	"82,3/17,7"	"317/68"	385	stress_12bis	"POPTR_0002s03020.1"	645	"	"C/T"	"69,8/30,2"	"81/35"	116
controllo_3	"POPTR_0005s24650.1"	1098	"	"G/T"	"82,4/17,6"	"84/18"	102	stress_42	"POPTR_0005s24650.1"	1098	"	"G/T"	"62,5/37,5"	"20/12"	32
controllo_3	"POPTR_0005s24650.1"	1098	"	"G/T"	"82,4/17,6"	"84/18"	102	stress_45	"POPTR_0005s24650.1"	1098	"	"G/T"	"78,3/21,7"	"18/5"	23
controllo_3	"POPTR_0019s12320.1"	1611	"	"T/C"	"82,4/17,6"	"145/31"	176	stress_12bis	"POPTR_0019s12320.1"	1611	"	"T/C"	"75,0/25,0"	"45/15"	60
controllo_3	"POPTR_0015s08540.1"	943	"	"G/A"	"82,4/17,6"	"84/18"	102	stress_12bis	"POPTR_0015s08540.1"	943	"	"G/A"	"78,3/21,7"	"36/10"	46
controllo_3	"POPTR_0015s08540.1"	943	"	"G/A"	"82,4/17,6"	"84/18"	102	stress_42	"POPTR_0015s08540.1"	943	"	"G/A"	"76,2/23,8"	"16/5"	21
controllo_3	"POPTR_0015s08540.1"	943	"	"G/A"	"82,4/17,6"	"84/18"	102	stress_45	"POPTR_0015s08540.1"	943	"	"G/A"	"80,0/20,0"	"20/5"	25
controllo_3	"POPTR_0001s14310.1"	528	"	"C/T"	"82,4/17,6"	"210/45"	255	stress_42	"POPTR_0001s14310.1"	528	"	"C/T"	"61,8/38,2"	"21/13"	34
controllo_3	"POPTR_0001s14310.1"	528	"	"C/T"	"82,4/17,6"	"210/45"	255	stress_45	"POPTR_0001s14310.1"	528	"	"C/T"	"81,7/18,3"	"125/28"	153
controllo_3	"POPTR_0010s21280.1"	969	"	"A/G"	"82,4/17,6"	"196/42"	238	stress_12bis	"POPTR_0010s21280.1"	969	"	"A/G"	"66,7/33,3"	"48/24"	72
controllo_3	"POPTR_0010s21280.1"	969	"	"A/G"	"82,4/17,6"	"196/42"	238	stress_42	"POPTR_0010s21280.1"	969	"	"A/G"	"56,2/43,8"	"18/14"	32
controllo_3	"POPTR_0010s21280.1"	969	"	"A/G"	"82,4/17,6"	"196/42"	238	stress_45	"POPTR_0010s21280.1"	969	"	"A/G"	"72,1/27,9"	"44/17"	61
controllo_3	"POPTR_0002s14730.1"	1139	"	"C/T"	"82,4/17,6"	"598/128"	726	stress_12bis	"POPTR_0002s14730.1"	1139	"	"C/T"	"83,0/17,0"	"191/39"	230
controllo_3	"POPTR_0002s14730.1"	1139	"	"C/T"	"82,4/17,6"	"598/128"	726	stress_42	"POPTR_0002s14730.1"	1139	"	"C/T"	"63,4/36,6"	"26/15"	41
controllo_3	"POPTR_0002s14730.1"	1139	"	"C/T"	"82,4/17,6"	"598/128"	726	stress_45	"POPTR_0002s14730.1"	1139	"	"C/T"	"55,1/44,9"	"49/40"	89
controllo_3	"POPTR_0014s11210.1"	932	"	"T/C"	"82,5/17,5"	"485/103"	588	stress_12bis	"POPTR_0014s11210.1"	932	"	"T/C"	"67,4/32,6"	"196/95"	291
controllo_3	"POPTR_0014s11210.1"	932	"	"T/C"	"82,5/17,5"	"485/103"	588	stress_42	"POPTR_0014s11210.1"	932	"	"T/C"	"58,1/41,9"	"93/67"	160
controllo_3	"POPTR_0014s11210.1"	932	"	"T/C"	"82,5/17,5"	"485/103"	588	stress_45	"POPTR_0014s11210.1"	932	"	"T/C"	"60,1/39,9"	"98/65"	163
controllo_3	"POPTR_0015s09990.1"	657	"	"G/T"	"82,5/17,5"	"113/24"	137	stress_12bis	"POPTR_0015s09990.1"	657	"	"G/T"	"82,9/17,1"	"34/7"	41
controllo_3	"POPTR_0016s14290.1"	90	"	"A/C"	"82,5/17,5"	"85/18"	103	stress_12bis	"POPTR_0016s14290.1"	90	"	"A/C"	"50,0/50,0"	"5/5"	10
controllo_3	"POPTR_0016s14290.1"	90	"	"A/C"	"82,5/17,5"	"85/18"	103	stress_42	"POPTR_0016s14290.1"	90	"	"C/A"	"60,0/40,0"	"9/6"	15
controllo_3	"POPTR_0005s23590.1"	697	"	"G/C"	"82,6/17,4"	"19/4"	23	stress_42	"POPTR_0005s23590.1"	697	"	"C/G"	"65,8/34,2"	"125/65"	190
controllo_3	"POPTR_0005s23590.1"	697	"	"G/C"	"82,6/17,4"	"19/4"	23	stress_45	"POPTR_0005s23590.1"	697	"	"C/G"	"72,4/27,6"	"147/56"	203
controllo_3	"POPTR_0003s12870.1"	132	"	"A/G"	"82,6/17,4"	"119/25"	144	stress_42	"POPTR_0003s12870.1"	132	"	"A/G"	"72,7/27,3"	"24/9"	33
controllo_3	"POPTR_0003s12870.1"	132	"	"A/G"	"82,6/17,4"	"119/25"	144	stress_45	"POPTR_0003s12870.1"	132	"	"A/G"	"59,1/40,9"	"13/9"	22
controllo_3	"POPTR_0004s04120.1"	739	"	"T/G"	"82,6/17,4"	"119/25"	144	stress_12bis	"POPTR_0004s04120.1"	739	"	"T/G"	"76,5/23,5"	"13/4"	17
controllo_3	"POPTR_0011s05250.1"	1644	"	"C/T"	"82,6/17,4"	"76/16"	92	stress_45	"POPTR_0011s05250.1"	1644	"	"C/T"	"57,1/42,9"	"80/60"	140
controllo_3	"POPTR_0001s11350.1"	363	"	"C/T"	"82,6/17,4"	"114/24"	138	stress_12bis	"POPTR_0001s11350.1"	363	"	"C/T"	"68,8/30,3"	"75/33"	109
controllo_3	"POPTR_0001s11350.1"	363	"	"C/T"	"82,6/17,4"	"114/24"	138	stress_42	"POPTR_0001s11350.1"	363	"	"T/C"	"67,4/30,4"	"31/14"	46
controllo_3	"POPTR_0001s11350.1"	363	"	"C/T"	"82,6/17,4"	"114/24"	138	stress_45	"POPTR_0001s11350.1"	363	"	"C/T"	"50,8/49,2"	"30/29"	59
controllo_3	"POPTR_0001s15230.1"	205	"	"T/G"	"82,6/17,4"	"109/23"	132	stress_12bis	"POPTR_0001s15230.1"	205	"	"T/G"	"80,4/19,6"	"41/10"	51
controllo_3	"POPTR_0001s15230.1"	205	"	"T/G"	"82,6/17,4"	"109/23"	132	stress_42	"POPTR_0001s15230.1"	205	"	"T/G"	"83,3/16,7"	"10/2"	12
controllo_3	"POPTR_0001s15230.1"	205	"	"T/G"	"82,6/17,4"	"109/23"	132	stress_45	"POPTR_0001s15230.1"	205	"	"T/G"	"72,4/27,6"	"21/8"	29
controllo_3	"POPTR_0003s15340.1"	1218	"	"A/C"	"82,7/17,3"	"86/18"	104	stress_12bis	"POPTR_0003s15340.1"	1218	"	"A/C"	"65,0/35,0"	"13/7"	20
controllo_3	"POPTR_0013s07150.1"	1176	"	"C/G"	"82,7/17,3"	"86/18"	104	stress_12bis	"POPTR_0013s07150.1"	1176	"	"C/G"	"82,6/17,4"	"19/4"	23
controllo_3	"POPTR_0013s07150.1"	1176	"	"C/G"	"82,7/17,3"	"86/18"	104	stress_42	"POPTR_0013s07150.1"	1176	"	"C/G"	"78,6/21,4"	"11/3"	14
controllo_3	"POPTR_0013s07150.1"	1176	"	"C/G"	"82,7/17,3"	"86/18"	104	stress_45	"POPTR_0013s07150.1"	1176	"	"C/G"	"83,3/16,7"	"15/3"	18
controllo_3	"POPTR_0001s10520.1"	242	"	"A/C"	"82,8/17,2"	"111/23"	134	stress_12bis	"POPTR_0001s10520.1"	242	"	"A/C"	"83,9/16,1"	"47/9"	56
controllo_3	"POPTR_0001s10520.1"	242	"	"A/C"	"82,8/17,2"	"111/23"	134	stress_42	"POPTR_0001s10520.1"	242	"	"A/C"	"84,3/15,7"	"59/11"	70
controllo_3	"POPTR_0001s10520.1"	242	"	"A/C"	"82,8/17,2"	"111/23"	134	stress_45	"POPTR_0001s10520.1"	242	"	"A/C"	"75,5/24,5"	"37/12"	49
controllo_3	"POPTR_0008s05410.1"	1173	"	"T/C"	"82,8/17,2"	"111/23"	134	stress_12bis	"POPTR_0008s05410.1"	1173	"	"T/C"	"83,3/16,7"	"15/3"	18
controllo_3	"POPTR_0008s05410.1"	1173	"	"T/C"	"82,8/17,2"	"111/23"	134	stress_42	"POPTR_0008s05410.1"	1173	"	"T/C"	"77,3/22,7"	"17/5"	22
controllo_3	"POPTR_0016s11610.1"	1152	"	"A/G"	"82,8/17,2"	"130/27"	157	stress_12bis	"POPTR_0016s11610.1"	1152	"	"A/G"	"78,6/21,4"	"44/12"	56
controllo_3	"POPTR_0016s11610.1"	1152	"	"A/G"	"82,8/17,2"	"130/27"	157	stress_42	"POPTR_0016s11610.1"	1152	"	"A/G"	"75,0/25,0"	"12/4"	16
controllo_3	"POPTR_0002s07290.1"	645	"	"A/C"	"82,9/16,4"	"354/70"	427	stress_12bis	"POPTR_0002s07290.1"	645	"	"A/C"	"83,9/16,1"	"130/25"	155
controllo_3	"POPTR_0002s07290.1"	645	"	"A/C"	"82,9/16,4"	"354/70"	427	stress_42	"POPTR_0002s07290.1"	645	"	"A/C"	"71,1/28,9"	"81/33"	114
controllo_3	"POPTR_0002s07290.1"	645	"	"A/C"	"82,9/16,4"	"354/70"	427	stress_45	"POPTR_0002s07290.1"	645	"	"A/C"	"68,8/31,2"	"95/43"	138
controllo_3	"POPTR_0012s08780.1"	165	"	"C/T"	"82,9/17,1"	"175/36"	211	stress_12bis	"POPTR_0012s08780.1"	165	"	"C/T"	"75,5/24,5"	"40/13"	53
controllo_3	"POPTR_0012s08780.1"	165	"	"C/T"	"82,9/17,1"	"175/36"	211	stress_45	"POPTR_0012s08780.1"	165	"	"C/T"	"81,5/18,5"	"22/5"	27
controllo_3	"POPTR_0001s14310.1"	45	"	"C/T"	"82,9/17,1"	"170/35"	205	stress_12bis	"POPTR_0001s14310.1"	45	"	"C/T"	"70,0/30,0"	"14/6"	20
controllo_3	"POPTR_0001s14310.1"	45	"	"C/T"	"82,9/17,1"	"170/35"	205	stress_45	"POPTR_0001s14310.1"	45	"	"C/T"	"73,7/26,3"	"84/30"	114
controllo_3	"POPTR_0002s14730.1"	1638	"	"T/A"	"82,9/17,1"	"615/127"	742	stress_12bis	"POPTR_0002s14730.1"	1638	"	"T/A"	"80,5/19,5"	"169/41"	210
controllo_3	"POPTR_0002s14730.1"	1638	"	"T/A"	"82,9/17,1"	"615/127"	742	stress_42	"POPTR_0002s14730.1"	1638	"	"A/T"	"53,6/46,4"	"37/32"	69
controllo_3	"POPTR_0002s14730.1"	1638	"	"T/A"	"82,9/17,1"	"615/127"	742	stress_45	"POPTR_0002s14730.1"	1638	"	"A/T"	"54,7/45,3"	"58/48"	106
controllo_3	"POPTR_0005s05360.1"	143	"	"C/A"	"83,0/17,0"	"88/18"	106	stress_12bis	"POPTR_0005s05360.1"	143	"	"C/A"	"68,3/31,7"	"28/13"	41
controllo_3	"POPTR_0005s05360.1"	143	"	"C/A"	"83,0/17,0"	"88/18"	106	stress_42	"POPTR_0005s05360.1"	143	"	"C/A"	"63,6/36,4"	"7/4"	11
controllo_3	"POPTR_0005s05360.1"	144	"	"C/T"	"83,0/17,0"	"88/18"	106	stress_12bis	"POPTR_0005s05360.1"	144	"	"C/T"	"68,3/31,7"	"28/13"	41
controllo_3	"POPTR_0005s05360.1"	144	"	"C/T"	"83,0/17,0"	"88/18"	106	stress_42	"POPTR_0005s05360.1"	144	"	"C/T"	"63,6/36,4"	"7/4"	11
controllo_3	"POPTR_0001s30840.1"	363	"	"A/G"	"83,0/17,0"	"93/19"	112	stress_12bis	"POPTR_0001s30840.1"	363	"	"A/G"	"84,4/15,6"	"27/5"	32
controllo_3	"POPTR_0001s30840.1"	363	"	"A/G"	"83,0/17,0"	"93/19"	112	stress_45	"POPTR_0001s30840.1"	363	"	"A/G"	"71,4/28,6"	"10/4"	14
controllo_3	"POPTR_0010s08880.1"	394	"	"C/G"	"83,0/17,0"	"117/24"	141	stress_12bis	"POPTR_0010s08880.1"	394	"	"C/G"	"73,3/26,7"	"11/4"	15
controllo_3	"POPTR_0010s08880.1"	394	"	"C/G"	"83,0/17,0"	"117/24"	141	stress_42	"POPTR_0010s08880.1"	394	"	"C/G"	"74,1/25,9"	"20/7"	27
controllo_3	"POPTR_0010s16070.1"	101	"	"C/A"	"83,1/16,2"	"133/26"	160	stress_42	"POPTR_0010s16070.1"	101	"	"C/A"	"69,2/30,8"	"9/4"	13
controllo_3	"POPTR_0010s16070.1"	101	"	"C/A"	"83,1/16,2"	"133/26"	160	stress_45	"POPTR_0010s16070.1"	101	"	"C/A"	"75,0/25,0"	"9/3"	12
controllo_3	"POPTR_0002s07290.1"	291	"	"C/T"	"83,1/16,9"	"301/61"	362	stress_12bis	"POPTR_0002s07290.1"	291	"	"C/T"	"80,9/19,1"	"110/26"	136
controllo_3	"POPTR_0002s07290.1"	291	"	"C/T"	"83,1/16,9"	"301/61"	362	stress_42	"POPTR_0002s07290.1"	291	"	"C/T"	"83,8/16,2"	"88/17"	105
controllo_3	"POPTR_0002s07290.1"	291	"	"C/T"	"83,1/16,9"	"301/61"	362	stress_45	"POPTR_0002s07290.1"	291	"	"C/T"	"75,8/24,2"	"91/29"	120
controllo_3	"POPTR_0009s08520.1"	317	"	"G/A"	"83,2/16,8"	"252/51"	303	stress_12bis	"POPTR_0009s08520.1"	317	"	"G/A"	"84,9/15,1"	"90/16"	106
controllo_3	"POPTR_0012s00670.1"	270	"	"T/G"	"83,2/16,8"	"114/23"	137	stress_12bis	"POPTR_0012s00670.1"	270	"	"T/G"	"76,9/23,1"	"10/3"	13
controllo_3	"POPTR_0012s00670.1"	270	"	"T/G"	"83,2/16,8"	"114/23"	137	stress_42	"POPTR_0012s00670.1"	270	"	"T/G"	"62,9/37,1"	"22/13"	35
controllo_3	"POPTR_0012s00670.1"	270	"	"T/G"	"83,2/16,8"	"114/23"	137	stress_45	"POPTR_0012s00670.1"	270	"	"T/G"	"64,0/36,0"	"32/18"	50
controllo_3	"POPTR_0009s13890.1"	697	"	"G/A"	"83,3/16,2"	"170/33"	204	stress_12bis	"POPTR_0009s13890.1"	697	"	"G/A"	"72,8/27,2"	"59/22"	81
controllo_3	"POPTR_0009s13890.1"	697	"	"G/A"	"83,3/16,2"	"170/33"	204	stress_42	"POPTR_0009s13890.1"	697	"	"G/A"	"65,9/34,1"	"54/28"	82
controllo_3	"POPTR_0009s13890.1"	697	"	"G/A"	"83,3/16,2"	"170/33"	204	stress_45	"POPTR_0009s13890.1"	697	"	"G/A"	"66,7/33,3"	"84/42"	126
controllo_3	"POPTR_0006s08850.1"	36	"	"T/C"	"83,4/16,6"	"236/47"	283	stress_12bis	"POPTR_0006s08850.1"	36	"	"T/C"	"81,0/19,0"	"68/16"	84
controllo_3	"POPTR_0006s08850.1"	36	"	"T/C"	"83,4/16,6"	"236/47"	283	stress_42	"POPTR_0006s08850.1"	36	"	"T/C"	"83,3/16,7"	"30/6"	36
controllo_3	"POPTR_0006s08850.1"	36	"	"T/C"	"83,4/16,6"	"236/47"	283	stress_45	"POPTR_0006s08850.1"	36	"	"T/C"	"65,8/34,2"	"25/13"	38
controllo_3	"POPTR_0005s25290.1"	410	"	"C/T"	"83,5/16,5"	"101/20"	121	stress_12bis	"POPTR_0005s25290.1"	410	"	"C/T"	"72,7/27,3"	"16/6"	22
controllo_3	"POPTR_0003s17010.1"	207	"	"A/T"	"83,5/16,5"	"507/100"	607	stress_12bis	"POPTR_0003s17010.1"	207	"	"A/T"	"82,4/17,6"	"155/33"	188
controllo_3	"POPTR_0019s12320.1"	1393	"	"T/C"	"83,5/16,5"	"116/23"	139	stress_12bis	"POPTR_0019s12320.1"	1393	"	"T/C"	"74,5/25,5"	"38/13"	51
controllo_3	"POPTR_0015s12900.1"	595	"	"T/G"	"83,5/16,5"	"106/21"	127	stress_12bis	"POPTR_0015s12900.1"	595	"	"T/G"	"72,3/27,7"	"47/18"	65
controllo_3	"POPTR_0015s12900.1"	595	"	"T/G"	"83,5/16,5"	"106/21"	127	stress_42	"POPTR_0015s12900.1"	595	"	"T/G"	"80,8/19,2"	"42/10"	52
controllo_3	"POPTR_0015s12900.1"	595	"	"T/G"	"83,5/16,5"	"106/21"	127	stress_45	"POPTR_0015s12900.1"	595	"	"T/G"	"71,9/28,1"	"23/9"	32
controllo_3	"POPTR_0010s14080.1"	1933	"	"C/T"	"83,5/16,5"	"106/21"	127	stress_12bis	"POPTR_0010s14080.1"	1933	"	"C/T"	"69,8/30,2"	"30/13"	43
controllo_3	"POPTR_0010s14080.1"	1933	"	"C/T"	"83,5/16,5"	"106/21"	127	stress_42	"POPTR_0010s14080.1"	1933	"	"C/T"	"76,9/23,1"	"10/3"	13
controllo_3	"POPTR_0002s14730.1"	1708	"	"T/C"	"83,5/16,5"	"384/76"	460	stress_12bis	"POPTR_0002s14730.1"	1708	"	"T/C"	"82,0/18,0"	"100/22"	122
controllo_3	"POPTR_0002s14730.1"	1708	"	"T/C"	"83,5/16,5"	"384/76"	460	stress_42	"POPTR_0002s14730.1"	1708	"	"C/T"	"61,2/38,8"	"30/19"	49
controllo_3	"POPTR_0002s14730.1"	1708	"	"T/C"	"83,5/16,5"	"384/76"	460	stress_45	"POPTR_0002s14730.1"	1708	"	"C/T"	"58,7/41,3"	"27/19"	46
controllo_3	"POPTR_0011s16780.1"	549	"	"G/A"	"83,6/16,4"	"102/20"	122	stress_12bis	"POPTR_0011s16780.1"	549	"	"G/A"	"73,5/26,5"	"36/13"	49
controllo_3	"POPTR_0015s12900.1"	596	"	"A/G"	"83,6/16,4"	"107/21"	128	stress_12bis	"POPTR_0015s12900.1"	596	"	"A/G"	"72,3/27,7"	"47/18"	65
controllo_3	"POPTR_0015s12900.1"	596	"	"A/G"	"83,6/16,4"	"107/21"	128	stress_42	"POPTR_0015s12900.1"	596	"	"A/G"	"79,2/20,8"	"42/11"	53
controllo_3	"POPTR_0015s12900.1"	596	"	"A/G"	"83,6/16,4"	"107/21"	128	stress_45	"POPTR_0015s12900.1"	596	"	"A/G"	"74,2/25,8"	"23/8"	31
controllo_3	"POPTR_0010s20060.1"	1053	"	"C/A"	"83,6/16,4"	"234/46"	280	stress_12bis	"POPTR_0010s20060.1"	1053	"	"C/A"	"84,3/15,7"	"70/13"	83
controllo_3	"POPTR_0004s09910.1"	351	"	"A/C"	"83,8/16,1"	"15650/3015"	18682	stress_12bis	"POPTR_0004s09910.1"	351	"	"A/C"	"79,3/20,5"	"2813/729"	3548
controllo_3	"POPTR_0004s09910.1"	351	"	"A/C"	"83,8/16,1"	"15650/3015"	18682	stress_42	"POPTR_0004s09910.1"	351	"	"A/C"	"57,8/42,2"	"356/260"	616
controllo_3	"POPTR_0004s09910.1"	351	"	"A/C"	"83,8/16,1"	"15650/3015"	18682	stress_45	"POPTR_0004s09910.1"	351	"	"A/C"	"69,8/30,2"	"437/189"	626
controllo_3	"POPTR_0006s08850.1"	33	"	"T/C"	"83,8/16,2"	"212/41"	253	stress_12bis	"POPTR_0006s08850.1"	33	"	"T/C"	"84,9/15,1"	"62/11"	73
controllo_3	"POPTR_0006s08850.1"	33	"	"T/C"	"83,8/16,2"	"212/41"	253	stress_45	"POPTR_0006s08850.1"	33	"	"T/C"	"65,7/34,3"	"23/12"	35
controllo_3	"POPTR_0009s07210.1"	1551	"	"C/A"	"83,8/16,2"	"31/6"	37	stress_45	"POPTR_0009s07210.1"	1551	"	"C/A"	"82,1/17,9"	"92/20"	112
controllo_3	"POPTR_0012s04550.1"	435	"	"T/C"	"83,8/16,2"	"93/18"	111	stress_12bis	"POPTR_0012s04550.1"	435	"	"T/C"	"75,9/22,8"	"60/18"	79
controllo_3	"POPTR_0012s04550.1"	435	"	"T/C"	"83,8/16,2"	"93/18"	111	stress_42	"POPTR_0012s04550.1"	435	"	"T/C"	"66,7/33,3"	"72/36"	108
controllo_3	"POPTR_0012s04550.1"	435	"	"T/C"	"83,8/16,2"	"93/18"	111	stress_45	"POPTR_0012s04550.1"	435	"	"T/C"	"71,2/28,8"	"79/32"	111
controllo_3	"POPTR_0015s12390.1"	75	"	"C/A"	"83,8/16,2"	"227/44"	271	stress_45	"POPTR_0015s12390.1"	75	"	"C/A"	"75,8/24,2"	"72/23"	95
controllo_3	"POPTR_0001s42720.1"	803	"	"C/G"	"83,8/16,2"	"88/17"	105	stress_12bis	"POPTR_0001s42720.1"	803	"	"C/G"	"78,6/21,4"	"11/3"	14
controllo_3	"POPTR_0002s22600.1"	157	"	"G/A"	"83,9/15,4"	"120/22"	143	stress_12bis	"POPTR_0002s22600.1"	157	"	"G/A"	"78,3/21,7"	"36/10"	46
controllo_3	"POPTR_0002s22600.1"	157	"	"G/A"	"83,9/15,4"	"120/22"	143	stress_42	"POPTR_0002s22600.1"	157	"	"G/A"	"72,7/27,3"	"8/3"	11
controllo_3	"POPTR_0002s07290.1"	898	"	"G/A"	"83,9/15,8"	"387/73"	461	stress_12bis	"POPTR_0002s07290.1"	898	"	"G/A"	"83,0/17,0"	"137/28"	165
controllo_3	"POPTR_0002s07290.1"	898	"	"G/A"	"83,9/15,8"	"387/73"	461	stress_42	"POPTR_0002s07290.1"	898	"	"G/A"	"75,2/24,1"	"106/34"	141
controllo_3	"POPTR_0002s07290.1"	898	"	"G/A"	"83,9/15,8"	"387/73"	461	stress_45	"POPTR_0002s07290.1"	898	"	"G/A"	"80,3/19,7"	"139/34"	173
controllo_3	"POPTR_0017s14470.1"	1377	"	"T/C"	"83,9/16,1"	"26/5"	31	stress_45	"POPTR_0017s14470.1"	1377	"	"T/C"	"66,0/34,0"	"70/36"	106
controllo_3	"POPTR_0012s08780.1"	137	"	"C/T"	"84,0/16,0"	"273/52"	325	stress_42	"POPTR_0012s08780.1"	137	"	"C/T"	"80,7/19,3"	"46/11"	57
controllo_3	"POPTR_0012s08780.1"	137	"	"C/T"	"84,0/16,0"	"273/52"	325	stress_45	"POPTR_0012s08780.1"	137	"	"C/T"	"71,9/28,1"	"23/9"	32
controllo_3	"POPTR_0001s37480.1"	485	"	"G/A"	"84,0/16,0"	"263/50"	313	stress_12bis	"POPTR_0001s37480.1"	485	"	"G/A"	"81,4/18,6"	"48/11"	59
controllo_3	"POPTR_0002s07290.1"	830	"	"G/A"	"84,0/16,0"	"272/52"	324	stress_12bis	"POPTR_0002s07290.1"	830	"	"G/A"	"79,6/20,4"	"109/28"	137
controllo_3	"POPTR_0002s07290.1"	830	"	"G/A"	"84,0/16,0"	"272/52"	324	stress_42	"POPTR_0002s07290.1"	830	"	"G/A"	"79,0/20,3"	"109/28"	138
controllo_3	"POPTR_0002s07290.1"	830	"	"G/A"	"84,0/16,0"	"272/52"	324	stress_45	"POPTR_0002s07290.1"	830	"	"G/A"	"78,8/21,2"	"82/22"	104
controllo_3	"POPTR_0009s05720.1"	200	"	"A/T"	"84,1/15,8"	"1109/209"	1319	stress_42	"POPTR_0009s05720.1"	200	"	"A/T"	"84,2/15,8"	"48/9"	57
controllo_3	"POPTR_0009s05720.1"	200	"	"A/T"	"84,1/15,8"	"1109/209"	1319	stress_45	"POPTR_0009s05720.1"	200	"	"A/T"	"76,2/23,8"	"32/10"	42
controllo_3	"POPTR_0006s06180.1"	807	"	"T/C"	"84,1/15,9"	"111/21"	132	stress_12bis	"POPTR_0006s06180.1"	807	"	"T/C"	"81,4/18,6"	"35/8"	43
controllo_3	"POPTR_0006s06180.1"	807	"	"T/C"	"84,1/15,9"	"111/21"	132	stress_45	"POPTR_0006s06180.1"	807	"	"T/C"	"83,7/16,3"	"41/8"	49
controllo_3	"POPTR_0013s06710.1"	813	"	"T/G"	"84,1/15,9"	"95/18"	113	stress_12bis	"POPTR_0013s06710.1"	813	"	"T/G"	"84,6/15,4"	"22/4"	26
controllo_3	"POPTR_0013s06710.1"	813	"	"T/G"	"84,1/15,9"	"95/18"	113	stress_45	"POPTR_0013s06710.1"	813	"	"T/G"	"69,6/30,4"	"16/7"	23
controllo_3	"POPTR_0005s21570.1"	133	"	"G/C"	"84,2/15,8"	"230/43"	273	stress_12bis	"POPTR_0005s21570.1"	133	"	"G/C"	"84,8/15,2"	"89/16"	105
controllo_3	"POPTR_0005s21570.1"	133	"	"G/C"	"84,2/15,8"	"230/43"	273	stress_45	"POPTR_0005s21570.1"	133	"	"G/C"	"75,0/25,0"	"9/3"	12
controllo_3	"POPTR_0009s05720.1"	141	"	"A/C"	"84,2/15,8"	"855/160"	1015	stress_12bis	"POPTR_0009s05720.1"	141	"	"A/C"	"84,1/15,9"	"195/37"	232
controllo_3	"POPTR_0001s10520.1"	411	"	"G/A"	"84,2/15,8"	"112/21"	133	stress_12bis	"POPTR_0001s10520.1"	411	"	"G/A"	"81,2/18,8"	"56/13"	69
controllo_3	"POPTR_0001s10520.1"	411	"	"G/A"	"84,2/15,8"	"112/21"	133	stress_42	"POPTR_0001s10520.1"	411	"	"G/A"	"71,0/29,0"	"44/18"	62
controllo_3	"POPTR_0001s10520.1"	411	"	"G/A"	"84,2/15,8"	"112/21"	133	stress_45	"POPTR_0001s10520.1"	411	"	"G/A"	"67,6/32,4"	"50/24"	74
controllo_3	"POPTR_0001s41080.1"	30	"	"C/T"	"84,3/15,4"	"317/58"	376	stress_12bis	"POPTR_0001s41080.1"	30	"	"C/T"	"83,2/15,9"	"94/18"	113
controllo_3	"POPTR_0006s13240.1"	413	"	"A/G"	"84,3/15,7"	"107/20"	127	stress_12bis	"POPTR_0006s13240.1"	413	"	"A/G"	"80,6/19,4"	"58/14"	72
controllo_3	"POPTR_0013s03700.1"	357	"	"T/C"	"84,3/15,7"	"118/22"	140	stress_12bis	"POPTR_0013s03700.1"	357	"	"T/C"	"85,0/15,0"	"34/6"	40
controllo_3	"POPTR_0013s03700.1"	357	"	"T/C"	"84,3/15,7"	"118/22"	140	stress_42	"POPTR_0013s03700.1"	357	"	"T/C"	"58,3/41,7"	"7/5"	12
controllo_3	"POPTR_0013s03700.1"	357	"	"T/C"	"84,3/15,7"	"118/22"	140	stress_45	"POPTR_0013s03700.1"	357	"	"T/C"	"67,9/32,1"	"19/9"	28
controllo_3	"POPTR_0009s13890.1"	69	"	"G/A"	"84,3/15,7"	"150/28"	178	stress_12bis	"POPTR_0009s13890.1"	69	"	"G/A"	"65,1/34,9"	"41/22"	63
controllo_3	"POPTR_0009s13890.1"	69	"	"G/A"	"84,3/15,7"	"150/28"	178	stress_42	"POPTR_0009s13890.1"	69	"	"G/A"	"69,0/31,0"	"40/18"	58
controllo_3	"POPTR_0009s13890.1"	69	"	"G/A"	"84,3/15,7"	"150/28"	178	stress_45	"POPTR_0009s13890.1"	69	"	"G/A"	"68,8/31,2"	"55/25"	80
controllo_3	"POPTR_0001s47020.1"	522	"	"C/T"	"84,3/15,7"	"113/21"	134	stress_12bis	"POPTR_0001s47020.1"	522	"	"C/T"	"84,8/15,2"	"28/5"	33
controllo_3	"POPTR_0001s47020.1"	522	"	"C/T"	"84,3/15,7"	"113/21"	134	stress_42	"POPTR_0001s47020.1"	522	"	"C/T"	"82,6/17,4"	"19/4"	23
controllo_3	"POPTR_0001s47020.1"	522	"	"C/T"	"84,3/15,7"	"113/21"	134	stress_45	"POPTR_0001s47020.1"	522	"	"C/T"	"84,8/15,2"	"39/7"	46
controllo_3	"POPTR_0016s08580.1"	741	"	"C/G"	"84,3/15,7"	"107/20"	127	stress_42	"POPTR_0016s08580.1"	741	"	"C/G"	"66,7/33,3"	"14/7"	21
controllo_3	"POPTR_0019s12320.1"	1389	"	"A/T"	"84,4/15,6"	"103/19"	122	stress_12bis	"POPTR_0019s12320.1"	1389	"	"A/T"	"77,3/22,7"	"34/10"	44
controllo_3	"POPTR_0007s04360.1"	885	"	"T/C"	"84,4/15,6"	"92/17"	109	stress_12bis	"POPTR_0007s04360.1"	885	"	"T/C"	"65,2/34,8"	"15/8"	23
controllo_3	"POPTR_0002s25260.1"	481	"	"A/G"	"84,4/15,6"	"119/22"	141	stress_12bis	"POPTR_0002s25260.1"	481	"	"A/G"	"69,3/30,7"	"61/27"	88
controllo_3	"POPTR_0002s25260.1"	481	"	"A/G"	"84,4/15,6"	"119/22"	141	stress_42	"POPTR_0002s25260.1"	481	"	"A/G"	"64,6/35,4"	"53/29"	82
controllo_3	"POPTR_0002s25260.1"	481	"	"A/G"	"84,4/15,6"	"119/22"	141	stress_45	"POPTR_0002s25260.1"	481	"	"A/G"	"51,8/48,2"	"57/53"	110
controllo_3	"POPTR_0009s13890.1"	346	"	"A/C"	"84,5/15,0"	"191/34"	226	stress_12bis	"POPTR_0009s13890.1"	346	"	"A/C"	"63,0/37,0"	"58/34"	92
controllo_3	"POPTR_0009s13890.1"	346	"	"A/C"	"84,5/15,0"	"191/34"	226	stress_42	"POPTR_0009s13890.1"	346	"	"A/C"	"66,7/33,3"	"72/36"	108
controllo_3	"POPTR_0009s13890.1"	346	"	"A/C"	"84,5/15,0"	"191/34"	226	stress_45	"POPTR_0009s13890.1"	346	"	"A/C"	"69,3/29,9"	"95/41"	137
controllo_3	"POPTR_0012s08780.1"	128	"	"G/A"	"84,5/15,5"	"185/34"	219	stress_45	"POPTR_0012s08780.1"	128	"	"G/A"	"68,4/31,6"	"13/6"	19
controllo_3	"POPTR_0005s23590.1"	796	"	"T/A"	"84,6/15,4"	"22/4"	26	stress_42	"POPTR_0005s23590.1"	796	"	"A/T"	"56,5/43,5"	"70/54"	124
controllo_3	"POPTR_0005s23590.1"	796	"	"T/A"	"84,6/15,4"	"22/4"	26	stress_45	"POPTR_0005s23590.1"	796	"	"A/T"	"60,9/39,1"	"98/63"	161
controllo_3	"POPTR_0005s26450.1"	421	"	"A/T"	"84,6/15,4"	"99/18"	117	stress_42	"POPTR_0005s26450.1"	421	"	"A/T"	"78,3/21,7"	"54/15"	69
controllo_3	"POPTR_0003s08140.1"	479	"	"T/A"	"84,6/15,4"	"11/2"	13	stress_42	"POPTR_0003s08140.1"	479	"	"T/A"	"64,2/35,5"	"208/115"	324
controllo_3	"POPTR_0003s08140.1"	479	"	"T/A"	"84,6/15,4"	"11/2"	13	stress_45	"POPTR_0003s08140.1"	479	"	"T/A"	"66,9/33,1"	"247/122"	369
controllo_3	"POPTR_0001s37480.1"	480	"	"A/G"	"84,7/15,3"	"277/50"	327	stress_12bis	"POPTR_0001s37480.1"	480	"	"A/G"	"81,7/18,3"	"58/13"	71
controllo_3	"POPTR_0001s37480.1"	480	"	"A/G"	"84,7/15,3"	"277/50"	327	stress_45	"POPTR_0001s37480.1"	480	"	"A/G"	"83,2/16,8"	"104/21"	125
controllo_3	"POPTR_0010s21350.1"	762	"	"A/G"	"84,7/15,3"	"144/26"	170	stress_12bis	"POPTR_0010s21350.1"	762	"	"A/G"	"76,9/23,1"	"30/9"	39
controllo_3	"POPTR_0010s21350.1"	762	"	"A/G"	"84,7/15,3"	"144/26"	170	stress_42	"POPTR_0010s21350.1"	762	"	"A/G"	"53,3/46,7"	"8/7"	15
controllo_3	"POPTR_0001s37480.1"	503	"	"C/T"	"84,8/15,2"	"217/39"	256	stress_12bis	"POPTR_0001s37480.1"	503	"	"C/T"	"78,3/21,7"	"36/10"	46
controllo_3	"POPTR_0001s37480.1"	997	"	"G/A"	"84,8/15,2"	"168/30"	198	stress_12bis	"POPTR_0001s37480.1"	997	"	"G/A"	"75,9/24,1"	"22/7"	29
controllo_3	"POPTR_0001s37480.1"	997	"	"G/A"	"84,8/15,2"	"168/30"	198	stress_42	"POPTR_0001s37480.1"	997	"	"G/A"	"75,0/25,0"	"30/10"	40
controllo_3	"POPTR_0002s07290.1"	408	"	"C/T"	"84,9/15,1"	"253/45"	298	stress_42	"POPTR_0002s07290.1"	408	"	"C/T"	"68,3/31,7"	"43/20"	63
controllo_3	"POPTR_0002s25260.1"	465	"	"T/C"	"84,9/15,1"	"237/42"	279	stress_12bis	"POPTR_0002s25260.1"	465	"	"T/C"	"70,1/29,9"	"101/43"	144
controllo_3	"POPTR_0002s25260.1"	465	"	"T/C"	"84,9/15,1"	"237/42"	279	stress_42	"POPTR_0002s25260.1"	465	"	"T/C"	"65,5/34,5"	"108/57"	165
controllo_3	"POPTR_0002s25260.1"	465	"	"T/C"	"84,9/15,1"	"237/42"	279	stress_45	"POPTR_0002s25260.1"	465	"	"T/C"	"55,6/44,4"	"109/87"	196
controllo_3	"POPTR_0006s23770.1"	87	"	"A/T"	"85,0/15,0"	"130/23"	153	stress_42	"POPTR_0006s23770.1"	87	"	"A/T"	"81,8/18,2"	"9/2"	11
controllo_3	"POPTR_0006s23770.1"	87	"	"A/T"	"85,0/15,0"	"130/23"	153	stress_45	"POPTR_0006s23770.1"	87	"	"A/T"	"66,7/33,3"	"12/6"	18
stress_12bis	"POPTR_0001s14280.1"	216	"	"C/T"	"50,0/50,0"	"10/10"	20	stress_45	"POPTR_0001s14280.1"	216	"	"T/C"	"55,8/44,2"	"63/50"	113
stress_12bis	"POPTR_0002s09480.1"	417	"	"C/G"	"50,0/50,0"	"10/10"	20	stress_45	"POPTR_0002s09480.1"	417	"	"C/G"	"57,7/42,3"	"79/58"	137
stress_12bis	"POPTR_0010s00900.1"	543	"	"T/A"	"83,3/16,7"	"10/2"	12	stress_42	"POPTR_0010s00900.1"	543	"	"T/A"	"77,3/22,7"	"85/25"	110
stress_12bis	"POPTR_0017s14470.1"	759	"	"T/A"	"76,9/23,1"	"10/3"	13	stress_45	"POPTR_0017s14470.1"	759	"	"T/A"	"59,0/36,9"	"72/45"	122
stress_12bis	"POPTR_0019s08450.1"	1032	"	"C/T"	"76,9/23,1"	"10/3"	13	stress_45	"POPTR_0019s08450.1"	1032	"	"C/T"	"78,1/21,9"	"89/25"	114
stress_12bis	"POPTR_0009s07210.1"	1372	"	"C/G"	"76,9/23,1"	"10/3"	13	stress_45	"POPTR_0009s07210.1"	1372	"	"C/G"	"83,4/16,0"	"146/28"	175
stress_12bis	"POPTR_0010s00900.1"	687	"	"T/C"	"76,9/23,1"	"10/3"	13	stress_42	"POPTR_0010s00900.1"	687	"	"C/T"	"52,2/47,8"	"107/98"	205
stress_12bis	"POPTR_0010s00900.1"	687	"	"T/C"	"76,9/23,1"	"10/3"	13	stress_45	"POPTR_0010s00900.1"	687	"	"T/C"	"53,8/45,5"	"84/71"	156
stress_12bis	"POPTR_0014s15960.1"	228	"	"C/T"	"71,4/28,6"	"10/4"	14	stress_45	"POPTR_0014s15960.1"	228	"	"T/C"	"59,0/40,2"	"72/49"	122
stress_12bis	"POPTR_0013s10350.1"	396	"	"A/G"	"66,7/33,3"	"10/5"	15	stress_42	"POPTR_0013s10350.1"	396	"	"G/A"	"73,9/26,1"	"274/97"	371
stress_12bis	"POPTR_0013s10350.1"	396	"	"A/G"	"66,7/33,3"	"10/5"	15	stress_45	"POPTR_0013s10350.1"	396	"	"G/A"	"84,3/15,7"	"350/65"	415
stress_12bis	"POPTR_0011s12400.1"	763	"	"G/T"	"66,7/33,3"	"10/5"	15	stress_42	"POPTR_0011s12400.1"	763	"	"G/T"	"63,3/36,7"	"76/44"	120
stress_12bis	"POPTR_0011s12400.1"	763	"	"G/T"	"66,7/33,3"	"10/5"	15	stress_45	"POPTR_0011s12400.1"	763	"	"T/G"	"50,6/49,4"	"78/76"	154
stress_12bis	"POPTR_0001s40250.1"	1830	"	"A/G"	"66,7/33,3"	"10/5"	15	stress_45	"POPTR_0001s40250.1"	1830	"	"A/G"	"80,2/19,8"	"97/24"	121
stress_12bis	"POPTR_0001s31220.1"	600	"	"G/A"	"66,7/33,3"	"10/5"	15	stress_42	"POPTR_0001s31220.1"	600	"	"G/A"	"61,9/38,1"	"70/43"	113
stress_12bis	"POPTR_0002s19060.1"	1062	"	"T/C"	"62,5/37,5"	"10/6"	16	stress_45	"POPTR_0002s19060.1"	1062	"	"T/C"	"51,4/48,6"	"57/54"	111
stress_12bis	"POPTR_0009s05840.1"	501	"	"G/C"	"58,8/41,2"	"10/7"	17	stress_45	"POPTR_0009s05840.1"	501	"	"G/C"	"54,2/45,8"	"64/54"	118
stress_12bis	"POPTR_0007s15300.1"	1164	"	"G/T"	"58,8/41,2"	"10/7"	17	stress_42	"POPTR_0007s15300.1"	1164	"	"G/T"	"64,3/35,7"	"74/41"	115
stress_12bis	"POPTR_0002s08150.1"	462	"	"C/T"	"58,8/41,2"	"10/7"	17	stress_45	"POPTR_0002s08150.1"	462	"	"C/T"	"56,7/43,3"	"68/52"	120
stress_12bis	"POPTR_0001s10700.1"	918	"	"T/A"	"55,6/44,4"	"10/8"	18	stress_42	"POPTR_0001s10700.1"	918	"	"A/T"	"57,3/42,7"	"63/47"	110
stress_12bis	"POPTR_0001s10700.1"	936	"	"G/A"	"55,6/44,4"	"10/8"	18	stress_42	"POPTR_0001s10700.1"	936	"	"A/G"	"61,5/38,5"	"67/42"	109
stress_12bis	"POPTR_0018s09730.1"	594	"	"C/T"	"52,6/47,4"	"10/9"	19	stress_42	"POPTR_0018s09730.1"	594	"	"T/C"	"56,7/43,3"	"76/58"	134
stress_12bis	"POPTR_0018s09730.1"	594	"	"C/T"	"52,6/47,4"	"10/9"	19	stress_45	"POPTR_0018s09730.1"	594	"	"T/C"	"58,2/41,8"	"138/99"	237
stress_12bis	"POPTR_0001s10700.1"	684	"	"A/T"	"52,6/47,4"	"10/9"	19	stress_42	"POPTR_0001s10700.1"	684	"	"T/A"	"53,4/46,6"	"62/54"	116
stress_12bis	"POPTR_0001s40250.1"	2034	"	"T/C"	"52,6/47,4"	"10/9"	19	stress_45	"POPTR_0001s40250.1"	2034	"	"T/C"	"70,5/29,5"	"79/33"	112
stress_12bis	"POPTR_0002s14730.1"	1708	"	"T/C"	"82,0/18,0"	"100/22"	122	stress_42	"POPTR_0002s14730.1"	1708	"	"C/T"	"61,2/38,8"	"30/19"	49
stress_12bis	"POPTR_0002s14730.1"	1708	"	"T/C"	"82,0/18,0"	"100/22"	122	stress_45	"POPTR_0002s14730.1"	1708	"	"C/T"	"58,7/41,3"	"27/19"	46
stress_12bis	"POPTR_0017s05700.1"	276	"	"G/A"	"80,6/18,5"	"100/23"	124	stress_42	"POPTR_0017s05700.1"	276	"	"G/A"	"66,3/33,7"	"59/30"	89
stress_12bis	"POPTR_0017s05700.1"	276	"	"G/A"	"80,6/18,5"	"100/23"	124	stress_45	"POPTR_0017s05700.1"	276	"	"G/A"	"73,2/26,8"	"82/30"	112
stress_12bis	"POPTR_0008s20590.1"	333	"	"G/A"	"70,4/29,6"	"100/42"	142	stress_42	"POPTR_0008s20590.1"	333	"	"G/A"	"60,7/39,3"	"74/48"	122
stress_12bis	"POPTR_0008s20590.1"	333	"	"G/A"	"70,4/29,6"	"100/42"	142	stress_45	"POPTR_0008s20590.1"	333	"	"G/A"	"61,0/39,0"	"83/53"	136
stress_12bis	"POPTR_0008s20770.1"	303	"	"A/G"	"67,6/32,4"	"100/48"	148	stress_42	"POPTR_0008s20770.1"	303	"	"A/G"	"50,5/48,5"	"52/50"	103
stress_12bis	"POPTR_0008s20770.1"	303	"	"A/G"	"67,6/32,4"	"100/48"	148	stress_45	"POPTR_0008s20770.1"	303	"	"A/G"	"56,4/43,6"	"75/58"	133
stress_12bis	"POPTR_0010s21270.1"	1776	"	"C/T"	"62,1/37,9"	"100/61"	161	stress_42	"POPTR_0010s21270.1"	1776	"	"C/T"	"61,7/38,3"	"58/36"	94
stress_12bis	"POPTR_0010s21270.1"	1776	"	"C/T"	"62,1/37,9"	"100/61"	161	stress_45	"POPTR_0010s21270.1"	1776	"	"C/T"	"58,4/41,1"	"118/83"	202
stress_12bis	"POPTR_0009s05240.1"	150	"	"C/T"	"58,5/41,5"	"100/71"	171	stress_42	"POPTR_0009s05240.1"	150	"	"C/T"	"69,0/31,0"	"29/13"	42
stress_12bis	"POPTR_0009s05240.1"	150	"	"C/T"	"58,5/41,5"	"100/71"	171	stress_45	"POPTR_0009s05240.1"	150	"	"C/T"	"66,7/32,3"	"62/30"	93
stress_12bis	"POPTR_0004s01940.1"	426	"	"A/C"	"50,0/50,0"	"101/101"	202	stress_42	"POPTR_0004s01940.1"	426	"	"C/A"	"76,6/23,4"	"59/18"	77
stress_12bis	"POPTR_0004s01940.1"	426	"	"A/C"	"50,0/50,0"	"101/101"	202	stress_45	"POPTR_0004s01940.1"	426	"	"C/A"	"66,2/33,8"	"45/23"	68
stress_12bis	"POPTR_0002s25260.1"	465	"	"T/C"	"70,1/29,9"	"101/43"	144	stress_42	"POPTR_0002s25260.1"	465	"	"T/C"	"65,5/34,5"	"108/57"	165
stress_12bis	"POPTR_0002s25260.1"	465	"	"T/C"	"70,1/29,9"	"101/43"	144	stress_45	"POPTR_0002s25260.1"	465	"	"T/C"	"55,6/44,4"	"109/87"	196
stress_12bis	"POPTR_0014s00810.1"	83	"	"A/G"	"66,9/33,1"	"101/50"	151	stress_42	"POPTR_0014s00810.1"	83	"	"G/A"	"57,3/42,7"	"63/47"	110
stress_12bis	"POPTR_0014s00810.1"	83	"	"A/G"	"66,9/33,1"	"101/50"	151	stress_45	"POPTR_0014s00810.1"	83	"	"G/A"	"57,3/42,7"	"47/35"	82
stress_12bis	"POPTR_0016s03230.1"	663	"	"A/G"	"66,9/33,1"	"101/50"	151	stress_42	"POPTR_0016s03230.1"	663	"	"A/G"	"69,2/30,8"	"36/16"	52
stress_12bis	"POPTR_0016s03230.1"	663	"	"A/G"	"66,9/33,1"	"101/50"	151	stress_45	"POPTR_0016s03230.1"	663	"	"A/G"	"61,2/38,8"	"30/19"	49
stress_12bis	"POPTR_0013s00760.1"	281	"	"A/C"	"62,0/38,0"	"101/62"	163	stress_42	"POPTR_0013s00760.1"	281	"	"A/C"	"60,0/40,0"	"21/14"	35
stress_12bis	"POPTR_0013s00760.1"	281	"	"A/C"	"62,0/38,0"	"101/62"	163	stress_45	"POPTR_0013s00760.1"	281	"	"C/A"	"54,7/45,3"	"29/24"	53
stress_12bis	"POPTR_0001s36560.1"	279	"	"C/G"	"59,1/40,9"	"101/70"	171	stress_42	"POPTR_0001s36560.1"	279	"	"G/C"	"52,6/47,4"	"10/9"	19
stress_12bis	"POPTR_0001s36560.1"	279	"	"C/G"	"59,1/40,9"	"101/70"	171	stress_45	"POPTR_0001s36560.1"	279	"	"G/C"	"53,7/46,3"	"29/25"	54
stress_12bis	"POPTR_0010s26200.1"	159	"	"T/C"	"56,7/43,3"	"101/77"	178	stress_42	"POPTR_0010s26200.1"	159	"	"T/C"	"64,5/35,5"	"40/22"	62
stress_12bis	"POPTR_0010s26200.1"	159	"	"T/C"	"56,7/43,3"	"101/77"	178	stress_45	"POPTR_0010s26200.1"	159	"	"T/C"	"60,4/39,6"	"29/19"	48
stress_12bis	"POPTR_0005s22830.1"	153	"	"C/T"	"55,2/44,8"	"101/82"	183	stress_42	"POPTR_0005s22830.1"	153	"	"C/T"	"62,2/37,8"	"61/37"	98
stress_12bis	"POPTR_0005s22830.1"	153	"	"C/T"	"55,2/44,8"	"101/82"	183	stress_45	"POPTR_0005s22830.1"	153	"	"T/C"	"51,5/48,5"	"51/48"	99
stress_12bis	"POPTR_0008s05480.1"	1213	"	"T/C"	"52,6/47,4"	"101/91"	192	stress_42	"POPTR_0008s05480.1"	1213	"	"C/T"	"50,0/50,0"	"80/80"	160
stress_12bis	"POPTR_0008s05480.1"	1213	"	"T/C"	"52,6/47,4"	"101/91"	192	stress_45	"POPTR_0008s05480.1"	1213	"	"T/C"	"51,4/48,6"	"170/161"	331
stress_12bis	"POPTR_0002s14730.1"	1893	"	"A/T"	"50,5/49,0"	"101/98"	200	stress_42	"POPTR_0002s14730.1"	1893	"	"T/A"	"62,1/37,9"	"36/22"	58
stress_12bis	"POPTR_0002s14730.1"	1893	"	"A/T"	"50,5/49,0"	"101/98"	200	stress_45	"POPTR_0002s14730.1"	1893	"	"T/A"	"53,8/44,6"	"35/29"	65
stress_12bis	"POPTR_0008s15800.1"	116	"	"G/A"	"77,0/23,0"	"1017/304"	1321	stress_42	"POPTR_0008s15800.1"	116	"	"G/A"	"78,6/21,4"	"1117/304"	1421
stress_12bis	"POPTR_0008s15800.1"	116	"	"G/A"	"77,0/23,0"	"1017/304"	1321	stress_45	"POPTR_0008s15800.1"	116	"	"G/A"	"77,8/22,2"	"1342/384"	1726
stress_12bis	"POPTR_0010s21280.1"	702	"	"T/A"	"77,3/22,7"	"102/30"	132	stress_42	"POPTR_0010s21280.1"	702	"	"T/A"	"78,6/21,4"	"44/12"	56
stress_12bis	"POPTR_0010s21280.1"	702	"	"T/A"	"77,3/22,7"	"102/30"	132	stress_45	"POPTR_0010s21280.1"	702	"	"T/A"	"79,3/20,7"	"96/25"	121
stress_12bis	"POPTR_0011s02770.1"	207	"	"C/T"	"75,0/25,0"	"102/34"	136	stress_42	"POPTR_0011s02770.1"	207	"	"C/T"	"53,3/46,7"	"16/14"	30
stress_12bis	"POPTR_0011s02770.1"	207	"	"C/T"	"75,0/25,0"	"102/34"	136	stress_45	"POPTR_0011s02770.1"	207	"	"C/T"	"63,9/36,1"	"39/22"	61
stress_12bis	"POPTR_0002s14730.1"	564	"	"C/T"	"51,3/48,7"	"102/97"	199	stress_42	"POPTR_0002s14730.1"	564	"	"T/C"	"66,7/33,3"	"26/13"	39
stress_12bis	"POPTR_0002s14730.1"	564	"	"C/T"	"51,3/48,7"	"102/97"	199	stress_45	"POPTR_0002s14730.1"	564	"	"T/C"	"68,3/31,7"	"41/19"	60
stress_12bis	"POPTR_0001s11600.1"	315	"	"T/C"	"51,0/49,0"	"102/98"	200	stress_42	"POPTR_0001s11600.1"	315	"	"C/T"	"50,9/49,1"	"27/26"	53
stress_12bis	"POPTR_0001s11600.1"	315	"	"T/C"	"51,0/49,0"	"102/98"	200	stress_45	"POPTR_0001s11600.1"	315	"	"T/C"	"59,4/40,6"	"41/28"	69
stress_12bis	"POPTR_0018s01830.1"	358	"	"T/G"	"73,6/26,4"	"103/37"	140	stress_42	"POPTR_0018s01830.1"	358	"	"T/G"	"71,8/28,2"	"28/11"	39
stress_12bis	"POPTR_0018s01830.1"	358	"	"T/G"	"73,6/26,4"	"103/37"	140	stress_45	"POPTR_0018s01830.1"	358	"	"T/G"	"52,2/47,8"	"35/32"	67
stress_12bis	"POPTR_0010s20060.1"	280	"	"C/A"	"72,5/26,8"	"103/38"	142	stress_42	"POPTR_0010s20060.1"	280	"	"C/A"	"82,4/17,6"	"28/6"	34
stress_12bis	"POPTR_0010s20060.1"	280	"	"C/A"	"72,5/26,8"	"103/38"	142	stress_45	"POPTR_0010s20060.1"	280	"	"C/A"	"84,2/15,8"	"32/6"	38
stress_12bis	"POPTR_0014s13560.1"	1659	"	"T/C"	"69,6/30,4"	"103/45"	148	stress_42	"POPTR_0014s13560.1"	1659	"	"T/C"	"71,8/27,1"	"61/23"	85
stress_12bis	"POPTR_0014s13560.1"	1659	"	"T/C"	"69,6/30,4"	"103/45"	148	stress_45	"POPTR_0014s13560.1"	1659	"	"T/C"	"74,6/24,6"	"94/31"	126
stress_12bis	"POPTR_0010s16860.1"	408	"	"A/G"	"67,8/32,2"	"103/49"	152	stress_42	"POPTR_0010s16860.1"	408	"	"A/G"	"57,1/42,9"	"12/9"	21
stress_12bis	"POPTR_0010s16860.1"	408	"	"A/G"	"67,8/32,2"	"103/49"	152	stress_45	"POPTR_0010s16860.1"	408	"	"A/G"	"78,6/21,4"	"11/3"	14
stress_12bis	"POPTR_0019s05950.1"	363	"	"C/A"	"65,6/33,8"	"103/53"	157	stress_42	"POPTR_0019s05950.1"	363	"	"C/A"	"65,2/34,8"	"15/8"	23
stress_12bis	"POPTR_0019s05950.1"	363	"	"C/A"	"65,6/33,8"	"103/53"	157	stress_45	"POPTR_0019s05950.1"	363	"	"C/A"	"59,1/40,9"	"13/9"	22
stress_12bis	"POPTR_0010s21270.1"	1785	"	"C/A"	"66,0/34,0"	"103/53"	156	stress_42	"POPTR_0010s21270.1"	1785	"	"C/A"	"62,8/37,2"	"54/32"	86
stress_12bis	"POPTR_0010s21270.1"	1785	"	"C/A"	"66,0/34,0"	"103/53"	156	stress_45	"POPTR_0010s21270.1"	1785	"	"C/A"	"60,2/39,8"	"115/76"	191
stress_12bis	"POPTR_0005s22830.1"	270	"	"G/A"	"59,9/40,1"	"103/69"	172	stress_42	"POPTR_0005s22830.1"	270	"	"G/A"	"58,6/41,4"	"65/46"	111
stress_12bis	"POPTR_0005s22830.1"	270	"	"G/A"	"59,9/40,1"	"103/69"	172	stress_45	"POPTR_0005s22830.1"	270	"	"G/A"	"56,4/43,6"	"53/41"	94
stress_12bis	"POPTR_0001s36560.1"	511	"	"G/A"	"59,9/40,1"	"103/69"	172	stress_42	"POPTR_0001s36560.1"	511	"	"G/A"	"55,0/45,0"	"11/9"	20
stress_12bis	"POPTR_0001s36560.1"	511	"	"G/A"	"59,9/40,1"	"103/69"	172	stress_45	"POPTR_0001s36560.1"	511	"	"G/A"	"56,9/43,1"	"33/25"	58
stress_12bis	"POPTR_0001s21140.1"	558	"	"T/G"	"59,5/40,5"	"103/70"	173	stress_42	"POPTR_0001s21140.1"	558	"	"T/G"	"73,5/26,5"	"36/13"	49
stress_12bis	"POPTR_0001s21140.1"	558	"	"T/G"	"59,5/40,5"	"103/70"	173	stress_45	"POPTR_0001s21140.1"	558	"	"T/G"	"60,0/40,0"	"27/18"	45
stress_12bis	"POPTR_0001s21140.1"	318	"	"T/C"	"58,2/41,8"	"103/74"	177	stress_42	"POPTR_0001s21140.1"	318	"	"C/T"	"54,5/45,5"	"18/15"	33
stress_12bis	"POPTR_0001s21140.1"	318	"	"T/C"	"58,2/41,8"	"103/74"	177	stress_45	"POPTR_0001s21140.1"	318	"	"C/T"	"50,0/50,0"	"15/15"	30
stress_12bis	"POPTR_0014s13560.1"	1959	"	"C/G"	"55,4/44,6"	"103/83"	186	stress_42	"POPTR_0014s13560.1"	1959	"	"C/G"	"65,9/34,1"	"81/42"	123
stress_12bis	"POPTR_0014s13560.1"	1959	"	"C/G"	"55,4/44,6"	"103/83"	186	stress_45	"POPTR_0014s13560.1"	1959	"	"C/G"	"69,8/30,2"	"97/42"	139
stress_12bis	"POPTR_0012s07060.1"	1272	"	"A/G"	"54,2/45,8"	"103/87"	190	stress_42	"POPTR_0012s07060.1"	1272	"	"A/G"	"56,7/43,3"	"55/42"	97
stress_12bis	"POPTR_0012s07060.1"	1272	"	"A/G"	"54,2/45,8"	"103/87"	190	stress_45	"POPTR_0012s07060.1"	1272	"	"A/G"	"59,5/40,5"	"72/49"	121
stress_12bis	"POPTR_0009s05240.1"	945	"	"A/G"	"52,0/48,0"	"103/95"	198	stress_42	"POPTR_0009s05240.1"	945	"	"A/G"	"72,8/27,2"	"59/22"	81
stress_12bis	"POPTR_0009s05240.1"	945	"	"A/G"	"52,0/48,0"	"103/95"	198	stress_45	"POPTR_0009s05240.1"	945	"	"A/G"	"58,8/41,2"	"50/35"	85
stress_12bis	"POPTR_0001s11600.1"	48	"	"C/T"	"51,0/49,0"	"104/100"	204	stress_42	"POPTR_0001s11600.1"	48	"	"C/T"	"51,2/48,8"	"22/21"	43
stress_12bis	"POPTR_0001s11600.1"	48	"	"C/T"	"51,0/49,0"	"104/100"	204	stress_45	"POPTR_0001s11600.1"	48	"	"C/T"	"62,5/37,5"	"30/18"	48
stress_12bis	"POPTR_0014s13560.1"	1242	"	"C/A"	"79,4/20,6"	"104/27"	131	stress_45	"POPTR_0014s13560.1"	1242	"	"C/A"	"75,0/25,0"	"78/26"	104
stress_12bis	"POPTR_0001s35230.1"	345	"	"A/G"	"73,8/26,2"	"104/37"	141	stress_42	"POPTR_0001s35230.1"	345	"	"A/G"	"50,7/49,3"	"37/36"	73
stress_12bis	"POPTR_0001s35230.1"	345	"	"A/G"	"73,8/26,2"	"104/37"	141	stress_45	"POPTR_0001s35230.1"	345	"	"A/G"	"69,7/30,3"	"69/30"	99
stress_12bis	"POPTR_0002s22560.1"	256	"	"T/A"	"71,2/28,8"	"104/42"	146	stress_42	"POPTR_0002s22560.1"	256	"	"T/A"	"69,0/31,0"	"20/9"	29
stress_12bis	"POPTR_0002s22560.1"	256	"	"T/A"	"71,2/28,8"	"104/42"	146	stress_45	"POPTR_0002s22560.1"	256	"	"T/A"	"75,8/24,2"	"25/8"	33
stress_12bis	"POPTR_0002s22220.1"	378	"	"C/T"	"61,9/38,1"	"104/64"	168	stress_42	"POPTR_0002s22220.1"	378	"	"C/T"	"53,0/47,0"	"44/39"	83
stress_12bis	"POPTR_0002s22220.1"	378	"	"C/T"	"61,9/38,1"	"104/64"	168	stress_45	"POPTR_0002s22220.1"	378	"	"C/T"	"60,6/39,4"	"106/69"	175
stress_12bis	"POPTR_0014s13660.1"	208	"	"C/A"	"57,5/42,5"	"104/77"	181	stress_42	"POPTR_0014s13660.1"	208	"	"C/A"	"51,0/49,0"	"26/25"	51
stress_12bis	"POPTR_0014s13660.1"	208	"	"C/A"	"57,5/42,5"	"104/77"	181	stress_45	"POPTR_0014s13660.1"	208	"	"A/C"	"51,5/48,5"	"34/32"	66
stress_12bis	"POPTR_0002s01320.1"	342	"	"A/T"	"57,1/42,3"	"104/77"	182	stress_42	"POPTR_0002s01320.1"	342	"	"T/A"	"54,4/45,6"	"31/26"	57
stress_12bis	"POPTR_0002s01320.1"	342	"	"A/T"	"57,1/42,3"	"104/77"	182	stress_45	"POPTR_0002s01320.1"	342	"	"A/T"	"63,0/37,0"	"58/34"	92
stress_12bis	"POPTR_0002s14730.1"	969	"	"C/A"	"53,3/46,7"	"104/91"	195	stress_42	"POPTR_0002s14730.1"	969	"	"C/A"	"74,5/25,5"	"35/12"	47
stress_12bis	"POPTR_0002s14730.1"	969	"	"C/A"	"53,3/46,7"	"104/91"	195	stress_45	"POPTR_0002s14730.1"	969	"	"C/A"	"74,6/25,4"	"47/16"	63
stress_12bis	"POPTR_0012s07060.1"	1053	"	"T/C"	"53,1/46,9"	"104/92"	196	stress_42	"POPTR_0012s07060.1"	1053	"	"C/T"	"54,8/44,1"	"51/41"	93
stress_12bis	"POPTR_0012s07060.1"	1053	"	"T/C"	"53,1/46,9"	"104/92"	196	stress_45	"POPTR_0012s07060.1"	1053	"	"C/T"	"56,0/44,0"	"79/62"	141
stress_12bis	"POPTR_0003s08760.1"	250	"	"T/C"	"50,5/49,5"	"105/103"	208	stress_42	"POPTR_0003s08760.1"	250	"	"T/C"	"51,2/48,8"	"22/21"	43
stress_12bis	"POPTR_0003s08760.1"	250	"	"T/C"	"50,5/49,5"	"105/103"	208	stress_45	"POPTR_0003s08760.1"	250	"	"C/T"	"67,6/32,4"	"25/12"	37
stress_12bis	"POPTR_0008s20770.1"	436	"	"G/A"	"66,0/34,0"	"105/54"	159	stress_42	"POPTR_0008s20770.1"	436	"	"A/G"	"62,1/37,9"	"64/39"	103
stress_12bis	"POPTR_0008s20770.1"	436	"	"G/A"	"66,0/34,0"	"105/54"	159	stress_45	"POPTR_0008s20770.1"	436	"	"A/G"	"59,6/40,4"	"102/69"	171
stress_12bis	"POPTR_0010s26200.1"	180	"	"G/T"	"57,4/42,1"	"105/77"	183	stress_42	"POPTR_0010s26200.1"	180	"	"G/T"	"71,4/28,6"	"40/16"	56
stress_12bis	"POPTR_0010s26200.1"	180	"	"G/T"	"57,4/42,1"	"105/77"	183	stress_45	"POPTR_0010s26200.1"	180	"	"G/T"	"63,6/36,4"	"35/20"	55
stress_12bis	"POPTR_0015s06410.1"	102	"	"A/T"	"52,2/47,8"	"105/96"	201	stress_42	"POPTR_0015s06410.1"	102	"	"A/T"	"53,3/46,7"	"32/28"	60
stress_12bis	"POPTR_0015s06410.1"	102	"	"A/T"	"52,2/47,8"	"105/96"	201	stress_45	"POPTR_0015s06410.1"	102	"	"A/T"	"55,4/44,6"	"31/25"	56
stress_12bis	"POPTR_0011s02770.1"	510	"	"T/C"	"77,4/21,9"	"106/30"	137	stress_42	"POPTR_0011s02770.1"	510	"	"T/C"	"66,7/33,3"	"36/18"	54
stress_12bis	"POPTR_0011s02770.1"	510	"	"T/C"	"77,4/21,9"	"106/30"	137	stress_45	"POPTR_0011s02770.1"	510	"	"T/C"	"71,2/28,8"	"52/21"	73
stress_12bis	"POPTR_0018s01830.1"	453	"	"T/G"	"77,4/22,6"	"106/31"	137	stress_42	"POPTR_0018s01830.1"	453	"	"G/T"	"51,6/48,4"	"16/15"	31
stress_12bis	"POPTR_0018s01830.1"	453	"	"T/G"	"77,4/22,6"	"106/31"	137	stress_45	"POPTR_0018s01830.1"	453	"	"T/G"	"59,6/40,4"	"31/21"	52
stress_12bis	"POPTR_0010s20060.1"	823	"	"C/T"	"76,8/23,2"	"106/32"	138	stress_42	"POPTR_0010s20060.1"	823	"	"C/T"	"81,6/18,4"	"31/7"	38
stress_12bis	"POPTR_0014s00810.1"	89	"	"G/T"	"74,6/25,4"	"106/36"	142	stress_42	"POPTR_0014s00810.1"	89	"	"T/G"	"61,9/38,1"	"78/48"	126
stress_12bis	"POPTR_0014s00810.1"	89	"	"G/T"	"74,6/25,4"	"106/36"	142	stress_45	"POPTR_0014s00810.1"	89	"	"G/T"	"53,4/46,6"	"47/41"	88
stress_12bis	"POPTR_0012s11630.1"	137	"	"G/C"	"74,1/25,9"	"106/37"	143	stress_42	"POPTR_0012s11630.1"	137	"	"G/C"	"76,4/23,6"	"55/17"	72
stress_12bis	"POPTR_0012s11630.1"	137	"	"G/C"	"74,1/25,9"	"106/37"	143	stress_45	"POPTR_0012s11630.1"	137	"	"G/C"	"69,7/30,3"	"62/27"	89
stress_12bis	"POPTR_0008s03950.1"	786	"	"C/T"	"66,7/33,3"	"106/53"	159	stress_42	"POPTR_0008s03950.1"	786	"	"C/T"	"56,9/43,1"	"168/127"	295
stress_12bis	"POPTR_0008s03950.1"	786	"	"C/T"	"66,7/33,3"	"106/53"	159	stress_45	"POPTR_0008s03950.1"	786	"	"C/T"	"63,7/36,3"	"219/125"	344
stress_12bis	"POPTR_0005s22830.1"	269	"	"C/A"	"59,9/40,1"	"106/71"	177	stress_42	"POPTR_0005s22830.1"	269	"	"C/A"	"58,6/41,4"	"65/46"	111
stress_12bis	"POPTR_0005s22830.1"	269	"	"C/A"	"59,9/40,1"	"106/71"	177	stress_45	"POPTR_0005s22830.1"	269	"	"C/A"	"56,1/42,9"	"55/42"	98
stress_12bis	"POPTR_0009s08520.1"	53	"	"C/G"	"57,6/42,4"	"106/78"	184	stress_42	"POPTR_0009s08520.1"	53	"	"G/C"	"52,2/47,8"	"12/11"	23
stress_12bis	"POPTR_0009s08520.1"	53	"	"C/G"	"57,6/42,4"	"106/78"	184	stress_45	"POPTR_0009s08520.1"	53	"	"G/C"	"61,9/38,1"	"13/8"	21
stress_12bis	"POPTR_0008s18230.1"	150	"	"G/T"	"57,0/43,0"	"106/80"	186	stress_42	"POPTR_0008s18230.1"	150	"	"G/T"	"53,2/46,8"	"42/37"	79
stress_12bis	"POPTR_0008s18230.1"	150	"	"G/T"	"57,0/43,0"	"106/80"	186	stress_45	"POPTR_0008s18230.1"	150	"	"G/T"	"56,5/43,5"	"35/27"	62
stress_12bis	"POPTR_0001s38810.1"	369	"	"C/T"	"53,8/46,2"	"106/91"	197	stress_42	"POPTR_0001s38810.1"	369	"	"T/C"	"69,5/30,5"	"185/81"	266
stress_12bis	"POPTR_0001s38810.1"	369	"	"C/T"	"53,8/46,2"	"106/91"	197	stress_45	"POPTR_0001s38810.1"	369	"	"T/C"	"63,0/36,5"	"243/141"	386
stress_12bis	"POPTR_0002s14730.1"	964	"	"T/A"	"53,3/46,2"	"106/92"	199	stress_42	"POPTR_0002s14730.1"	964	"	"T/A"	"72,7/27,3"	"32/12"	44
stress_12bis	"POPTR_0002s14730.1"	964	"	"T/A"	"53,3/46,2"	"106/92"	199	stress_45	"POPTR_0002s14730.1"	964	"	"T/A"	"75,0/25,0"	"51/17"	68
stress_12bis	"POPTR_0009s08520.1"	1011	"	"G/A"	"52,0/47,5"	"106/97"	204	stress_42	"POPTR_0009s08520.1"	1011	"	"G/A"	"62,2/37,8"	"23/14"	37
stress_12bis	"POPTR_0009s08520.1"	1011	"	"G/A"	"52,0/47,5"	"106/97"	204	stress_45	"POPTR_0009s08520.1"	1011	"	"G/A"	"55,2/44,8"	"16/13"	29
stress_12bis	"POPTR_0004s16920.1"	1017	"	"C/T"	"57,4/42,5"	"1061/786"	1849	stress_42	"POPTR_0004s16920.1"	1017	"	"T/C"	"55,8/44,2"	"126/100"	226
stress_12bis	"POPTR_0004s16920.1"	1017	"	"C/T"	"57,4/42,5"	"1061/786"	1849	stress_45	"POPTR_0004s16920.1"	1017	"	"T/C"	"56,8/43,2"	"166/126"	292
stress_12bis	"POPTR_0010s20060.1"	129	"	"A/G"	"77,5/22,5"	"107/31"	138	stress_42	"POPTR_0010s20060.1"	129	"	"A/G"	"74,2/25,8"	"23/8"	31
stress_12bis	"POPTR_0014s13560.1"	1491	"	"T/C"	"73,8/26,2"	"107/38"	145	stress_42	"POPTR_0014s13560.1"	1491	"	"T/C"	"75,7/22,4"	"81/24"	107
stress_12bis	"POPTR_0014s13560.1"	1491	"	"T/C"	"73,8/26,2"	"107/38"	145	stress_45	"POPTR_0014s13560.1"	1491	"	"T/C"	"66,3/33,7"	"65/33"	98
stress_12bis	"POPTR_0016s03230.1"	821	"	"A/G"	"68,2/31,2"	"107/49"	157	stress_42	"POPTR_0016s03230.1"	821	"	"A/G"	"69,1/30,9"	"38/17"	55
stress_12bis	"POPTR_0016s03230.1"	821	"	"A/G"	"68,2/31,2"	"107/49"	157	stress_45	"POPTR_0016s03230.1"	821	"	"A/G"	"58,7/41,3"	"27/19"	46
stress_12bis	"POPTR_0021s00380.1"	699	"	"C/A"	"64,8/35,2"	"107/58"	165	stress_42	"POPTR_0021s00380.1"	699	"	"C/A"	"61,5/38,5"	"8/5"	13
stress_12bis	"POPTR_0021s00380.1"	699	"	"C/A"	"64,8/35,2"	"107/58"	165	stress_45	"POPTR_0021s00380.1"	699	"	"A/C"	"50,0/50,0"	"12/12"	24
stress_12bis	"POPTR_0002s01320.1"	345	"	"T/C"	"57,2/42,8"	"107/80"	187	stress_42	"POPTR_0002s01320.1"	345	"	"C/T"	"54,2/45,8"	"32/27"	59
stress_12bis	"POPTR_0002s01320.1"	345	"	"T/C"	"57,2/42,8"	"107/80"	187	stress_45	"POPTR_0002s01320.1"	345	"	"T/C"	"61,5/38,5"	"56/35"	91
stress_12bis	"POPTR_0010s22790.1"	48	"	"C/T"	"53,5/46,5"	"107/93"	200	stress_42	"POPTR_0010s22790.1"	48	"	"T/C"	"60,3/39,7"	"41/27"	68
stress_12bis	"POPTR_0010s22790.1"	48	"	"C/T"	"53,5/46,5"	"107/93"	200	stress_45	"POPTR_0010s22790.1"	48	"	"C/T"	"59,2/40,8"	"42/29"	71
stress_12bis	"POPTR_0015s11640.1"	95	"	"C/A"	"50,7/48,8"	"108/104"	213	stress_42	"POPTR_0015s11640.1"	95	"	"C/A"	"52,9/47,1"	"27/24"	51
stress_12bis	"POPTR_0015s11640.1"	95	"	"C/A"	"50,7/48,8"	"108/104"	213	stress_45	"POPTR_0015s11640.1"	95	"	"A/C"	"58,5/41,5"	"103/73"	176
stress_12bis	"POPTR_0015s11640.1"	93	"	"G/T"	"50,5/49,5"	"108/106"	214	stress_42	"POPTR_0015s11640.1"	93	"	"G/T"	"51,9/46,2"	"27/24"	52
stress_12bis	"POPTR_0015s11640.1"	93	"	"G/T"	"50,5/49,5"	"108/106"	214	stress_45	"POPTR_0015s11640.1"	93	"	"T/G"	"55,6/44,4"	"100/80"	180
stress_12bis	"POPTR_0002s01320.1"	456	"	"T/C"	"50,5/49,5"	"108/106"	214	stress_42	"POPTR_0002s01320.1"	456	"	"C/T"	"58,2/41,8"	"39/28"	67
stress_12bis	"POPTR_0002s01320.1"	456	"	"T/C"	"50,5/49,5"	"108/106"	214	stress_45	"POPTR_0002s01320.1"	456	"	"T/C"	"50,9/49,1"	"54/52"	106
stress_12bis	"POPTR_0011s08940.1"	1316	"	"C/T"	"50,2/49,8"	"108/107"	215	stress_42	"POPTR_0011s08940.1"	1316	"	"C/T"	"65,9/34,1"	"54/28"	82
stress_12bis	"POPTR_0011s08940.1"	1316	"	"C/T"	"50,2/49,8"	"108/107"	215	stress_45	"POPTR_0011s08940.1"	1316	"	"C/T"	"57,6/42,4"	"57/42"	99
stress_12bis	"POPTR_0014s13560.1"	2022	"	"T/C"	"66,3/33,7"	"108/55"	163	stress_42	"POPTR_0014s13560.1"	2022	"	"T/C"	"74,0/26,0"	"77/27"	104
stress_12bis	"POPTR_0014s13560.1"	2022	"	"T/C"	"66,3/33,7"	"108/55"	163	stress_45	"POPTR_0014s13560.1"	2022	"	"T/C"	"64,7/35,3"	"75/41"	116
stress_12bis	"POPTR_0009s09710.1"	403	"	"C/G"	"62,8/37,2"	"108/64"	172	stress_42	"POPTR_0009s09710.1"	403	"	"G/C"	"54,0/46,0"	"27/23"	50
stress_12bis	"POPTR_0009s09710.1"	403	"	"C/G"	"62,8/37,2"	"108/64"	172	stress_45	"POPTR_0009s09710.1"	403	"	"C/G"	"55,3/44,7"	"26/21"	47
stress_12bis	"POPTR_0008s20770.1"	324	"	"C/T"	"58,1/41,9"	"108/78"	186	stress_42	"POPTR_0008s20770.1"	324	"	"T/C"	"50,7/49,3"	"69/67"	136
stress_12bis	"POPTR_0008s20770.1"	324	"	"C/T"	"58,1/41,9"	"108/78"	186	stress_45	"POPTR_0008s20770.1"	324	"	"T/C"	"50,8/49,2"	"98/95"	193
stress_12bis	"POPTR_0004s09910.1"	440	"	"A/G"	"58,0/42,0"	"1081/784"	1865	stress_42	"POPTR_0004s09910.1"	440	"	"A/G"	"59,1/40,9"	"137/95"	232
stress_12bis	"POPTR_0004s09910.1"	440	"	"A/G"	"58,0/42,0"	"1081/784"	1865	stress_45	"POPTR_0004s09910.1"	440	"	"A/G"	"60,7/39,3"	"176/114"	290
stress_12bis	"POPTR_0009s09710.1"	375	"	"A/G"	"50,0/50,0"	"109/109"	218	stress_42	"POPTR_0009s09710.1"	375	"	"A/G"	"69,2/30,8"	"36/16"	52
stress_12bis	"POPTR_0009s09710.1"	375	"	"A/G"	"50,0/50,0"	"109/109"	218	stress_45	"POPTR_0009s09710.1"	375	"	"A/G"	"62,1/37,9"	"36/22"	58
stress_12bis	"POPTR_0002s07290.1"	830	"	"G/A"	"79,6/20,4"	"109/28"	137	stress_42	"POPTR_0002s07290.1"	830	"	"G/A"	"79,0/20,3"	"109/28"	138
stress_12bis	"POPTR_0002s07290.1"	830	"	"G/A"	"79,6/20,4"	"109/28"	137	stress_45	"POPTR_0002s07290.1"	830	"	"G/A"	"78,8/21,2"	"82/22"	104
stress_12bis	"POPTR_0016s03230.1"	390	"	"A/G"	"72,2/27,8"	"109/42"	151	stress_42	"POPTR_0016s03230.1"	390	"	"A/G"	"63,4/36,6"	"26/15"	41
stress_12bis	"POPTR_0016s03230.1"	390	"	"A/G"	"72,2/27,8"	"109/42"	151	stress_45	"POPTR_0016s03230.1"	390	"	"A/G"	"61,0/39,0"	"25/16"	41
stress_12bis	"POPTR_0009s09710.1"	405	"	"T/C"	"63,0/36,4"	"109/63"	173	stress_42	"POPTR_0009s09710.1"	405	"	"C/T"	"53,1/46,9"	"26/23"	49
stress_12bis	"POPTR_0009s09710.1"	405	"	"T/C"	"63,0/36,4"	"109/63"	173	stress_45	"POPTR_0009s09710.1"	405	"	"T/C"	"53,2/46,8"	"25/22"	47
stress_12bis	"POPTR_0008s18230.1"	208	"	"T/A"	"58,0/42,0"	"109/79"	188	stress_42	"POPTR_0008s18230.1"	208	"	"T/A"	"57,8/41,1"	"52/37"	90
stress_12bis	"POPTR_0008s18230.1"	208	"	"T/A"	"58,0/42,0"	"109/79"	188	stress_45	"POPTR_0008s18230.1"	208	"	"T/A"	"62,7/37,3"	"37/22"	59
stress_12bis	"POPTR_0003s09830.1"	948	"	"C/T"	"56,8/43,2"	"109/83"	192	stress_42	"POPTR_0003s09830.1"	948	"	"T/C"	"60,0/40,0"	"21/14"	35
stress_12bis	"POPTR_0003s09830.1"	948	"	"C/T"	"56,8/43,2"	"109/83"	192	stress_45	"POPTR_0003s09830.1"	948	"	"C/T"	"55,3/44,7"	"26/21"	47
stress_12bis	"POPTR_0014s02410.1"	1263	"	"T/G"	"55,9/44,1"	"109/86"	195	stress_42	"POPTR_0014s02410.1"	1263	"	"T/G"	"51,5/48,5"	"191/180"	371
stress_12bis	"POPTR_0014s02410.1"	1263	"	"T/G"	"55,9/44,1"	"109/86"	195	stress_45	"POPTR_0014s02410.1"	1263	"	"T/G"	"51,9/48,1"	"305/283"	588
stress_12bis	"POPTR_0009s11480.1"	93	"	"C/A"	"54,8/45,2"	"109/90"	199	stress_42	"POPTR_0009s11480.1"	93	"	"C/A"	"56,7/43,3"	"17/13"	30
stress_12bis	"POPTR_0009s11480.1"	93	"	"C/A"	"54,8/45,2"	"109/90"	199	stress_45	"POPTR_0009s11480.1"	93	"	"A/C"	"60,0/40,0"	"30/20"	50
stress_12bis	"POPTR_0004s22810.1"	197	"	"C/A"	"61,1/38,9"	"1090/694"	1785	stress_42	"POPTR_0004s22810.1"	197	"	"C/A"	"56,5/43,5"	"350/269"	619
stress_12bis	"POPTR_0004s22810.1"	197	"	"C/A"	"61,1/38,9"	"1090/694"	1785	stress_45	"POPTR_0004s22810.1"	197	"	"C/A"	"54,0/46,0"	"398/339"	737
stress_12bis	"POPTR_0018s09730.1"	537	"	"C/G"	"50,0/50,0"	"11/11"	22	stress_42	"POPTR_0018s09730.1"	537	"	"C/G"	"58,9/41,1"	"76/53"	129
stress_12bis	"POPTR_0018s09730.1"	537	"	"C/G"	"50,0/50,0"	"11/11"	22	stress_45	"POPTR_0018s09730.1"	537	"	"C/G"	"54,9/45,1"	"107/88"	195
stress_12bis	"POPTR_0002s09480.1"	585	"	"A/G"	"50,0/50,0"	"11/11"	22	stress_45	"POPTR_0002s09480.1"	585	"	"A/G"	"50,9/49,1"	"54/52"	106
stress_12bis	"POPTR_0010s00900.1"	549	"	"T/C"	"84,6/15,4"	"11/2"	13	stress_42	"POPTR_0010s00900.1"	549	"	"T/C"	"69,2/30,8"	"92/41"	133
stress_12bis	"POPTR_0010s00900.1"	549	"	"T/C"	"84,6/15,4"	"11/2"	13	stress_45	"POPTR_0010s00900.1"	549	"	"T/C"	"80,2/19,8"	"130/32"	162
stress_12bis	"POPTR_0010s00900.1"	685	"	"T/C"	"84,6/15,4"	"11/2"	13	stress_42	"POPTR_0010s00900.1"	685	"	"C/T"	"51,3/48,2"	"101/95"	197
stress_12bis	"POPTR_0010s00900.1"	685	"	"T/C"	"84,6/15,4"	"11/2"	13	stress_45	"POPTR_0010s00900.1"	685	"	"T/C"	"55,2/44,2"	"85/68"	154
stress_12bis	"POPTR_0008s09150.1"	186	"	"A/G"	"73,3/26,7"	"11/4"	15	stress_45	"POPTR_0008s09150.1"	186	"	"A/G"	"51,4/48,6"	"95/90"	185
stress_12bis	"POPTR_0013s10350.1"	739	"	"A/G"	"64,7/35,3"	"11/6"	17	stress_42	"POPTR_0013s10350.1"	739	"	"G/A"	"75,7/24,3"	"289/93"	382
stress_12bis	"POPTR_0013s10350.1"	739	"	"A/G"	"64,7/35,3"	"11/6"	17	stress_45	"POPTR_0013s10350.1"	739	"	"G/A"	"84,8/15,2"	"257/46"	303
stress_12bis	"POPTR_0007s15300.1"	600	"	"A/G"	"64,7/35,3"	"11/6"	17	stress_42	"POPTR_0007s15300.1"	600	"	"A/G"	"57,3/42,7"	"59/44"	103
stress_12bis	"POPTR_0002s18500.1"	840	"	"C/T"	"61,1/38,9"	"11/7"	18	stress_45	"POPTR_0002s18500.1"	840	"	"T/C"	"56,8/41,6"	"71/52"	125
stress_12bis	"POPTR_0009s14850.1"	81	"	"C/T"	"57,9/42,1"	"11/8"	19	stress_45	"POPTR_0009s14850.1"	81	"	"C/T"	"55,8/44,2"	"58/46"	104
stress_12bis	"POPTR_0015s13050.1"	154	"	"C/A"	"57,9/42,1"	"11/8"	19	stress_45	"POPTR_0015s13050.1"	154	"	"C/A"	"69,9/30,1"	"86/37"	123
stress_12bis	"POPTR_0009s12420.1"	1059	"	"C/A"	"55,0/45,0"	"11/9"	20	stress_42	"POPTR_0009s12420.1"	1059	"	"C/A"	"59,2/40,8"	"93/64"	157
stress_12bis	"POPTR_0009s12420.1"	1059	"	"C/A"	"55,0/45,0"	"11/9"	20	stress_45	"POPTR_0009s12420.1"	1059	"	"A/C"	"50,0/50,0"	"72/72"	144
stress_12bis	"POPTR_0002s07290.1"	291	"	"C/T"	"80,9/19,1"	"110/26"	136	stress_42	"POPTR_0002s07290.1"	291	"	"C/T"	"83,8/16,2"	"88/17"	105
stress_12bis	"POPTR_0002s07290.1"	291	"	"C/T"	"80,9/19,1"	"110/26"	136	stress_45	"POPTR_0002s07290.1"	291	"	"C/T"	"75,8/24,2"	"91/29"	120
stress_12bis	"POPTR_0006s23890.1"	35	"	"C/T"	"74,8/25,2"	"110/37"	147	stress_42	"POPTR_0006s23890.1"	35	"	"C/T"	"70,1/29,9"	"54/23"	77
stress_12bis	"POPTR_0006s23890.1"	35	"	"C/T"	"74,8/25,2"	"110/37"	147	stress_45	"POPTR_0006s23890.1"	35	"	"C/T"	"75,4/24,6"	"52/17"	69
stress_12bis	"POPTR_0001s36560.1"	1290	"	"A/G"	"59,8/40,2"	"110/74"	184	stress_42	"POPTR_0001s36560.1"	1290	"	"A/G"	"53,3/46,7"	"16/14"	30
stress_12bis	"POPTR_0001s36560.1"	1290	"	"A/G"	"59,8/40,2"	"110/74"	184	stress_45	"POPTR_0001s36560.1"	1290	"	"G/A"	"57,4/42,6"	"31/23"	54
stress_12bis	"POPTR_0002s01320.1"	849	"	"T/G"	"59,8/40,2"	"110/74"	184	stress_42	"POPTR_0002s01320.1"	849	"	"T/G"	"61,6/38,4"	"45/28"	73
stress_12bis	"POPTR_0002s01320.1"	849	"	"T/G"	"59,8/40,2"	"110/74"	184	stress_45	"POPTR_0002s01320.1"	849	"	"T/G"	"54,9/45,1"	"62/51"	113
stress_12bis	"POPTR_0008s05480.1"	1239	"	"A/G"	"57,6/42,4"	"110/81"	191	stress_42	"POPTR_0008s05480.1"	1239	"	"A/G"	"54,1/45,9"	"92/78"	170
stress_12bis	"POPTR_0008s05480.1"	1239	"	"A/G"	"57,6/42,4"	"110/81"	191	stress_45	"POPTR_0008s05480.1"	1239	"	"A/G"	"55,3/44,7"	"205/166"	371
stress_12bis	"POPTR_0010s09960.1"	588	"	"G/A"	"52,4/47,2"	"111/100"	212	stress_42	"POPTR_0010s09960.1"	588	"	"G/A"	"51,5/47,5"	"52/48"	101
stress_12bis	"POPTR_0010s09960.1"	588	"	"G/A"	"52,4/47,2"	"111/100"	212	stress_45	"POPTR_0010s09960.1"	588	"	"G/A"	"53,0/47,0"	"53/47"	100
stress_12bis	"POPTR_0010s22790.1"	600	"	"A/G"	"52,1/47,9"	"111/102"	213	stress_42	"POPTR_0010s22790.1"	600	"	"A/G"	"56,0/44,0"	"42/33"	75
stress_12bis	"POPTR_0010s22790.1"	600	"	"A/G"	"52,1/47,9"	"111/102"	213	stress_45	"POPTR_0010s22790.1"	600	"	"A/G"	"65,1/34,9"	"56/30"	86
stress_12bis	"POPTR_0001s13800.1"	94	"	"T/C"	"51,9/48,1"	"111/103"	214	stress_42	"POPTR_0001s13800.1"	94	"	"C/T"	"59,5/40,5"	"22/15"	37
stress_12bis	"POPTR_0001s13800.1"	94	"	"T/C"	"51,9/48,1"	"111/103"	214	stress_45	"POPTR_0001s13800.1"	94	"	"C/T"	"58,7/41,3"	"44/31"	75
stress_12bis	"POPTR_0021s00380.1"	213	"	"G/A"	"73,0/27,0"	"111/41"	152	stress_45	"POPTR_0021s00380.1"	213	"	"G/A"	"70,4/29,6"	"19/8"	27
stress_12bis	"POPTR_0014s13560.1"	1320	"	"C/T"	"65,7/34,3"	"111/58"	169	stress_42	"POPTR_0014s13560.1"	1320	"	"C/T"	"73,4/26,6"	"80/29"	109
stress_12bis	"POPTR_0014s13560.1"	1320	"	"C/T"	"65,7/34,3"	"111/58"	169	stress_45	"POPTR_0014s13560.1"	1320	"	"C/T"	"73,7/26,3"	"98/35"	133
stress_12bis	"POPTR_0008s18230.1"	165	"	"C/T"	"62,0/38,0"	"111/68"	179	stress_42	"POPTR_0008s18230.1"	165	"	"C/T"	"64,3/35,7"	"45/25"	70
stress_12bis	"POPTR_0008s18230.1"	165	"	"C/T"	"62,0/38,0"	"111/68"	179	stress_45	"POPTR_0008s18230.1"	165	"	"C/T"	"65,9/34,1"	"29/15"	44
stress_12bis	"POPTR_0014s13660.1"	939	"	"T/C"	"61,3/38,7"	"111/70"	181	stress_42	"POPTR_0014s13660.1"	939	"	"T/C"	"69,0/31,0"	"40/18"	58
stress_12bis	"POPTR_0014s13660.1"	939	"	"T/C"	"61,3/38,7"	"111/70"	181	stress_45	"POPTR_0014s13660.1"	939	"	"T/C"	"57,8/42,2"	"37/27"	64
stress_12bis	"POPTR_0008s18230.1"	196	"	"A/G"	"61,0/39,0"	"111/71"	182	stress_42	"POPTR_0008s18230.1"	196	"	"A/G"	"59,0/41,0"	"46/32"	78
stress_12bis	"POPTR_0008s18230.1"	196	"	"A/G"	"61,0/39,0"	"111/71"	182	stress_45	"POPTR_0008s18230.1"	196	"	"A/G"	"66,0/34,0"	"31/16"	47
stress_12bis	"POPTR_0005s13860.1"	856	"	"C/T"	"58,7/40,7"	"111/77"	189	stress_42	"POPTR_0005s13860.1"	856	"	"T/C"	"54,8/45,2"	"34/28"	62
stress_12bis	"POPTR_0005s13860.1"	856	"	"C/T"	"58,7/40,7"	"111/77"	189	stress_45	"POPTR_0005s13860.1"	856	"	"C/T"	"52,8/45,8"	"38/33"	72
stress_12bis	"POPTR_0004s22810.1"	196	"	"G/A"	"61,6/38,4"	"1115/695"	1810	stress_42	"POPTR_0004s22810.1"	196	"	"G/A"	"56,5/43,3"	"351/269"	621
stress_12bis	"POPTR_0004s22810.1"	196	"	"G/A"	"61,6/38,4"	"1115/695"	1810	stress_45	"POPTR_0004s22810.1"	196	"	"G/A"	"54,4/45,6"	"406/341"	747
stress_12bis	"POPTR_0007s08400.1"	1479	"	"T/G"	"81,2/18,1"	"112/25"	138	stress_42	"POPTR_0007s08400.1"	1479	"	"T/G"	"82,5/17,5"	"99/21"	120
stress_12bis	"POPTR_0013s10250.1"	255	"	"A/G"	"62,2/37,8"	"112/68"	180	stress_42	"POPTR_0013s10250.1"	255	"	"G/A"	"52,9/47,1"	"37/33"	70
stress_12bis	"POPTR_0013s10250.1"	255	"	"A/G"	"62,2/37,8"	"112/68"	180	stress_45	"POPTR_0013s10250.1"	255	"	"G/A"	"63,4/36,6"	"52/30"	82
stress_12bis	"POPTR_0019s05950.1"	211	"	"A/G"	"57,4/42,6"	"112/83"	195	stress_42	"POPTR_0019s05950.1"	211	"	"A/G"	"53,6/46,4"	"15/13"	28
stress_12bis	"POPTR_0019s05950.1"	211	"	"A/G"	"57,4/42,6"	"112/83"	195	stress_45	"POPTR_0019s05950.1"	211	"	"G/A"	"51,4/48,6"	"18/17"	35
stress_12bis	"POPTR_0008s08410.1"	192	"	"T/C"	"55,7/44,3"	"112/89"	201	stress_42	"POPTR_0008s08410.1"	192	"	"T/C"	"66,7/33,3"	"18/9"	27
stress_12bis	"POPTR_0008s08410.1"	192	"	"T/C"	"55,7/44,3"	"112/89"	201	stress_45	"POPTR_0008s08410.1"	192	"	"T/C"	"61,1/38,9"	"44/28"	72
stress_12bis	"POPTR_0002s01320.1"	1830	"	"C/T"	"54,9/45,1"	"112/92"	204	stress_42	"POPTR_0002s01320.1"	1830	"	"C/T"	"53,8/46,2"	"43/37"	80
stress_12bis	"POPTR_0002s01320.1"	1830	"	"C/T"	"54,9/45,1"	"112/92"	204	stress_45	"POPTR_0002s01320.1"	1830	"	"C/T"	"57,0/43,0"	"81/61"	142
stress_12bis	"POPTR_0001s35230.1"	42	"	"A/C"	"52,8/47,2"	"113/101"	214	stress_42	"POPTR_0001s35230.1"	42	"	"A/C"	"52,8/47,2"	"56/50"	106
stress_12bis	"POPTR_0001s35230.1"	42	"	"A/C"	"52,8/47,2"	"113/101"	214	stress_45	"POPTR_0001s35230.1"	42	"	"A/C"	"50,4/49,6"	"68/67"	135
stress_12bis	"POPTR_0001s25670.1"	153	"	"T/C"	"51,4/48,2"	"113/106"	220	stress_42	"POPTR_0001s25670.1"	153	"	"C/T"	"51,4/48,6"	"55/52"	107
stress_12bis	"POPTR_0001s25670.1"	153	"	"T/C"	"51,4/48,2"	"113/106"	220	stress_45	"POPTR_0001s25670.1"	153	"	"C/T"	"55,1/44,9"	"38/31"	69
stress_12bis	"POPTR_0002s01320.1"	292	"	"C/A"	"51,1/48,9"	"113/108"	221	stress_42	"POPTR_0002s01320.1"	292	"	"C/A"	"53,2/46,8"	"41/36"	77
stress_12bis	"POPTR_0002s01320.1"	292	"	"C/A"	"51,1/48,9"	"113/108"	221	stress_45	"POPTR_0002s01320.1"	292	"	"A/C"	"54,9/45,1"	"84/69"	153
stress_12bis	"POPTR_0010s20060.1"	840	"	"T/A"	"66,5/33,5"	"113/57"	170	stress_42	"POPTR_0010s20060.1"	840	"	"T/A"	"70,5/29,5"	"31/13"	44
stress_12bis	"POPTR_0010s20060.1"	840	"	"T/A"	"66,5/33,5"	"113/57"	170	stress_45	"POPTR_0010s20060.1"	840	"	"T/A"	"81,8/18,2"	"45/10"	55
stress_12bis	"POPTR_0005s26170.1"	249	"	"G/A"	"66,1/33,9"	"113/58"	171	stress_42	"POPTR_0005s26170.1"	249	"	"G/A"	"65,6/34,4"	"143/75"	218
stress_12bis	"POPTR_0005s26170.1"	249	"	"G/A"	"66,1/33,9"	"113/58"	171	stress_45	"POPTR_0005s26170.1"	249	"	"G/A"	"82,2/17,8"	"129/28"	157
stress_12bis	"POPTR_0008s20770.1"	522	"	"G/A"	"57,1/42,9"	"113/85"	198	stress_42	"POPTR_0008s20770.1"	522	"	"A/G"	"69,8/30,2"	"111/48"	159
stress_12bis	"POPTR_0008s20770.1"	522	"	"G/A"	"57,1/42,9"	"113/85"	198	stress_45	"POPTR_0008s20770.1"	522	"	"A/G"	"61,8/38,2"	"118/73"	191
stress_12bis	"POPTR_0004s16920.1"	1030	"	"T/C"	"53,3/46,6"	"1130/988"	2119	stress_42	"POPTR_0004s16920.1"	1030	"	"C/T"	"60,4/39,6"	"163/107"	270
stress_12bis	"POPTR_0004s16920.1"	1030	"	"T/C"	"53,3/46,6"	"1130/988"	2119	stress_45	"POPTR_0004s16920.1"	1030	"	"C/T"	"59,8/40,2"	"205/138"	343
stress_12bis	"POPTR_0008s15780.1"	162	"	"G/C"	"55,8/44,1"	"1134/897"	2032	stress_42	"POPTR_0008s15780.1"	162	"	"G/C"	"52,9/47,1"	"1119/995"	2114
stress_12bis	"POPTR_0008s15780.1"	162	"	"G/C"	"55,8/44,1"	"1134/897"	2032	stress_45	"POPTR_0008s15780.1"	162	"	"G/C"	"51,7/48,3"	"1362/1270"	2632
stress_12bis	"POPTR_0006s10040.1"	178	"	"G/T"	"51,1/48,9"	"114/109"	223	stress_42	"POPTR_0006s10040.1"	178	"	"T/G"	"57,1/42,9"	"40/30"	70
stress_12bis	"POPTR_0006s10040.1"	178	"	"G/T"	"51,1/48,9"	"114/109"	223	stress_45	"POPTR_0006s10040.1"	178	"	"T/G"	"53,5/46,5"	"46/40"	86
stress_12bis	"POPTR_0001s21140.1"	651	"	"G/A"	"67,1/32,9"	"114/56"	170	stress_42	"POPTR_0001s21140.1"	651	"	"G/A"	"77,3/22,7"	"34/10"	44
stress_12bis	"POPTR_0001s21140.1"	651	"	"G/A"	"67,1/32,9"	"114/56"	170	stress_45	"POPTR_0001s21140.1"	651	"	"G/A"	"70,0/30,0"	"14/6"	20
stress_12bis	"POPTR_0014s13560.1"	1092	"	"T/C"	"66,3/33,7"	"114/58"	172	stress_42	"POPTR_0014s13560.1"	1092	"	"T/C"	"70,5/29,5"	"55/23"	78
stress_12bis	"POPTR_0014s13560.1"	1092	"	"T/C"	"66,3/33,7"	"114/58"	172	stress_45	"POPTR_0014s13560.1"	1092	"	"T/C"	"62,1/37,9"	"64/39"	103
stress_12bis	"POPTR_0001s21140.1"	639	"	"C/A"	"65,1/34,9"	"114/61"	175	stress_42	"POPTR_0001s21140.1"	639	"	"C/A"	"76,7/23,3"	"33/10"	43
stress_12bis	"POPTR_0001s21140.1"	639	"	"C/A"	"65,1/34,9"	"114/61"	175	stress_45	"POPTR_0001s21140.1"	639	"	"C/A"	"80,8/19,2"	"21/5"	26
stress_12bis	"POPTR_0001s38810.1"	62	"	"A/G"	"62,3/37,2"	"114/68"	183	stress_42	"POPTR_0001s38810.1"	62	"	"G/A"	"62,0/38,0"	"106/65"	171
stress_12bis	"POPTR_0001s38810.1"	62	"	"A/G"	"62,3/37,2"	"114/68"	183	stress_45	"POPTR_0001s38810.1"	62	"	"G/A"	"60,1/39,9"	"169/112"	281
stress_12bis	"POPTR_0004s03160.1"	613	"	"T/C"	"58,8/41,2"	"114/80"	194	stress_42	"POPTR_0004s03160.1"	613	"	"T/C"	"51,7/48,3"	"15/14"	29
stress_12bis	"POPTR_0004s03160.1"	613	"	"T/C"	"58,8/41,2"	"114/80"	194	stress_45	"POPTR_0004s03160.1"	613	"	"T/C"	"66,7/33,3"	"16/8"	24
stress_12bis	"POPTR_0010s20060.1"	303	"	"G/A"	"56,4/43,6"	"114/88"	202	stress_42	"POPTR_0010s20060.1"	303	"	"G/A"	"52,6/47,4"	"20/18"	38
stress_12bis	"POPTR_0010s20060.1"	303	"	"G/A"	"56,4/43,6"	"114/88"	202	stress_45	"POPTR_0010s20060.1"	303	"	"A/G"	"64,4/35,6"	"29/16"	45
stress_12bis	"POPTR_0018s09030.1"	216	"	"A/T"	"73,2/26,8"	"115/42"	157	stress_42	"POPTR_0018s09030.1"	216	"	"A/T"	"58,9/41,1"	"89/62"	151
stress_12bis	"POPTR_0018s09030.1"	216	"	"A/T"	"73,2/26,8"	"115/42"	157	stress_45	"POPTR_0018s09030.1"	216	"	"T/A"	"51,2/48,8"	"63/60"	123
stress_12bis	"POPTR_0003s09830.1"	702	"	"G/A"	"73,2/26,8"	"115/42"	157	stress_42	"POPTR_0003s09830.1"	702	"	"G/A"	"70,8/29,2"	"17/7"	24
stress_12bis	"POPTR_0003s09830.1"	702	"	"G/A"	"73,2/26,8"	"115/42"	157	stress_45	"POPTR_0003s09830.1"	702	"	"G/A"	"70,0/30,0"	"28/12"	40
stress_12bis	"POPTR_0013s00760.1"	723	"	"A/T"	"63,9/36,1"	"115/65"	180	stress_42	"POPTR_0013s00760.1"	723	"	"A/T"	"54,7/45,3"	"35/29"	64
stress_12bis	"POPTR_0013s00760.1"	723	"	"A/T"	"63,9/36,1"	"115/65"	180	stress_45	"POPTR_0013s00760.1"	723	"	"A/T"	"51,2/48,8"	"43/41"	84
stress_12bis	"POPTR_0001s36560.1"	519	"	"T/G"	"62,2/37,3"	"115/69"	185	stress_42	"POPTR_0001s36560.1"	519	"	"G/T"	"55,6/44,4"	"10/8"	18
stress_12bis	"POPTR_0001s36560.1"	519	"	"T/G"	"62,2/37,3"	"115/69"	185	stress_45	"POPTR_0001s36560.1"	519	"	"T/G"	"53,5/46,5"	"38/33"	71
stress_12bis	"POPTR_0009s05240.1"	60	"	"C/T"	"59,3/40,7"	"115/79"	194	stress_45	"POPTR_0009s05240.1"	60	"	"C/T"	"79,8/20,2"	"75/19"	94
stress_12bis	"POPTR_0001s36560.1"	1285	"	"A/G"	"56,9/43,1"	"115/87"	202	stress_42	"POPTR_0001s36560.1"	1285	"	"A/G"	"50,0/50,0"	"19/19"	38
stress_12bis	"POPTR_0001s36560.1"	1285	"	"A/G"	"56,9/43,1"	"115/87"	202	stress_45	"POPTR_0001s36560.1"	1285	"	"G/A"	"56,1/43,9"	"32/25"	57
stress_12bis	"POPTR_0002s25510.2"	292	"	"T/G"	"54,8/45,2"	"115/95"	210	stress_42	"POPTR_0002s25510.2"	292	"	"T/G"	"63,8/36,2"	"51/29"	80
stress_12bis	"POPTR_0002s25510.2"	292	"	"T/G"	"54,8/45,2"	"115/95"	210	stress_45	"POPTR_0002s25510.2"	292	"	"T/G"	"52,4/47,6"	"33/30"	63
stress_12bis	"POPTR_0009s09710.1"	597	"	"G/A"	"51,8/48,2"	"116/108"	224	stress_42	"POPTR_0009s09710.1"	597	"	"A/G"	"60,4/39,6"	"32/21"	53
stress_12bis	"POPTR_0009s09710.1"	597	"	"G/A"	"51,8/48,2"	"116/108"	224	stress_45	"POPTR_0009s09710.1"	597	"	"G/A"	"52,6/47,4"	"40/36"	76
stress_12bis	"POPTR_0004s01940.1"	342	"	"A/T"	"50,9/48,7"	"116/111"	228	stress_42	"POPTR_0004s01940.1"	342	"	"A/T"	"80,0/20,0"	"80/20"	100
stress_12bis	"POPTR_0004s01940.1"	342	"	"A/T"	"50,9/48,7"	"116/111"	228	stress_45	"POPTR_0004s01940.1"	342	"	"A/T"	"69,9/30,1"	"51/22"	73
stress_12bis	"POPTR_0010s20060.1"	699	"	"C/T"	"50,0/50,0"	"116/116"	232	stress_42	"POPTR_0010s20060.1"	699	"	"C/T"	"62,7/37,3"	"42/25"	67
stress_12bis	"POPTR_0010s20060.1"	699	"	"C/T"	"50,0/50,0"	"116/116"	232	stress_45	"POPTR_0010s20060.1"	699	"	"C/T"	"53,4/45,2"	"39/33"	73
stress_12bis	"POPTR_0017s05700.1"	240	"	"T/C"	"81,7/18,3"	"116/26"	142	stress_42	"POPTR_0017s05700.1"	240	"	"T/C"	"78,4/21,6"	"69/19"	88
stress_12bis	"POPTR_0017s05700.1"	240	"	"T/C"	"81,7/18,3"	"116/26"	142	stress_45	"POPTR_0017s05700.1"	240	"	"T/C"	"74,8/25,2"	"92/31"	123
stress_12bis	"POPTR_0014s13560.1"	1482	"	"T/A"	"68,6/30,2"	"116/51"	169	stress_42	"POPTR_0014s13560.1"	1482	"	"T/A"	"76,4/20,9"	"84/23"	110
stress_12bis	"POPTR_0014s13560.1"	1482	"	"T/A"	"68,6/30,2"	"116/51"	169	stress_45	"POPTR_0014s13560.1"	1482	"	"T/A"	"72,3/26,7"	"73/27"	101
stress_12bis	"POPTR_0010s20060.1"	348	"	"G/A"	"67,1/32,9"	"116/57"	173	stress_42	"POPTR_0010s20060.1"	348	"	"G/A"	"60,0/40,0"	"21/14"	35
stress_12bis	"POPTR_0010s20060.1"	348	"	"G/A"	"67,1/32,9"	"116/57"	173	stress_45	"POPTR_0010s20060.1"	348	"	"G/A"	"58,6/41,4"	"17/12"	29
stress_12bis	"POPTR_0009s09710.1"	1427	"	"C/T"	"57,1/42,9"	"116/87"	203	stress_42	"POPTR_0009s09710.1"	1427	"	"T/C"	"58,9/41,1"	"43/30"	73
stress_12bis	"POPTR_0009s09710.1"	1427	"	"C/T"	"57,1/42,9"	"116/87"	203	stress_45	"POPTR_0009s09710.1"	1427	"	"T/C"	"58,8/41,2"	"40/28"	68
stress_12bis	"POPTR_0004s01470.1"	300	"	"T/C"	"54,5/45,5"	"116/97"	213	stress_42	"POPTR_0004s01470.1"	300	"	"T/C"	"68,9/31,1"	"51/23"	74
stress_12bis	"POPTR_0004s01470.1"	300	"	"T/C"	"54,5/45,5"	"116/97"	213	stress_45	"POPTR_0004s01470.1"	300	"	"T/C"	"55,1/44,9"	"49/40"	89
stress_12bis	"POPTR_0014s13660.1"	195	"	"C/T"	"54,0/46,0"	"116/99"	215	stress_42	"POPTR_0014s13660.1"	195	"	"C/T"	"59,6/40,4"	"34/23"	57
stress_12bis	"POPTR_0014s13660.1"	195	"	"C/T"	"54,0/46,0"	"116/99"	215	stress_45	"POPTR_0014s13660.1"	195	"	"C/T"	"68,0/32,0"	"51/24"	75
stress_12bis	"POPTR_0004s16920.1"	903	"	"T/C"	"51,9/48,0"	"1161/1072"	2235	stress_42	"POPTR_0004s16920.1"	903	"	"C/T"	"54,4/45,6"	"142/119"	261
stress_12bis	"POPTR_0004s16920.1"	903	"	"T/C"	"51,9/48,0"	"1161/1072"	2235	stress_45	"POPTR_0004s16920.1"	903	"	"C/T"	"57,6/42,4"	"194/143"	337
stress_12bis	"POPTR_0004s09910.1"	243	"	"A/G"	"72,8/27,1"	"1166/434"	1601	stress_42	"POPTR_0004s09910.1"	243	"	"A/G"	"71,7/28,3"	"132/52"	184
stress_12bis	"POPTR_0004s09910.1"	243	"	"A/G"	"72,8/27,1"	"1166/434"	1601	stress_45	"POPTR_0004s09910.1"	243	"	"A/G"	"72,8/26,9"	"195/72"	268
stress_12bis	"POPTR_0010s05530.1"	1350	"	"G/A"	"52,5/47,5"	"117/106"	223	stress_42	"POPTR_0010s05530.1"	1350	"	"A/G"	"58,5/41,5"	"31/22"	53
stress_12bis	"POPTR_0010s05530.1"	1350	"	"G/A"	"52,5/47,5"	"117/106"	223	stress_45	"POPTR_0010s05530.1"	1350	"	"A/G"	"50,0/50,0"	"24/24"	48
stress_12bis	"POPTR_0010s07730.1"	91	"	"T/C"	"50,9/49,1"	"117/113"	230	stress_42	"POPTR_0010s07730.1"	91	"	"C/T"	"50,8/49,2"	"32/31"	63
stress_12bis	"POPTR_0010s07730.1"	91	"	"T/C"	"50,9/49,1"	"117/113"	230	stress_45	"POPTR_0010s07730.1"	91	"	"C/T"	"52,8/47,2"	"38/34"	72
stress_12bis	"POPTR_0009s09710.1"	439	"	"A/T"	"64,6/35,4"	"117/64"	181	stress_42	"POPTR_0009s09710.1"	439	"	"A/T"	"55,0/45,0"	"22/18"	40
stress_12bis	"POPTR_0009s09710.1"	439	"	"A/T"	"64,6/35,4"	"117/64"	181	stress_45	"POPTR_0009s09710.1"	439	"	"A/T"	"54,7/45,3"	"35/29"	64
stress_12bis	"POPTR_0004s03160.1"	270	"	"T/C"	"59,7/40,3"	"117/79"	196	stress_42	"POPTR_0004s03160.1"	270	"	"T/C"	"56,5/43,5"	"13/10"	23
stress_12bis	"POPTR_0004s03160.1"	270	"	"T/C"	"59,7/40,3"	"117/79"	196	stress_45	"POPTR_0004s03160.1"	270	"	"T/C"	"63,3/36,7"	"19/11"	30
stress_12bis	"POPTR_0004s16920.1"	976	"	"G/A"	"70,9/29,1"	"1179/483"	1662	stress_42	"POPTR_0004s16920.1"	976	"	"G/A"	"58,6/41,4"	"119/84"	203
stress_12bis	"POPTR_0004s16920.1"	976	"	"G/A"	"70,9/29,1"	"1179/483"	1662	stress_45	"POPTR_0004s16920.1"	976	"	"G/A"	"56,5/43,0"	"126/96"	223
stress_12bis	"POPTR_0008s15800.1"	162	"	"G/C"	"53,9/46,1"	"118/101"	219	stress_42	"POPTR_0008s15800.1"	162	"	"G/C"	"53,0/47,0"	"134/119"	253
stress_12bis	"POPTR_0008s15800.1"	162	"	"G/C"	"53,9/46,1"	"118/101"	219	stress_45	"POPTR_0008s15800.1"	162	"	"G/C"	"51,0/49,0"	"155/149"	304
stress_12bis	"POPTR_0002s14730.1"	1950	"	"G/A"	"53,4/46,6"	"118/103"	221	stress_42	"POPTR_0002s14730.1"	1950	"	"G/A"	"71,6/28,4"	"53/21"	74
stress_12bis	"POPTR_0002s14730.1"	1950	"	"G/A"	"53,4/46,6"	"118/103"	221	stress_45	"POPTR_0002s14730.1"	1950	"	"G/A"	"70,6/29,4"	"48/20"	68
stress_12bis	"POPTR_0009s05240.1"	939	"	"C/T"	"52,7/47,3"	"118/106"	224	stress_42	"POPTR_0009s05240.1"	939	"	"C/T"	"77,3/22,7"	"75/22"	97
stress_12bis	"POPTR_0009s05240.1"	939	"	"C/T"	"52,7/47,3"	"118/106"	224	stress_45	"POPTR_0009s05240.1"	939	"	"C/T"	"64,4/35,6"	"65/36"	101
stress_12bis	"POPTR_0008s03950.1"	675	"	"A/C"	"69,8/30,2"	"118/51"	169	stress_42	"POPTR_0008s03950.1"	675	"	"A/C"	"64,5/35,2"	"194/106"	301
stress_12bis	"POPTR_0008s03950.1"	675	"	"A/C"	"69,8/30,2"	"118/51"	169	stress_45	"POPTR_0008s03950.1"	675	"	"A/C"	"68,5/31,5"	"252/116"	368
stress_12bis	"POPTR_0008s20770.1"	291	"	"G/A"	"69,0/31,0"	"118/53"	171	stress_42	"POPTR_0008s20770.1"	291	"	"G/A"	"54,6/45,4"	"65/54"	119
stress_12bis	"POPTR_0008s20770.1"	291	"	"G/A"	"69,0/31,0"	"118/53"	171	stress_45	"POPTR_0008s20770.1"	291	"	"G/A"	"51,6/48,4"	"83/78"	161
stress_12bis	"POPTR_0008s08410.1"	1170	"	"A/C"	"59,0/41,0"	"118/82"	200	stress_42	"POPTR_0008s08410.1"	1170	"	"A/C"	"64,2/35,8"	"34/19"	53
stress_12bis	"POPTR_0008s08410.1"	1170	"	"A/C"	"59,0/41,0"	"118/82"	200	stress_45	"POPTR_0008s08410.1"	1170	"	"A/C"	"73,0/27,0"	"46/17"	63
stress_12bis	"POPTR_0010s20060.1"	390	"	"T/C"	"55,9/44,1"	"118/93"	211	stress_42	"POPTR_0010s20060.1"	390	"	"T/C"	"58,3/41,7"	"28/20"	48
stress_12bis	"POPTR_0010s20060.1"	390	"	"T/C"	"55,9/44,1"	"118/93"	211	stress_45	"POPTR_0010s20060.1"	390	"	"C/T"	"51,9/48,1"	"28/26"	54
stress_12bis	"POPTR_0014s17400.1"	627	"	"A/T"	"82,6/17,4"	"119/25"	144	stress_42	"POPTR_0014s17400.1"	627	"	"A/T"	"75,4/24,6"	"46/15"	61
stress_12bis	"POPTR_0014s17400.1"	627	"	"A/T"	"82,6/17,4"	"119/25"	144	stress_45	"POPTR_0014s17400.1"	627	"	"A/T"	"80,9/19,1"	"55/13"	68
stress_12bis	"POPTR_0012s11630.1"	219	"	"G/A"	"66,9/33,1"	"119/59"	178	stress_42	"POPTR_0012s11630.1"	219	"	"G/A"	"55,1/44,9"	"76/62"	138
stress_12bis	"POPTR_0012s11630.1"	219	"	"G/A"	"66,9/33,1"	"119/59"	178	stress_45	"POPTR_0012s11630.1"	219	"	"G/A"	"61,3/38,7"	"92/58"	150
stress_12bis	"POPTR_0009s09710.1"	1265	"	"C/T"	"61,0/39,0"	"119/76"	195	stress_42	"POPTR_0009s09710.1"	1265	"	"C/T"	"63,6/35,1"	"49/27"	77
stress_12bis	"POPTR_0009s09710.1"	1265	"	"C/T"	"61,0/39,0"	"119/76"	195	stress_45	"POPTR_0009s09710.1"	1265	"	"C/T"	"54,0/46,0"	"54/46"	100
stress_12bis	"POPTR_0018s09730.1"	387	"	"T/C"	"54,5/45,5"	"12/10"	22	stress_42	"POPTR_0018s09730.1"	387	"	"T/C"	"61,2/38,8"	"101/64"	165
stress_12bis	"POPTR_0018s09730.1"	387	"	"T/C"	"54,5/45,5"	"12/10"	22	stress_45	"POPTR_0018s09730.1"	387	"	"T/C"	"60,8/39,2"	"155/100"	255
stress_12bis	"POPTR_0018s09730.1"	390	"	"C/T"	"54,5/45,5"	"12/10"	22	stress_42	"POPTR_0018s09730.1"	390	"	"C/T"	"61,1/38,9"	"102/65"	167
stress_12bis	"POPTR_0018s09730.1"	390	"	"C/T"	"54,5/45,5"	"12/10"	22	stress_45	"POPTR_0018s09730.1"	390	"	"C/T"	"61,1/38,1"	"154/96"	252
stress_12bis	"POPTR_0001s40250.1"	2769	"	"T/A"	"54,5/45,5"	"12/10"	22	stress_42	"POPTR_0001s40250.1"	2769	"	"A/T"	"71,1/28,9"	"86/35"	121
stress_12bis	"POPTR_0001s40250.1"	2769	"	"T/A"	"54,5/45,5"	"12/10"	22	stress_45	"POPTR_0001s40250.1"	2769	"	"A/T"	"78,0/22,0"	"199/56"	255
stress_12bis	"POPTR_0016s08520.1"	90	"	"C/A"	"52,2/47,8"	"12/11"	23	stress_45	"POPTR_0016s08520.1"	90	"	"C/A"	"54,8/45,2"	"63/52"	115
stress_12bis	"POPTR_0001s14280.1"	483	"	"C/T"	"50,0/50,0"	"12/12"	24	stress_42	"POPTR_0001s14280.1"	483	"	"T/C"	"53,7/46,3"	"58/50"	108
stress_12bis	"POPTR_0001s14280.1"	483	"	"C/T"	"50,0/50,0"	"12/12"	24	stress_45	"POPTR_0001s14280.1"	483	"	"C/T"	"51,2/48,8"	"66/63"	129
stress_12bis	"POPTR_0017s14470.1"	870	"	"G/T"	"80,0/20,0"	"12/3"	15	stress_42	"POPTR_0017s14470.1"	870	"	"G/T"	"63,8/36,2"	"67/38"	105
stress_12bis	"POPTR_0017s14470.1"	870	"	"G/T"	"80,0/20,0"	"12/3"	15	stress_45	"POPTR_0017s14470.1"	870	"	"G/T"	"63,6/36,4"	"105/60"	165
stress_12bis	"POPTR_0017s00850.1"	780	"	"C/T"	"70,6/23,5"	"12/4"	17	stress_42	"POPTR_0017s00850.1"	780	"	"T/C"	"56,8/43,2"	"63/48"	111
stress_12bis	"POPTR_0017s00850.1"	780	"	"C/T"	"70,6/23,5"	"12/4"	17	stress_45	"POPTR_0017s00850.1"	780	"	"C/T"	"52,8/46,3"	"65/57"	123
stress_12bis	"POPTR_0017s14470.1"	534	"	"T/A"	"75,0/25,0"	"12/4"	16	stress_45	"POPTR_0017s14470.1"	534	"	"T/A"	"66,9/32,5"	"105/51"	157
stress_12bis	"POPTR_0014s15960.1"	842	"	"G/A"	"75,0/25,0"	"12/4"	16	stress_42	"POPTR_0014s15960.1"	842	"	"A/G"	"59,5/40,5"	"135/92"	227
stress_12bis	"POPTR_0014s15960.1"	842	"	"G/A"	"75,0/25,0"	"12/4"	16	stress_45	"POPTR_0014s15960.1"	842	"	"A/G"	"59,8/40,2"	"134/90"	224
stress_12bis	"POPTR_0008s04270.1"	747	"	"A/T"	"75,0/25,0"	"12/4"	16	stress_45	"POPTR_0008s04270.1"	747	"	"A/T"	"76,2/22,8"	"77/23"	101
stress_12bis	"POPTR_0017s14470.1"	492	"	"G/T"	"70,6/29,4"	"12/5"	17	stress_45	"POPTR_0017s14470.1"	492	"	"G/T"	"59,7/40,3"	"71/48"	119
stress_12bis	"POPTR_0019s14190.1"	312	"	"T/C"	"70,6/29,4"	"12/5"	17	stress_45	"POPTR_0019s14190.1"	312	"	"C/T"	"55,1/44,9"	"70/57"	127
stress_12bis	"POPTR_0014s14200.1"	244	"	"C/T"	"66,7/33,3"	"12/6"	18	stress_45	"POPTR_0014s14200.1"	244	"	"T/C"	"62,4/37,6"	"63/38"	101
stress_12bis	"POPTR_0001s40250.1"	1608	"	"C/G"	"66,7/33,3"	"12/6"	18	stress_45	"POPTR_0001s40250.1"	1608	"	"C/G"	"76,9/23,1"	"83/25"	108
stress_12bis	"POPTR_0019s14190.1"	231	"	"C/A"	"63,2/36,8"	"12/7"	19	stress_45	"POPTR_0019s14190.1"	231	"	"A/C"	"53,4/46,6"	"62/54"	116
stress_12bis	"POPTR_0009s05850.1"	246	"	"C/T"	"60,0/40,0"	"12/8"	20	stress_45	"POPTR_0009s05850.1"	246	"	"C/T"	"61,3/38,7"	"65/41"	106
stress_12bis	"POPTR_0018s09730.1"	1002	"	"T/C"	"57,1/42,9"	"12/9"	21	stress_42	"POPTR_0018s09730.1"	1002	"	"T/C"	"61,5/38,5"	"104/65"	169
stress_12bis	"POPTR_0018s09730.1"	1002	"	"T/C"	"57,1/42,9"	"12/9"	21	stress_45	"POPTR_0018s09730.1"	1002	"	"T/C"	"58,4/41,6"	"143/102"	245
stress_12bis	"POPTR_0014s14200.1"	636	"	"T/G"	"57,1/42,9"	"12/9"	21	stress_45	"POPTR_0014s14200.1"	636	"	"T/G"	"65,6/34,4"	"80/42"	122
stress_12bis	"POPTR_0001s40250.1"	2542	"	"C/G"	"57,1/42,9"	"12/9"	21	stress_45	"POPTR_0001s40250.1"	2542	"	"C/G"	"65,7/34,3"	"94/49"	143
stress_12bis	"POPTR_0010s00900.1"	259	"	"A/G"	"57,1/42,9"	"12/9"	21	stress_42	"POPTR_0010s00900.1"	259	"	"A/G"	"52,8/47,2"	"93/83"	176
stress_12bis	"POPTR_0010s00900.1"	259	"	"A/G"	"57,1/42,9"	"12/9"	21	stress_45	"POPTR_0010s00900.1"	259	"	"A/G"	"57,8/42,2"	"107/78"	185
stress_12bis	"POPTR_0013s10250.1"	165	"	"T/C"	"51,7/46,6"	"120/108"	232	stress_42	"POPTR_0013s10250.1"	165	"	"C/T"	"58,9/41,1"	"43/30"	73
stress_12bis	"POPTR_0013s10250.1"	165	"	"T/C"	"51,7/46,6"	"120/108"	232	stress_45	"POPTR_0013s10250.1"	165	"	"C/T"	"63,4/36,6"	"59/34"	93
stress_12bis	"POPTR_0009s05240.1"	803	"	"C/A"	"51,3/48,7"	"120/114"	234	stress_42	"POPTR_0009s05240.1"	803	"	"C/A"	"73,3/26,7"	"66/24"	90
stress_12bis	"POPTR_0009s05240.1"	803	"	"C/A"	"51,3/48,7"	"120/114"	234	stress_45	"POPTR_0009s05240.1"	803	"	"C/A"	"74,3/24,8"	"75/25"	101
stress_12bis	"POPTR_0010s26200.1"	358	"	"G/T"	"60,9/39,1"	"120/77"	197	stress_42	"POPTR_0010s26200.1"	358	"	"G/T"	"59,7/40,3"	"40/27"	67
stress_12bis	"POPTR_0010s26200.1"	358	"	"G/T"	"60,9/39,1"	"120/77"	197	stress_45	"POPTR_0010s26200.1"	358	"	"G/T"	"74,2/25,8"	"46/16"	62
stress_12bis	"POPTR_0004s09910.1"	99	"	"T/G"	"50,8/48,9"	"1204/1160"	2371	stress_42	"POPTR_0004s09910.1"	99	"	"T/G"	"54,1/45,9"	"113/96"	209
stress_12bis	"POPTR_0004s09910.1"	99	"	"T/G"	"50,8/48,9"	"1204/1160"	2371	stress_45	"POPTR_0004s09910.1"	99	"	"T/G"	"50,4/49,3"	"175/171"	347
stress_12bis	"POPTR_0002s14730.1"	1184	"	"T/C"	"52,6/47,4"	"121/109"	230	stress_42	"POPTR_0002s14730.1"	1184	"	"T/C"	"66,7/33,3"	"16/8"	24
stress_12bis	"POPTR_0002s14730.1"	1184	"	"T/C"	"52,6/47,4"	"121/109"	230	stress_45	"POPTR_0002s14730.1"	1184	"	"C/T"	"56,4/43,6"	"31/24"	55
stress_12bis	"POPTR_0014s00810.1"	183	"	"T/C"	"52,2/47,8"	"121/111"	232	stress_42	"POPTR_0014s00810.1"	183	"	"T/C"	"75,9/24,1"	"242/77"	319
stress_12bis	"POPTR_0014s00810.1"	183	"	"T/C"	"52,2/47,8"	"121/111"	232	stress_45	"POPTR_0014s00810.1"	183	"	"T/C"	"81,5/18,5"	"150/34"	184
stress_12bis	"POPTR_0010s22790.1"	418	"	"A/G"	"52,2/47,8"	"121/111"	232	stress_42	"POPTR_0010s22790.1"	418	"	"G/A"	"55,1/44,9"	"43/35"	78
stress_12bis	"POPTR_0010s22790.1"	418	"	"A/G"	"52,2/47,8"	"121/111"	232	stress_45	"POPTR_0010s22790.1"	418	"	"A/G"	"58,7/41,3"	"61/43"	104
stress_12bis	"POPTR_0013s10250.1"	99	"	"C/A"	"51,3/48,3"	"121/114"	236	stress_42	"POPTR_0013s10250.1"	99	"	"C/A"	"69,0/31,0"	"58/26"	84
stress_12bis	"POPTR_0013s10250.1"	99	"	"C/A"	"51,3/48,3"	"121/114"	236	stress_45	"POPTR_0013s10250.1"	99	"	"C/A"	"67,0/33,0"	"75/37"	112
stress_12bis	"POPTR_0006s14630.1"	138	"	"T/G"	"51,1/48,9"	"121/116"	237	stress_42	"POPTR_0006s14630.1"	138	"	"T/G"	"59,3/40,7"	"70/48"	118
stress_12bis	"POPTR_0006s14630.1"	138	"	"T/G"	"51,1/48,9"	"121/116"	237	stress_45	"POPTR_0006s14630.1"	138	"	"T/G"	"52,0/48,0"	"39/36"	75
stress_12bis	"POPTR_0001s21140.1"	486	"	"G/T"	"50,0/50,0"	"121/121"	242	stress_42	"POPTR_0001s21140.1"	486	"	"T/G"	"57,1/42,9"	"24/18"	42
stress_12bis	"POPTR_0001s21140.1"	486	"	"G/T"	"50,0/50,0"	"121/121"	242	stress_45	"POPTR_0001s21140.1"	486	"	"T/G"	"51,9/46,2"	"27/24"	52
stress_12bis	"POPTR_0010s21280.1"	741	"	"T/C"	"74,7/25,3"	"121/41"	162	stress_42	"POPTR_0010s21280.1"	741	"	"T/C"	"78,4/21,6"	"40/11"	51
stress_12bis	"POPTR_0010s21280.1"	741	"	"T/C"	"74,7/25,3"	"121/41"	162	stress_45	"POPTR_0010s21280.1"	741	"	"T/C"	"71,3/28,7"	"124/50"	174
stress_12bis	"POPTR_0002s25260.1"	29	"	"C/G"	"69,1/30,9"	"121/54"	175	stress_42	"POPTR_0002s25260.1"	29	"	"C/G"	"56,7/43,3"	"85/65"	150
stress_12bis	"POPTR_0002s25260.1"	29	"	"C/G"	"69,1/30,9"	"121/54"	175	stress_45	"POPTR_0002s25260.1"	29	"	"C/G"	"50,6/49,4"	"118/115"	233
stress_12bis	"POPTR_0018s01830.1"	150	"	"C/G"	"68,8/31,2"	"121/55"	176	stress_42	"POPTR_0018s01830.1"	150	"	"C/G"	"65,9/34,1"	"29/15"	44
stress_12bis	"POPTR_0018s01830.1"	150	"	"C/G"	"68,8/31,2"	"121/55"	176	stress_45	"POPTR_0018s01830.1"	150	"	"C/G"	"53,5/46,5"	"38/33"	71
stress_12bis	"POPTR_0008s05480.1"	1353	"	"T/C"	"56,3/43,7"	"121/94"	215	stress_42	"POPTR_0008s05480.1"	1353	"	"T/C"	"54,7/45,3"	"81/67"	148
stress_12bis	"POPTR_0008s05480.1"	1353	"	"T/C"	"56,3/43,7"	"121/94"	215	stress_45	"POPTR_0008s05480.1"	1353	"	"T/C"	"54,0/46,0"	"208/177"	385
stress_12bis	"POPTR_0004s16920.1"	972	"	"G/A"	"71,2/28,8"	"1218/492"	1710	stress_42	"POPTR_0004s16920.1"	972	"	"G/A"	"58,7/41,3"	"121/85"	206
stress_12bis	"POPTR_0004s16920.1"	972	"	"G/A"	"71,2/28,8"	"1218/492"	1710	stress_45	"POPTR_0004s16920.1"	972	"	"G/A"	"55,3/44,7"	"126/102"	228
stress_12bis	"POPTR_0004s09910.1"	248	"	"A/C"	"74,1/25,7"	"1219/423"	1644	stress_42	"POPTR_0004s09910.1"	248	"	"A/C"	"81,7/18,3"	"179/40"	219
stress_12bis	"POPTR_0004s09910.1"	248	"	"A/C"	"74,1/25,7"	"1219/423"	1644	stress_45	"POPTR_0004s09910.1"	248	"	"A/C"	"76,0/24,0"	"209/66"	275
stress_12bis	"POPTR_0010s20060.1"	693	"	"A/C"	"54,2/45,8"	"122/103"	225	stress_42	"POPTR_0010s20060.1"	693	"	"A/C"	"59,2/40,8"	"29/20"	49
stress_12bis	"POPTR_0010s20060.1"	693	"	"A/C"	"54,2/45,8"	"122/103"	225	stress_45	"POPTR_0010s20060.1"	693	"	"A/C"	"50,0/50,0"	"28/28"	56
stress_12bis	"POPTR_0002s01740.1"	339	"	"C/T"	"54,2/45,8"	"122/103"	225	stress_42	"POPTR_0002s01740.1"	339	"	"C/T"	"58,7/41,3"	"44/31"	75
stress_12bis	"POPTR_0002s01740.1"	339	"	"C/T"	"54,2/45,8"	"122/103"	225	stress_45	"POPTR_0002s01740.1"	339	"	"T/C"	"58,1/41,9"	"36/26"	62
stress_12bis	"POPTR_0010s21280.1"	1449	"	"C/T"	"71,3/28,7"	"122/49"	171	stress_42	"POPTR_0010s21280.1"	1449	"	"C/T"	"80,4/19,6"	"45/11"	56
stress_12bis	"POPTR_0010s21280.1"	1449	"	"C/T"	"71,3/28,7"	"122/49"	171	stress_45	"POPTR_0010s21280.1"	1449	"	"C/T"	"73,0/27,0"	"92/34"	126
stress_12bis	"POPTR_0009s01320.1"	1077	"	"T/G"	"65,6/33,9"	"122/63"	186	stress_42	"POPTR_0009s01320.1"	1077	"	"T/G"	"64,1/35,9"	"143/80"	223
stress_12bis	"POPTR_0009s01320.1"	1077	"	"T/G"	"65,6/33,9"	"122/63"	186	stress_45	"POPTR_0009s01320.1"	1077	"	"T/G"	"59,8/40,2"	"150/101"	251
stress_12bis	"POPTR_0016s12370.1"	690	"	"A/G"	"60,7/39,3"	"122/79"	201	stress_42	"POPTR_0016s12370.1"	690	"	"A/G"	"64,3/35,7"	"83/46"	129
stress_12bis	"POPTR_0016s12370.1"	690	"	"A/G"	"60,7/39,3"	"122/79"	201	stress_45	"POPTR_0016s12370.1"	690	"	"A/G"	"80,2/19,8"	"130/32"	162
stress_12bis	"POPTR_0021s00380.1"	1176	"	"G/A"	"58,4/41,6"	"122/87"	209	stress_42	"POPTR_0021s00380.1"	1176	"	"A/G"	"50,0/50,0"	"17/17"	34
stress_12bis	"POPTR_0021s00380.1"	1176	"	"G/A"	"58,4/41,6"	"122/87"	209	stress_45	"POPTR_0021s00380.1"	1176	"	"A/G"	"54,8/45,2"	"23/19"	42
stress_12bis	"POPTR_0001s41080.1"	65	"	"A/T"	"53,2/46,8"	"1225/1079"	2304	stress_42	"POPTR_0001s41080.1"	65	"	"A/T"	"65,6/34,4"	"1650/864"	2515
stress_12bis	"POPTR_0001s41080.1"	65	"	"A/T"	"53,2/46,8"	"1225/1079"	2304	stress_45	"POPTR_0001s41080.1"	65	"	"A/T"	"66,6/33,4"	"1423/714"	2138
stress_12bis	"POPTR_0010s20060.1"	756	"	"T/C"	"53,2/46,8"	"123/108"	231	stress_42	"POPTR_0010s20060.1"	756	"	"C/T"	"54,5/45,5"	"30/25"	55
stress_12bis	"POPTR_0010s20060.1"	756	"	"T/C"	"53,2/46,8"	"123/108"	231	stress_45	"POPTR_0010s20060.1"	756	"	"C/T"	"56,4/43,6"	"31/24"	55
stress_12bis	"POPTR_0001s21140.1"	705	"	"T/C"	"53,0/47,0"	"123/109"	232	stress_42	"POPTR_0001s21140.1"	705	"	"C/T"	"50,0/50,0"	"22/22"	44
stress_12bis	"POPTR_0001s21140.1"	705	"	"T/C"	"53,0/47,0"	"123/109"	232	stress_45	"POPTR_0001s21140.1"	705	"	"T/C"	"76,1/23,9"	"35/11"	46
stress_12bis	"POPTR_0009s09710.1"	613	"	"G/A"	"52,6/47,0"	"123/110"	234	stress_42	"POPTR_0009s09710.1"	613	"	"A/G"	"53,1/46,9"	"34/30"	64
stress_12bis	"POPTR_0009s09710.1"	613	"	"G/A"	"52,6/47,0"	"123/110"	234	stress_45	"POPTR_0009s09710.1"	613	"	"G/A"	"56,2/43,8"	"45/35"	80
stress_12bis	"POPTR_0013s10250.1"	96	"	"C/T"	"51,5/48,5"	"123/116"	239	stress_42	"POPTR_0013s10250.1"	96	"	"C/T"	"67,1/32,9"	"57/28"	85
stress_12bis	"POPTR_0013s10250.1"	96	"	"C/T"	"51,5/48,5"	"123/116"	239	stress_45	"POPTR_0013s10250.1"	96	"	"C/T"	"67,5/32,5"	"77/37"	114
stress_12bis	"POPTR_0018s01830.1"	278	"	"T/C"	"72,8/27,2"	"123/46"	169	stress_42	"POPTR_0018s01830.1"	278	"	"C/T"	"50,9/49,1"	"27/26"	53
stress_12bis	"POPTR_0018s01830.1"	278	"	"T/C"	"72,8/27,2"	"123/46"	169	stress_45	"POPTR_0018s01830.1"	278	"	"C/T"	"54,3/45,7"	"38/32"	70
stress_12bis	"POPTR_0009s08520.1"	738	"	"A/C"	"58,6/41,4"	"123/87"	210	stress_42	"POPTR_0009s08520.1"	738	"	"C/A"	"55,9/44,1"	"19/15"	34
stress_12bis	"POPTR_0009s08520.1"	738	"	"A/C"	"58,6/41,4"	"123/87"	210	stress_45	"POPTR_0009s08520.1"	738	"	"A/C"	"50,0/50,0"	"13/13"	26
stress_12bis	"POPTR_0008s18230.1"	120	"	"A/G"	"51,2/48,8"	"124/118"	242	stress_42	"POPTR_0008s18230.1"	120	"	"G/A"	"52,8/47,2"	"66/59"	125
stress_12bis	"POPTR_0008s18230.1"	120	"	"A/G"	"51,2/48,8"	"124/118"	242	stress_45	"POPTR_0008s18230.1"	120	"	"A/G"	"53,2/46,8"	"41/36"	77
stress_12bis	"POPTR_0001s35230.1"	321	"	"T/A"	"66,7/33,3"	"124/62"	186	stress_42	"POPTR_0001s35230.1"	321	"	"T/A"	"66,2/33,8"	"43/22"	65
stress_12bis	"POPTR_0001s35230.1"	321	"	"T/A"	"66,7/33,3"	"124/62"	186	stress_45	"POPTR_0001s35230.1"	321	"	"T/A"	"66,1/33,9"	"84/43"	127
stress_12bis	"POPTR_0002s01320.1"	255	"	"T/A"	"61,4/38,1"	"124/77"	202	stress_42	"POPTR_0002s01320.1"	255	"	"A/T"	"51,1/46,7"	"23/21"	45
stress_12bis	"POPTR_0002s01320.1"	255	"	"T/A"	"61,4/38,1"	"124/77"	202	stress_45	"POPTR_0002s01320.1"	255	"	"T/A"	"50,5/48,5"	"51/49"	101
stress_12bis	"POPTR_0008s05480.1"	1852	"	"A/C"	"53,9/46,1"	"125/107"	232	stress_42	"POPTR_0008s05480.1"	1852	"	"C/A"	"52,6/47,4"	"92/83"	175
stress_12bis	"POPTR_0008s05480.1"	1852	"	"A/C"	"53,9/46,1"	"125/107"	232	stress_45	"POPTR_0008s05480.1"	1852	"	"C/A"	"51,8/48,2"	"189/176"	365
stress_12bis	"POPTR_0006s10040.1"	235	"	"C/T"	"51,0/49,0"	"125/120"	245	stress_42	"POPTR_0006s10040.1"	235	"	"T/C"	"52,5/47,5"	"42/38"	80
stress_12bis	"POPTR_0006s10040.1"	235	"	"C/T"	"51,0/49,0"	"125/120"	245	stress_45	"POPTR_0006s10040.1"	235	"	"T/C"	"59,5/40,5"	"47/32"	79
stress_12bis	"POPTR_0014s13560.1"	915	"	"C/T"	"74,0/26,0"	"125/44"	169	stress_42	"POPTR_0014s13560.1"	915	"	"C/T"	"82,8/17,2"	"72/15"	87
stress_12bis	"POPTR_0014s13560.1"	915	"	"C/T"	"74,0/26,0"	"125/44"	169	stress_45	"POPTR_0014s13560.1"	915	"	"C/T"	"64,5/35,5"	"80/44"	124
stress_12bis	"POPTR_0014s11210.1"	343	"	"A/G"	"72,3/27,7"	"125/48"	173	stress_42	"POPTR_0014s11210.1"	343	"	"G/A"	"54,8/45,2"	"34/28"	62
stress_12bis	"POPTR_0014s11210.1"	343	"	"A/G"	"72,3/27,7"	"125/48"	173	stress_45	"POPTR_0014s11210.1"	343	"	"A/G"	"63,8/36,2"	"51/29"	80
stress_12bis	"POPTR_0002s14730.1"	601	"	"A/G"	"68,7/31,3"	"125/57"	182	stress_42	"POPTR_0002s14730.1"	601	"	"G/A"	"77,2/22,8"	"44/13"	57
stress_12bis	"POPTR_0002s14730.1"	601	"	"A/G"	"68,7/31,3"	"125/57"	182	stress_45	"POPTR_0002s14730.1"	601	"	"G/A"	"70,8/29,2"	"75/31"	106
stress_12bis	"POPTR_0009s01320.1"	210	"	"C/T"	"62,2/37,8"	"125/76"	201	stress_42	"POPTR_0009s01320.1"	210	"	"C/T"	"66,5/33,5"	"115/58"	173
stress_12bis	"POPTR_0009s01320.1"	210	"	"C/T"	"62,2/37,8"	"125/76"	201	stress_45	"POPTR_0009s01320.1"	210	"	"C/T"	"61,8/38,2"	"155/96"	251
stress_12bis	"POPTR_0008s05480.1"	1833	"	"T/C"	"56,3/43,7"	"125/97"	222	stress_42	"POPTR_0008s05480.1"	1833	"	"C/T"	"54,3/45,7"	"94/79"	173
stress_12bis	"POPTR_0008s05480.1"	1833	"	"T/C"	"56,3/43,7"	"125/97"	222	stress_45	"POPTR_0008s05480.1"	1833	"	"C/T"	"52,4/47,6"	"188/171"	359
stress_12bis	"POPTR_0011s11960.1"	20	"	"C/A"	"61,9/38,0"	"1253/770"	2024	stress_42	"POPTR_0011s11960.1"	20	"	"A/C"	"71,4/28,5"	"4337/1731"	6071
stress_12bis	"POPTR_0011s11960.1"	20	"	"C/A"	"61,9/38,0"	"1253/770"	2024	stress_45	"POPTR_0011s11960.1"	20	"	"A/C"	"68,7/31,2"	"3548/1611"	5161
stress_12bis	"POPTR_0001s38810.1"	402	"	"A/G"	"55,0/45,0"	"126/103"	229	stress_42	"POPTR_0001s38810.1"	402	"	"G/A"	"59,2/40,8"	"193/133"	326
stress_12bis	"POPTR_0001s38810.1"	402	"	"A/G"	"55,0/45,0"	"126/103"	229	stress_45	"POPTR_0001s38810.1"	402	"	"G/A"	"60,0/40,0"	"255/170"	425
stress_12bis	"POPTR_0005s13860.1"	674	"	"G/A"	"54,1/45,9"	"126/107"	233	stress_42	"POPTR_0005s13860.1"	674	"	"G/A"	"55,1/44,9"	"38/31"	69
stress_12bis	"POPTR_0005s13860.1"	674	"	"G/A"	"54,1/45,9"	"126/107"	233	stress_45	"POPTR_0005s13860.1"	674	"	"G/A"	"61,4/38,6"	"51/32"	83
stress_12bis	"POPTR_0008s18230.1"	118	"	"A/C"	"51,9/48,1"	"126/117"	243	stress_42	"POPTR_0008s18230.1"	118	"	"C/A"	"52,5/47,5"	"64/58"	122
stress_12bis	"POPTR_0008s18230.1"	118	"	"A/C"	"51,9/48,1"	"126/117"	243	stress_45	"POPTR_0008s18230.1"	118	"	"C/A"	"52,5/47,5"	"42/38"	80
stress_12bis	"POPTR_0003s12160.1"	201	"	"C/T"	"50,4/49,6"	"126/124"	250	stress_42	"POPTR_0003s12160.1"	201	"	"C/T"	"62,1/37,9"	"36/22"	58
stress_12bis	"POPTR_0003s12160.1"	201	"	"C/T"	"50,4/49,6"	"126/124"	250	stress_45	"POPTR_0003s12160.1"	201	"	"T/C"	"55,3/44,7"	"57/46"	103
stress_12bis	"POPTR_0010s22790.1"	453	"	"T/G"	"81,3/18,7"	"126/29"	155	stress_42	"POPTR_0010s22790.1"	453	"	"T/G"	"76,0/24,0"	"38/12"	50
stress_12bis	"POPTR_0003s12160.1"	85	"	"C/A"	"74,1/25,9"	"126/44"	170	stress_42	"POPTR_0003s12160.1"	85	"	"C/A"	"72,5/27,5"	"29/11"	40
stress_12bis	"POPTR_0003s12160.1"	85	"	"C/A"	"74,1/25,9"	"126/44"	170	stress_45	"POPTR_0003s12160.1"	85	"	"C/A"	"70,3/29,7"	"45/19"	64
stress_12bis	"POPTR_0009s09710.1"	1279	"	"T/G"	"73,7/26,3"	"126/45"	171	stress_42	"POPTR_0009s09710.1"	1279	"	"T/G"	"76,8/23,2"	"63/19"	82
stress_12bis	"POPTR_0009s09710.1"	1279	"	"T/G"	"73,7/26,3"	"126/45"	171	stress_45	"POPTR_0009s09710.1"	1279	"	"T/G"	"68,4/30,3"	"52/23"	76
stress_12bis	"POPTR_0006s23890.1"	337	"	"G/C"	"71,2/28,8"	"126/51"	177	stress_42	"POPTR_0006s23890.1"	337	"	"G/C"	"66,2/33,8"	"47/24"	71
stress_12bis	"POPTR_0006s23890.1"	337	"	"G/C"	"71,2/28,8"	"126/51"	177	stress_45	"POPTR_0006s23890.1"	337	"	"G/C"	"65,2/34,8"	"43/23"	66
stress_12bis	"POPTR_0009s08520.1"	498	"	"G/T"	"65,6/34,4"	"126/66"	192	stress_42	"POPTR_0009s08520.1"	498	"	"G/T"	"57,1/42,9"	"12/9"	21
stress_12bis	"POPTR_0009s08520.1"	498	"	"G/T"	"65,6/34,4"	"126/66"	192	stress_45	"POPTR_0009s08520.1"	498	"	"T/G"	"57,7/42,3"	"15/11"	26
stress_12bis	"POPTR_0014s00810.1"	153	"	"A/G"	"52,3/47,7"	"127/116"	243	stress_42	"POPTR_0014s00810.1"	153	"	"A/G"	"83,5/16,5"	"269/53"	322
stress_12bis	"POPTR_0014s00810.1"	153	"	"A/G"	"52,3/47,7"	"127/116"	243	stress_45	"POPTR_0014s00810.1"	153	"	"A/G"	"80,6/19,4"	"199/48"	247
stress_12bis	"POPTR_0016s12370.1"	573	"	"G/A"	"61,4/38,2"	"127/79"	207	stress_42	"POPTR_0016s12370.1"	573	"	"G/A"	"76,1/23,9"	"70/22"	92
stress_12bis	"POPTR_0016s12370.1"	573	"	"G/A"	"61,4/38,2"	"127/79"	207	stress_45	"POPTR_0016s12370.1"	573	"	"G/A"	"74,6/25,4"	"91/31"	122
stress_12bis	"POPTR_0004s03160.1"	433	"	"G/C"	"60,8/39,2"	"127/82"	209	stress_42	"POPTR_0004s03160.1"	433	"	"G/C"	"71,1/28,9"	"27/11"	38
stress_12bis	"POPTR_0004s03160.1"	433	"	"G/C"	"60,8/39,2"	"127/82"	209	stress_45	"POPTR_0004s03160.1"	433	"	"G/C"	"65,0/35,0"	"13/7"	20
stress_12bis	"POPTR_0009s05240.1"	1059	"	"C/T"	"54,5/45,5"	"128/107"	235	stress_42	"POPTR_0009s05240.1"	1059	"	"C/T"	"73,3/26,7"	"85/31"	116
stress_12bis	"POPTR_0009s05240.1"	1059	"	"C/T"	"54,5/45,5"	"128/107"	235	stress_45	"POPTR_0009s05240.1"	1059	"	"C/T"	"68,9/31,1"	"82/37"	119
stress_12bis	"POPTR_0004s01470.1"	456	"	"T/A"	"52,7/47,3"	"128/115"	243	stress_42	"POPTR_0004s01470.1"	456	"	"T/A"	"56,3/43,7"	"40/31"	71
stress_12bis	"POPTR_0004s01470.1"	456	"	"T/A"	"52,7/47,3"	"128/115"	243	stress_45	"POPTR_0004s01470.1"	456	"	"T/A"	"54,7/43,2"	"52/41"	95
stress_12bis	"POPTR_0006s23890.1"	39	"	"G/A"	"71,5/28,5"	"128/51"	179	stress_42	"POPTR_0006s23890.1"	39	"	"G/A"	"72,0/28,0"	"72/28"	100
stress_12bis	"POPTR_0006s23890.1"	39	"	"G/A"	"71,5/28,5"	"128/51"	179	stress_45	"POPTR_0006s23890.1"	39	"	"G/A"	"77,1/22,9"	"64/19"	83
stress_12bis	"POPTR_0008s22310.1"	168	"	"C/G"	"66,7/32,8"	"128/63"	192	stress_42	"POPTR_0008s22310.1"	168	"	"C/G"	"62,8/37,2"	"54/32"	86
stress_12bis	"POPTR_0008s22310.1"	168	"	"C/G"	"66,7/32,8"	"128/63"	192	stress_45	"POPTR_0008s22310.1"	168	"	"C/G"	"51,3/48,7"	"58/55"	113
stress_12bis	"POPTR_0010s20060.1"	754	"	"G/A"	"54,2/45,8"	"129/109"	238	stress_42	"POPTR_0010s20060.1"	754	"	"A/G"	"52,5/47,5"	"31/28"	59
stress_12bis	"POPTR_0010s20060.1"	754	"	"G/A"	"54,2/45,8"	"129/109"	238	stress_45	"POPTR_0010s20060.1"	754	"	"A/G"	"55,0/45,0"	"33/27"	60
stress_12bis	"POPTR_0002s01320.1"	1761	"	"A/T"	"50,8/49,2"	"129/125"	254	stress_42	"POPTR_0002s01320.1"	1761	"	"A/T"	"50,0/49,0"	"52/51"	104
stress_12bis	"POPTR_0002s01320.1"	1761	"	"A/T"	"50,8/49,2"	"129/125"	254	stress_45	"POPTR_0002s01320.1"	1761	"	"T/A"	"53,9/46,1"	"83/71"	154
stress_12bis	"POPTR_0021s00380.1"	1170	"	"C/T"	"58,1/41,0"	"129/91"	222	stress_42	"POPTR_0021s00380.1"	1170	"	"C/T"	"50,0/50,0"	"18/18"	36
stress_12bis	"POPTR_0021s00380.1"	1170	"	"C/T"	"58,1/41,0"	"129/91"	222	stress_45	"POPTR_0021s00380.1"	1170	"	"C/T"	"51,2/48,8"	"22/21"	43
stress_12bis	"POPTR_0007s14750.1"	101	"	"G/T"	"56,5/43,5"	"13/10"	23	stress_42	"POPTR_0007s14750.1"	101	"	"G/T"	"57,8/42,2"	"63/46"	109
stress_12bis	"POPTR_0007s14750.1"	101	"	"G/T"	"56,5/43,5"	"13/10"	23	stress_45	"POPTR_0007s14750.1"	101	"	"G/T"	"65,2/34,8"	"73/39"	112
stress_12bis	"POPTR_0009s05850.1"	534	"	"C/T"	"54,2/45,8"	"13/11"	24	stress_45	"POPTR_0009s05850.1"	534	"	"T/C"	"60,2/39,8"	"65/43"	108
stress_12bis	"POPTR_0015s13050.1"	93	"	"T/A"	"54,2/45,8"	"13/11"	24	stress_45	"POPTR_0015s13050.1"	93	"	"A/T"	"58,4/41,6"	"87/62"	149
stress_12bis	"POPTR_0002s08150.1"	815	"	"G/A"	"54,2/45,8"	"13/11"	24	stress_45	"POPTR_0002s08150.1"	815	"	"A/G"	"50,8/49,2"	"66/64"	130
stress_12bis	"POPTR_0011s12400.1"	990	"	"T/C"	"52,0/48,0"	"13/12"	25	stress_42	"POPTR_0011s12400.1"	990	"	"C/T"	"50,8/48,7"	"101/97"	199
stress_12bis	"POPTR_0011s12400.1"	990	"	"T/C"	"52,0/48,0"	"13/12"	25	stress_45	"POPTR_0011s12400.1"	990	"	"C/T"	"56,2/43,8"	"99/77"	176
stress_12bis	"POPTR_0001s40250.1"	2370	"	"G/C"	"52,0/48,0"	"13/12"	25	stress_45	"POPTR_0001s40250.1"	2370	"	"G/C"	"76,0/24,0"	"152/48"	200
stress_12bis	"POPTR_0015s13050.1"	554	"	"A/C"	"50,0/50,0"	"13/13"	26	stress_45	"POPTR_0015s13050.1"	554	"	"A/C"	"59,3/40,7"	"80/55"	135
stress_12bis	"POPTR_0002s19060.1"	1097	"	"T/A"	"81,2/18,8"	"13/3"	16	stress_45	"POPTR_0002s19060.1"	1097	"	"T/A"	"57,1/42,9"	"72/54"	126
stress_12bis	"POPTR_0017s14470.1"	1092	"	"G/A"	"76,5/23,5"	"13/4"	17	stress_42	"POPTR_0017s14470.1"	1092	"	"G/A"	"78,5/21,5"	"84/23"	107
stress_12bis	"POPTR_0017s14470.1"	1092	"	"G/A"	"76,5/23,5"	"13/4"	17	stress_45	"POPTR_0017s14470.1"	1092	"	"G/A"	"74,0/26,0"	"97/34"	131
stress_12bis	"POPTR_0017s00850.1"	779	"	"C/A"	"72,2/27,8"	"13/5"	18	stress_42	"POPTR_0017s00850.1"	779	"	"A/C"	"57,1/41,9"	"60/44"	105
stress_12bis	"POPTR_0017s00850.1"	779	"	"C/A"	"72,2/27,8"	"13/5"	18	stress_45	"POPTR_0017s00850.1"	779	"	"C/A"	"51,7/48,3"	"60/56"	116
stress_12bis	"POPTR_0014s15960.1"	624	"	"T/C"	"72,2/27,8"	"13/5"	18	stress_42	"POPTR_0014s15960.1"	624	"	"C/T"	"63,8/36,2"	"127/72"	199
stress_12bis	"POPTR_0014s15960.1"	624	"	"T/C"	"72,2/27,8"	"13/5"	18	stress_45	"POPTR_0014s15960.1"	624	"	"C/T"	"63,4/36,6"	"109/63"	172
stress_12bis	"POPTR_0002s09480.1"	877	"	"C/T"	"68,4/31,6"	"13/6"	19	stress_45	"POPTR_0002s09480.1"	877	"	"C/T"	"67,0/33,0"	"77/38"	115
stress_12bis	"POPTR_0017s08610.1"	204	"	"C/T"	"65,0/35,0"	"13/7"	20	stress_45	"POPTR_0017s08610.1"	204	"	"C/T"	"65,6/33,9"	"126/65"	192
stress_12bis	"POPTR_0001s40250.1"	2554	"	"C/G"	"61,9/38,1"	"13/8"	21	stress_45	"POPTR_0001s40250.1"	2554	"	"C/G"	"72,6/27,4"	"122/46"	168
stress_12bis	"POPTR_0002s19060.1"	1053	"	"G/A"	"61,9/38,1"	"13/8"	21	stress_45	"POPTR_0002s19060.1"	1053	"	"G/A"	"52,8/47,2"	"57/51"	108
stress_12bis	"POPTR_0001s14280.1"	243	"	"G/A"	"59,1/40,9"	"13/9"	22	stress_45	"POPTR_0001s14280.1"	243	"	"A/G"	"50,6/49,4"	"87/85"	172
stress_12bis	"POPTR_0010s07730.1"	72	"	"C/T"	"53,5/46,5"	"130/113"	243	stress_42	"POPTR_0010s07730.1"	72	"	"T/C"	"52,9/47,1"	"45/40"	85
stress_12bis	"POPTR_0010s07730.1"	72	"	"C/T"	"53,5/46,5"	"130/113"	243	stress_45	"POPTR_0010s07730.1"	72	"	"T/C"	"57,1/42,9"	"40/30"	70
stress_12bis	"POPTR_0001s11600.1"	378	"	"T/C"	"52,6/46,6"	"130/115"	247	stress_42	"POPTR_0001s11600.1"	378	"	"T/C"	"57,9/42,1"	"44/32"	76
stress_12bis	"POPTR_0001s11600.1"	378	"	"T/C"	"52,6/46,6"	"130/115"	247	stress_45	"POPTR_0001s11600.1"	378	"	"T/C"	"52,9/47,1"	"37/33"	70
stress_12bis	"POPTR_0002s07290.1"	645	"	"A/C"	"83,9/16,1"	"130/25"	155	stress_42	"POPTR_0002s07290.1"	645	"	"A/C"	"71,1/28,9"	"81/33"	114
stress_12bis	"POPTR_0002s07290.1"	645	"	"A/C"	"83,9/16,1"	"130/25"	155	stress_45	"POPTR_0002s07290.1"	645	"	"A/C"	"68,8/31,2"	"95/43"	138
stress_12bis	"POPTR_0001s36560.1"	1225	"	"G/C"	"57,8/42,2"	"130/95"	225	stress_42	"POPTR_0001s36560.1"	1225	"	"G/C"	"56,8/43,2"	"21/16"	37
stress_12bis	"POPTR_0001s36560.1"	1225	"	"G/C"	"57,8/42,2"	"130/95"	225	stress_45	"POPTR_0001s36560.1"	1225	"	"G/C"	"53,4/46,6"	"39/34"	73
stress_12bis	"POPTR_0004s09910.1"	222	"	"T/C"	"73,9/26,1"	"1309/463"	1772	stress_42	"POPTR_0004s09910.1"	222	"	"T/C"	"71,7/28,3"	"147/58"	205
stress_12bis	"POPTR_0004s09910.1"	222	"	"T/C"	"73,9/26,1"	"1309/463"	1772	stress_45	"POPTR_0004s09910.1"	222	"	"T/C"	"78,2/21,8"	"215/60"	275
stress_12bis	"POPTR_0006s10040.1"	324	"	"A/G"	"52,8/47,2"	"131/117"	248	stress_42	"POPTR_0006s10040.1"	324	"	"G/A"	"60,4/39,6"	"61/40"	101
stress_12bis	"POPTR_0006s10040.1"	324	"	"A/G"	"52,8/47,2"	"131/117"	248	stress_45	"POPTR_0006s10040.1"	324	"	"G/A"	"51,5/48,5"	"51/48"	99
stress_12bis	"POPTR_0004s18190.1"	46	"	"C/T"	"50,4/49,6"	"131/129"	260	stress_42	"POPTR_0004s18190.1"	46	"	"C/T"	"59,3/40,7"	"32/22"	54
stress_12bis	"POPTR_0004s18190.1"	46	"	"C/T"	"50,4/49,6"	"131/129"	260	stress_45	"POPTR_0004s18190.1"	46	"	"T/C"	"55,6/44,4"	"30/24"	54
stress_12bis	"POPTR_0004s18190.1"	47	"	"A/T"	"50,4/49,6"	"131/129"	260	stress_42	"POPTR_0004s18190.1"	47	"	"A/T"	"58,5/41,5"	"31/22"	53
stress_12bis	"POPTR_0004s18190.1"	47	"	"A/T"	"50,4/49,6"	"131/129"	260	stress_45	"POPTR_0004s18190.1"	47	"	"T/A"	"54,5/45,5"	"30/25"	55
stress_12bis	"POPTR_0010s20060.1"	543	"	"T/C"	"78,4/21,6"	"131/36"	167	stress_42	"POPTR_0010s20060.1"	543	"	"T/C"	"79,3/20,7"	"23/6"	29
stress_12bis	"POPTR_0010s20060.1"	543	"	"T/C"	"78,4/21,6"	"131/36"	167	stress_45	"POPTR_0010s20060.1"	543	"	"T/C"	"76,9/23,1"	"20/6"	26
stress_12bis	"POPTR_0002s14730.1"	831	"	"A/G"	"65,8/34,2"	"131/68"	199	stress_42	"POPTR_0002s14730.1"	831	"	"A/G"	"53,4/46,6"	"31/27"	58
stress_12bis	"POPTR_0002s14730.1"	831	"	"A/G"	"65,8/34,2"	"131/68"	199	stress_45	"POPTR_0002s14730.1"	831	"	"G/A"	"72,3/27,7"	"86/33"	119
stress_12bis	"POPTR_0009s01320.1"	1155	"	"A/G"	"62,7/37,3"	"131/78"	209	stress_42	"POPTR_0009s01320.1"	1155	"	"A/G"	"61,9/38,1"	"117/72"	189
stress_12bis	"POPTR_0009s01320.1"	1155	"	"A/G"	"62,7/37,3"	"131/78"	209	stress_45	"POPTR_0009s01320.1"	1155	"	"A/G"	"52,2/47,8"	"128/117"	245
stress_12bis	"POPTR_0008s05480.1"	1575	"	"C/G"	"57,5/42,5"	"131/97"	228	stress_42	"POPTR_0008s05480.1"	1575	"	"C/G"	"56,8/43,2"	"83/63"	146
stress_12bis	"POPTR_0008s05480.1"	1575	"	"C/G"	"57,5/42,5"	"131/97"	228	stress_45	"POPTR_0008s05480.1"	1575	"	"C/G"	"57,1/42,9"	"212/159"	371
stress_12bis	"POPTR_0008s15100.1"	33	"	"G/C"	"51,6/48,4"	"133/125"	258	stress_42	"POPTR_0008s15100.1"	33	"	"G/C"	"58,6/41,4"	"51/36"	87
stress_12bis	"POPTR_0008s15100.1"	33	"	"G/C"	"51,6/48,4"	"133/125"	258	stress_45	"POPTR_0008s15100.1"	33	"	"G/C"	"54,7/45,3"	"47/39"	86
stress_12bis	"POPTR_0005s11500.1"	188	"	"T/C"	"51,2/48,5"	"133/126"	260	stress_42	"POPTR_0005s11500.1"	188	"	"T/C"	"52,9/47,1"	"36/32"	68
stress_12bis	"POPTR_0005s11500.1"	188	"	"T/C"	"51,2/48,5"	"133/126"	260	stress_45	"POPTR_0005s11500.1"	188	"	"T/C"	"66,0/34,0"	"68/35"	103
stress_12bis	"POPTR_0002s19710.1"	117	"	"G/C"	"68,6/31,4"	"133/61"	194	stress_42	"POPTR_0002s19710.1"	117	"	"G/C"	"50,7/49,3"	"36/35"	71
stress_12bis	"POPTR_0002s19710.1"	117	"	"G/C"	"68,6/31,4"	"133/61"	194	stress_45	"POPTR_0002s19710.1"	117	"	"C/G"	"51,4/48,6"	"36/34"	70
stress_12bis	"POPTR_0006s24770.1"	43	"	"A/C"	"64,3/35,7"	"133/74"	207	stress_42	"POPTR_0006s24770.1"	43	"	"A/C"	"51,4/48,6"	"54/51"	105
stress_12bis	"POPTR_0006s24770.1"	43	"	"A/C"	"64,3/35,7"	"133/74"	207	stress_45	"POPTR_0006s24770.1"	43	"	"C/A"	"54,4/45,6"	"81/68"	149
stress_12bis	"POPTR_0004s03160.1"	423	"	"T/A"	"60,5/38,2"	"133/84"	220	stress_42	"POPTR_0004s03160.1"	423	"	"T/A"	"73,7/26,3"	"28/10"	38
stress_12bis	"POPTR_0004s03160.1"	423	"	"T/A"	"60,5/38,2"	"133/84"	220	stress_45	"POPTR_0004s03160.1"	423	"	"T/A"	"70,8/29,2"	"17/7"	24
stress_12bis	"POPTR_0009s08520.1"	96	"	"T/C"	"57,3/42,7"	"134/100"	234	stress_42	"POPTR_0009s08520.1"	96	"	"T/C"	"58,8/41,2"	"10/7"	17
stress_12bis	"POPTR_0009s08520.1"	96	"	"T/C"	"57,3/42,7"	"134/100"	234	stress_45	"POPTR_0009s08520.1"	96	"	"T/C"	"63,6/36,4"	"14/8"	22
stress_12bis	"POPTR_0005s13860.1"	138	"	"T/C"	"60,1/39,9"	"134/89"	223	stress_42	"POPTR_0005s13860.1"	138	"	"T/C"	"71,4/28,6"	"35/14"	49
stress_12bis	"POPTR_0005s13860.1"	138	"	"T/C"	"60,1/39,9"	"134/89"	223	stress_45	"POPTR_0005s13860.1"	138	"	"T/C"	"61,5/38,5"	"59/37"	96
stress_12bis	"POPTR_0004s16920.1"	582	"	"G/A"	"58,5/41,5"	"134/95"	229	stress_42	"POPTR_0004s16920.1"	582	"	"G/A"	"57,7/42,3"	"15/11"	26
stress_12bis	"POPTR_0004s16920.1"	582	"	"G/A"	"58,5/41,5"	"134/95"	229	stress_45	"POPTR_0004s16920.1"	582	"	"G/A"	"52,8/47,2"	"19/17"	36
stress_12bis	"POPTR_0008s20770.1"	165	"	"A/C"	"58,5/41,5"	"134/95"	229	stress_42	"POPTR_0008s20770.1"	165	"	"C/A"	"55,2/44,8"	"79/64"	143
stress_12bis	"POPTR_0008s20770.1"	165	"	"A/C"	"58,5/41,5"	"134/95"	229	stress_45	"POPTR_0008s20770.1"	165	"	"C/A"	"60,0/40,0"	"102/68"	170
stress_12bis	"POPTR_0004s01470.1"	435	"	"C/T"	"55,1/44,9"	"135/110"	245	stress_42	"POPTR_0004s01470.1"	435	"	"C/T"	"59,3/40,7"	"35/24"	59
stress_12bis	"POPTR_0004s01470.1"	435	"	"C/T"	"55,1/44,9"	"135/110"	245	stress_45	"POPTR_0004s01470.1"	435	"	"C/T"	"58,1/41,9"	"43/31"	74
stress_12bis	"POPTR_0018s01830.1"	234	"	"A/G"	"74,6/25,4"	"135/46"	181	stress_42	"POPTR_0018s01830.1"	234	"	"A/G"	"56,1/43,9"	"23/18"	41
stress_12bis	"POPTR_0018s01830.1"	234	"	"A/G"	"74,6/25,4"	"135/46"	181	stress_45	"POPTR_0018s01830.1"	234	"	"G/A"	"50,6/49,4"	"41/40"	81
stress_12bis	"POPTR_0005s11500.1"	218	"	"A/T"	"51,9/48,1"	"136/126"	262	stress_42	"POPTR_0005s11500.1"	218	"	"T/A"	"57,1/42,9"	"40/30"	70
stress_12bis	"POPTR_0005s11500.1"	218	"	"A/T"	"51,9/48,1"	"136/126"	262	stress_45	"POPTR_0005s11500.1"	218	"	"T/A"	"60,8/39,2"	"62/40"	102
stress_12bis	"POPTR_0018s01830.1"	162	"	"C/T"	"70,1/29,9"	"136/58"	194	stress_42	"POPTR_0018s01830.1"	162	"	"C/T"	"63,6/36,4"	"35/20"	55
stress_12bis	"POPTR_0018s01830.1"	162	"	"C/T"	"70,1/29,9"	"136/58"	194	stress_45	"POPTR_0018s01830.1"	162	"	"C/T"	"55,3/44,7"	"47/38"	85
stress_12bis	"POPTR_0008s22310.1"	121	"	"C/G"	"68,7/31,3"	"136/62"	198	stress_42	"POPTR_0008s22310.1"	121	"	"C/G"	"64,8/35,2"	"68/37"	105
stress_12bis	"POPTR_0008s22310.1"	121	"	"C/G"	"68,7/31,3"	"136/62"	198	stress_45	"POPTR_0008s22310.1"	121	"	"C/G"	"51,8/48,2"	"73/68"	141
stress_12bis	"POPTR_0002s22560.1"	247	"	"G/A"	"68,0/32,0"	"136/64"	200	stress_42	"POPTR_0002s22560.1"	247	"	"G/A"	"68,6/31,4"	"24/11"	35
stress_12bis	"POPTR_0002s22560.1"	247	"	"G/A"	"68,0/32,0"	"136/64"	200	stress_45	"POPTR_0002s22560.1"	247	"	"G/A"	"70,9/29,1"	"39/16"	55
stress_12bis	"POPTR_0005s11500.1"	684	"	"A/G"	"63,3/36,7"	"136/79"	215	stress_42	"POPTR_0005s11500.1"	684	"	"A/G"	"54,5/45,5"	"24/20"	44
stress_12bis	"POPTR_0005s11500.1"	684	"	"A/G"	"63,3/36,7"	"136/79"	215	stress_45	"POPTR_0005s11500.1"	684	"	"A/G"	"60,3/39,7"	"44/29"	73
stress_12bis	"POPTR_0006s10040.1"	198	"	"A/C"	"50,7/49,3"	"137/133"	270	stress_42	"POPTR_0006s10040.1"	198	"	"C/A"	"52,9/47,1"	"54/48"	102
stress_12bis	"POPTR_0006s10040.1"	198	"	"A/C"	"50,7/49,3"	"137/133"	270	stress_45	"POPTR_0006s10040.1"	198	"	"C/A"	"51,1/48,9"	"48/46"	94
stress_12bis	"POPTR_0002s07290.1"	898	"	"G/A"	"83,0/17,0"	"137/28"	165	stress_42	"POPTR_0002s07290.1"	898	"	"G/A"	"75,2/24,1"	"106/34"	141
stress_12bis	"POPTR_0002s07290.1"	898	"	"G/A"	"83,0/17,0"	"137/28"	165	stress_45	"POPTR_0002s07290.1"	898	"	"G/A"	"80,3/19,7"	"139/34"	173
stress_12bis	"POPTR_0014s10200.1"	471	"	"A/G"	"63,4/36,6"	"137/79"	216	stress_42	"POPTR_0014s10200.1"	471	"	"A/G"	"58,0/42,0"	"47/34"	81
stress_12bis	"POPTR_0014s10200.1"	471	"	"A/G"	"63,4/36,6"	"137/79"	216	stress_45	"POPTR_0014s10200.1"	471	"	"A/G"	"72,4/27,6"	"63/24"	87
stress_12bis	"POPTR_0006s24770.1"	87	"	"C/A"	"56,8/43,2"	"138/105"	243	stress_42	"POPTR_0006s24770.1"	87	"	"A/C"	"52,9/47,1"	"73/65"	138
stress_12bis	"POPTR_0006s24770.1"	87	"	"C/A"	"56,8/43,2"	"138/105"	243	stress_45	"POPTR_0006s24770.1"	87	"	"C/A"	"52,7/47,3"	"128/115"	243
stress_12bis	"POPTR_0006s13310.1"	66	"	"C/A"	"64,5/35,5"	"138/76"	214	stress_42	"POPTR_0006s13310.1"	66	"	"C/A"	"57,8/42,2"	"74/54"	128
stress_12bis	"POPTR_0006s13310.1"	66	"	"C/A"	"64,5/35,5"	"138/76"	214	stress_45	"POPTR_0006s13310.1"	66	"	"C/A"	"62,1/37,9"	"167/102"	269
stress_12bis	"POPTR_0015s11640.2"	429	"	"T/C"	"52,7/46,6"	"139/123"	264	stress_42	"POPTR_0015s11640.2"	429	"	"T/C"	"66,7/33,3"	"48/24"	72
stress_12bis	"POPTR_0015s11640.2"	429	"	"T/C"	"52,7/46,6"	"139/123"	264	stress_45	"POPTR_0015s11640.2"	429	"	"T/C"	"60,2/39,8"	"106/70"	176
stress_12bis	"POPTR_0005s11500.1"	196	"	"G/C"	"50,2/49,8"	"139/138"	277	stress_42	"POPTR_0005s11500.1"	196	"	"G/C"	"52,4/47,6"	"33/30"	63
stress_12bis	"POPTR_0005s11500.1"	196	"	"G/C"	"50,2/49,8"	"139/138"	277	stress_45	"POPTR_0005s11500.1"	196	"	"G/C"	"61,7/38,3"	"74/46"	120
stress_12bis	"POPTR_0001s40250.1"	1015	"	"G/C"	"58,3/41,7"	"14/10"	24	stress_45	"POPTR_0001s40250.1"	1015	"	"G/C"	"66,1/33,9"	"72/37"	109
stress_12bis	"POPTR_0014s14200.1"	1110	"	"C/T"	"56,0/44,0"	"14/11"	25	stress_45	"POPTR_0014s14200.1"	1110	"	"T/C"	"69,7/30,3"	"85/37"	122
stress_12bis	"POPTR_0011s12400.1"	724	"	"C/T"	"53,8/46,2"	"14/12"	26	stress_42	"POPTR_0011s12400.1"	724	"	"T/C"	"50,5/49,5"	"103/101"	204
stress_12bis	"POPTR_0011s12400.1"	724	"	"C/T"	"53,8/46,2"	"14/12"	26	stress_45	"POPTR_0011s12400.1"	724	"	"C/T"	"57,0/43,0"	"126/95"	221
stress_12bis	"POPTR_0015s13050.1"	295	"	"T/A"	"53,8/46,2"	"14/12"	26	stress_45	"POPTR_0015s13050.1"	295	"	"T/A"	"62,1/37,9"	"90/55"	145
stress_12bis	"POPTR_0001s14320.1"	1062	"	"A/C"	"53,8/46,2"	"14/12"	26	stress_45	"POPTR_0001s14320.1"	1062	"	"C/A"	"55,6/44,4"	"99/79"	178
stress_12bis	"POPTR_0010s19930.1"	468	"	"C/T"	"53,8/46,2"	"14/12"	26	stress_42	"POPTR_0010s19930.1"	468	"	"C/T"	"63,8/36,2"	"95/54"	149
stress_12bis	"POPTR_0010s19930.1"	468	"	"C/T"	"53,8/46,2"	"14/12"	26	stress_45	"POPTR_0010s19930.1"	468	"	"C/T"	"59,0/41,0"	"72/50"	122
stress_12bis	"POPTR_0014s15960.1"	726	"	"G/A"	"77,8/22,2"	"14/4"	18	stress_42	"POPTR_0014s15960.1"	726	"	"A/G"	"60,7/39,3"	"145/94"	239
stress_12bis	"POPTR_0014s15960.1"	726	"	"G/A"	"77,8/22,2"	"14/4"	18	stress_45	"POPTR_0014s15960.1"	726	"	"A/G"	"70,5/28,6"	"148/60"	210
stress_12bis	"POPTR_0017s14470.1"	552	"	"C/T"	"73,7/26,3"	"14/5"	19	stress_42	"POPTR_0017s14470.1"	552	"	"C/T"	"61,5/38,5"	"64/40"	104
stress_12bis	"POPTR_0017s14470.1"	552	"	"C/T"	"73,7/26,3"	"14/5"	19	stress_45	"POPTR_0017s14470.1"	552	"	"C/T"	"60,7/38,7"	"105/67"	173
stress_12bis	"POPTR_0001s14310.1"	45	"	"C/T"	"70,0/30,0"	"14/6"	20	stress_45	"POPTR_0001s14310.1"	45	"	"C/T"	"73,7/26,3"	"84/30"	114
stress_12bis	"POPTR_0001s31220.1"	609	"	"A/G"	"70,0/30,0"	"14/6"	20	stress_42	"POPTR_0001s31220.1"	609	"	"A/G"	"58,8/41,2"	"70/49"	119
stress_12bis	"POPTR_0010s19930.1"	515	"	"A/G"	"66,7/33,3"	"14/7"	21	stress_42	"POPTR_0010s19930.1"	515	"	"A/G"	"62,0/38,0"	"85/52"	137
stress_12bis	"POPTR_0010s19930.1"	515	"	"A/G"	"66,7/33,3"	"14/7"	21	stress_45	"POPTR_0010s19930.1"	515	"	"A/G"	"57,4/42,6"	"70/52"	122
stress_12bis	"POPTR_0002s09480.1"	219	"	"T/C"	"63,6/36,4"	"14/8"	22	stress_45	"POPTR_0002s09480.1"	219	"	"T/C"	"53,8/46,2"	"63/54"	117
stress_12bis	"POPTR_0016s14270.1"	34	"	"C/A"	"60,9/39,1"	"14/9"	23	stress_42	"POPTR_0016s14270.1"	34	"	"C/A"	"71,0/29,0"	"228/93"	321
stress_12bis	"POPTR_0016s14270.1"	34	"	"C/A"	"60,9/39,1"	"14/9"	23	stress_45	"POPTR_0016s14270.1"	34	"	"C/A"	"76,9/23,1"	"440/132"	572
stress_12bis	"POPTR_0006s10040.1"	126	"	"G/A"	"51,7/48,3"	"140/131"	271	stress_42	"POPTR_0006s10040.1"	126	"	"G/A"	"70,7/29,3"	"58/24"	82
stress_12bis	"POPTR_0006s10040.1"	126	"	"G/A"	"51,7/48,3"	"140/131"	271	stress_45	"POPTR_0006s10040.1"	126	"	"G/A"	"63,3/36,7"	"81/47"	128
stress_12bis	"POPTR_0009s01320.1"	1113	"	"C/T"	"69,0/31,0"	"140/63"	203	stress_42	"POPTR_0009s01320.1"	1113	"	"C/T"	"63,8/36,2"	"134/76"	210
stress_12bis	"POPTR_0009s01320.1"	1113	"	"C/T"	"69,0/31,0"	"140/63"	203	stress_45	"POPTR_0009s01320.1"	1113	"	"C/T"	"62,4/37,2"	"156/93"	250
stress_12bis	"POPTR_0016s12370.1"	828	"	"T/C"	"63,6/36,4"	"140/80"	220	stress_42	"POPTR_0016s12370.1"	828	"	"T/C"	"82,1/17,9"	"110/24"	134
stress_12bis	"POPTR_0016s12370.1"	828	"	"T/C"	"63,6/36,4"	"140/80"	220	stress_45	"POPTR_0016s12370.1"	828	"	"T/C"	"69,7/30,3"	"101/44"	145
stress_12bis	"POPTR_0001s38810.1"	225	"	"A/T"	"56,9/42,7"	"141/106"	248	stress_42	"POPTR_0001s38810.1"	225	"	"T/A"	"63,1/36,9"	"197/115"	312
stress_12bis	"POPTR_0001s38810.1"	225	"	"A/T"	"56,9/42,7"	"141/106"	248	stress_45	"POPTR_0001s38810.1"	225	"	"T/A"	"61,8/38,0"	"254/156"	411
stress_12bis	"POPTR_0010s07730.1"	114	"	"A/G"	"50,9/49,1"	"141/136"	277	stress_42	"POPTR_0010s07730.1"	114	"	"G/A"	"59,6/40,4"	"53/36"	89
stress_12bis	"POPTR_0010s07730.1"	114	"	"A/G"	"50,9/49,1"	"141/136"	277	stress_45	"POPTR_0010s07730.1"	114	"	"G/A"	"52,4/47,6"	"44/40"	84
stress_12bis	"POPTR_1545s00200.1"	61	"	"T/C"	"70,1/29,9"	"141/60"	201	stress_42	"POPTR_1545s00200.1"	61	"	"C/T"	"60,6/39,2"	"317/205"	523
stress_12bis	"POPTR_1545s00200.1"	61	"	"T/C"	"70,1/29,9"	"141/60"	201	stress_45	"POPTR_1545s00200.1"	61	"	"C/T"	"59,7/40,3"	"350/236"	586
stress_12bis	"POPTR_0009s01320.1"	426	"	"T/C"	"66,8/33,2"	"141/70"	211	stress_42	"POPTR_0009s01320.1"	426	"	"T/C"	"62,4/37,6"	"111/67"	178
stress_12bis	"POPTR_0009s01320.1"	426	"	"T/C"	"66,8/33,2"	"141/70"	211	stress_45	"POPTR_0009s01320.1"	426	"	"T/C"	"61,8/38,2"	"157/97"	254
stress_12bis	"POPTR_0002s14730.1"	922	"	"G/T"	"64,4/35,6"	"141/78"	219	stress_42	"POPTR_0002s14730.1"	922	"	"G/T"	"65,4/34,6"	"34/18"	52
stress_12bis	"POPTR_0002s14730.1"	922	"	"G/T"	"64,4/35,6"	"141/78"	219	stress_45	"POPTR_0002s14730.1"	922	"	"G/T"	"68,1/31,9"	"49/23"	72
stress_12bis	"POPTR_0002s14730.1"	837	"	"T/C"	"62,7/37,3"	"141/84"	225	stress_42	"POPTR_0002s14730.1"	837	"	"C/T"	"53,7/44,8"	"36/30"	67
stress_12bis	"POPTR_0002s14730.1"	837	"	"T/C"	"62,7/37,3"	"141/84"	225	stress_45	"POPTR_0002s14730.1"	837	"	"C/T"	"75,2/24,8"	"106/35"	141
stress_12bis	"POPTR_0015s11640.1"	153	"	"G/A"	"59,2/40,8"	"141/97"	238	stress_42	"POPTR_0015s11640.1"	153	"	"A/G"	"57,1/42,9"	"24/18"	42
stress_12bis	"POPTR_0015s11640.1"	153	"	"G/A"	"59,2/40,8"	"141/97"	238	stress_45	"POPTR_0015s11640.1"	153	"	"G/A"	"65,2/34,8"	"116/62"	178
stress_12bis	"POPTR_0005s26740.1"	182	"	"T/C"	"58,7/41,3"	"142/100"	242	stress_42	"POPTR_0005s26740.1"	182	"	"T/C"	"58,1/41,9"	"86/62"	148
stress_12bis	"POPTR_0005s26740.1"	182	"	"T/C"	"58,7/41,3"	"142/100"	242	stress_45	"POPTR_0005s26740.1"	182	"	"T/C"	"54,9/45,1"	"113/93"	206
stress_12bis	"POPTR_0009s08520.1"	261	"	"T/C"	"54,8/45,2"	"142/117"	259	stress_42	"POPTR_0009s08520.1"	261	"	"C/T"	"59,3/40,7"	"16/11"	27
stress_12bis	"POPTR_0009s08520.1"	261	"	"T/C"	"54,8/45,2"	"142/117"	259	stress_45	"POPTR_0009s08520.1"	261	"	"C/T"	"57,7/42,3"	"15/11"	26
stress_12bis	"POPTR_0008s15780.1"	369	"	"C/G"	"65,4/34,6"	"142/75"	217	stress_42	"POPTR_0008s15780.1"	369	"	"C/G"	"65,6/34,4"	"198/104"	302
stress_12bis	"POPTR_0008s15780.1"	369	"	"C/G"	"65,4/34,6"	"142/75"	217	stress_45	"POPTR_0008s15780.1"	369	"	"C/G"	"77,6/22,4"	"180/52"	232
stress_12bis	"POPTR_0008s18230.1"	357	"	"A/T"	"52,2/47,4"	"143/130"	274	stress_42	"POPTR_0008s18230.1"	357	"	"T/A"	"64,2/35,8"	"77/43"	120
stress_12bis	"POPTR_0008s18230.1"	357	"	"A/T"	"52,2/47,4"	"143/130"	274	stress_45	"POPTR_0008s18230.1"	357	"	"T/A"	"56,7/43,3"	"55/42"	97
stress_12bis	"POPTR_0002s14730.1"	975	"	"G/C"	"76,5/23,5"	"143/44"	187	stress_42	"POPTR_0002s14730.1"	975	"	"C/G"	"50,8/49,2"	"31/30"	61
stress_12bis	"POPTR_0002s14730.1"	975	"	"G/C"	"76,5/23,5"	"143/44"	187	stress_45	"POPTR_0002s14730.1"	975	"	"C/G"	"55,2/44,8"	"37/30"	67
stress_12bis	"POPTR_0009s01320.1"	550	"	"T/C"	"70,4/29,6"	"143/60"	203	stress_42	"POPTR_0009s01320.1"	550	"	"T/C"	"61,9/37,5"	"104/63"	168
stress_12bis	"POPTR_0009s01320.1"	550	"	"T/C"	"70,4/29,6"	"143/60"	203	stress_45	"POPTR_0009s01320.1"	550	"	"T/C"	"63,2/36,8"	"129/75"	204
stress_12bis	"POPTR_0009s05720.1"	140	"	"A/G"	"60,3/39,7"	"143/94"	237	stress_42	"POPTR_0009s05720.1"	140	"	"A/G"	"81,8/18,2"	"36/8"	44
stress_12bis	"POPTR_0009s05720.1"	140	"	"A/G"	"60,3/39,7"	"143/94"	237	stress_45	"POPTR_0009s05720.1"	140	"	"A/G"	"71,8/28,2"	"28/11"	39
stress_12bis	"POPTR_0001s38810.1"	576	"	"C/T"	"59,8/40,2"	"143/96"	239	stress_42	"POPTR_0001s38810.1"	576	"	"T/C"	"67,3/32,4"	"216/104"	321
stress_12bis	"POPTR_0001s38810.1"	576	"	"C/T"	"59,8/40,2"	"143/96"	239	stress_45	"POPTR_0001s38810.1"	576	"	"T/C"	"61,2/38,8"	"237/150"	387
stress_12bis	"POPTR_0005s11500.1"	873	"	"G/A"	"53,1/46,5"	"144/126"	271	stress_42	"POPTR_0005s11500.1"	873	"	"G/A"	"52,6/47,4"	"50/45"	95
stress_12bis	"POPTR_0005s11500.1"	873	"	"G/A"	"53,1/46,5"	"144/126"	271	stress_45	"POPTR_0005s11500.1"	873	"	"A/G"	"50,0/50,0"	"66/66"	132
stress_12bis	"POPTR_0010s22790.1"	228	"	"T/C"	"51,1/48,9"	"144/138"	282	stress_42	"POPTR_0010s22790.1"	228	"	"C/T"	"50,0/50,0"	"48/48"	96
stress_12bis	"POPTR_0010s22790.1"	228	"	"T/C"	"51,1/48,9"	"144/138"	282	stress_45	"POPTR_0010s22790.1"	228	"	"T/C"	"57,5/42,5"	"73/54"	127
stress_12bis	"POPTR_0008s20770.1"	402	"	"T/A"	"77,4/22,6"	"144/42"	186	stress_42	"POPTR_0008s20770.1"	402	"	"T/A"	"56,2/43,8"	"72/56"	128
stress_12bis	"POPTR_0008s20770.1"	402	"	"T/A"	"77,4/22,6"	"144/42"	186	stress_45	"POPTR_0008s20770.1"	402	"	"T/A"	"63,4/36,6"	"109/63"	172
stress_12bis	"POPTR_0005s13860.1"	176	"	"G/A"	"71,6/28,4"	"144/57"	201	stress_42	"POPTR_0005s13860.1"	176	"	"G/A"	"80,0/20,0"	"32/8"	40
stress_12bis	"POPTR_0005s13860.1"	176	"	"G/A"	"71,6/28,4"	"144/57"	201	stress_45	"POPTR_0005s13860.1"	176	"	"G/A"	"83,8/16,2"	"67/13"	80
stress_12bis	"POPTR_0006s10040.1"	363	"	"G/A"	"53,1/46,9"	"145/128"	273	stress_42	"POPTR_0006s10040.1"	363	"	"G/A"	"54,2/45,8"	"58/49"	107
stress_12bis	"POPTR_0006s10040.1"	363	"	"G/A"	"53,1/46,9"	"145/128"	273	stress_45	"POPTR_0006s10040.1"	363	"	"G/A"	"59,6/40,4"	"65/44"	109
stress_12bis	"POPTR_0004s08380.1"	1047	"	"A/G"	"50,7/49,3"	"145/141"	286	stress_42	"POPTR_0004s08380.1"	1047	"	"A/G"	"63,6/36,4"	"21/12"	33
stress_12bis	"POPTR_0004s08380.1"	1047	"	"A/G"	"50,7/49,3"	"145/141"	286	stress_45	"POPTR_0004s08380.1"	1047	"	"A/G"	"55,3/44,7"	"26/21"	47
stress_12bis	"POPTR_0002s14730.1"	807	"	"T/C"	"66,2/33,8"	"145/74"	219	stress_42	"POPTR_0002s14730.1"	807	"	"C/T"	"52,1/47,9"	"38/35"	73
stress_12bis	"POPTR_0002s14730.1"	807	"	"T/C"	"66,2/33,8"	"145/74"	219	stress_45	"POPTR_0002s14730.1"	807	"	"C/T"	"68,5/31,5"	"63/29"	92
stress_12bis	"POPTR_0009s08520.1"	384	"	"G/A"	"61,2/38,8"	"145/92"	237	stress_42	"POPTR_0009s08520.1"	384	"	"G/A"	"58,3/41,7"	"14/10"	24
stress_12bis	"POPTR_0009s08520.1"	384	"	"G/A"	"61,2/38,8"	"145/92"	237	stress_45	"POPTR_0009s08520.1"	384	"	"A/G"	"52,5/47,5"	"21/19"	40
stress_12bis	"POPTR_0001s35230.1"	305	"	"G/C"	"60,6/39,4"	"146/95"	241	stress_42	"POPTR_0001s35230.1"	305	"	"G/C"	"55,2/44,8"	"48/39"	87
stress_12bis	"POPTR_0001s35230.1"	305	"	"G/C"	"60,6/39,4"	"146/95"	241	stress_45	"POPTR_0001s35230.1"	305	"	"G/C"	"56,6/43,4"	"82/63"	145
stress_12bis	"POPTR_0010s07730.1"	115	"	"A/C"	"51,8/48,2"	"147/137"	284	stress_42	"POPTR_0010s07730.1"	115	"	"C/A"	"59,3/40,7"	"54/37"	91
stress_12bis	"POPTR_0010s07730.1"	115	"	"A/C"	"51,8/48,2"	"147/137"	284	stress_45	"POPTR_0010s07730.1"	115	"	"C/A"	"51,8/48,2"	"43/40"	83
stress_12bis	"POPTR_0016s12370.1"	838	"	"T/C"	"62,3/37,7"	"147/89"	236	stress_42	"POPTR_0016s12370.1"	838	"	"T/C"	"83,8/16,2"	"119/23"	142
stress_12bis	"POPTR_0016s12370.1"	838	"	"T/C"	"62,3/37,7"	"147/89"	236	stress_45	"POPTR_0016s12370.1"	838	"	"T/C"	"68,9/31,1"	"104/47"	151
stress_12bis	"POPTR_0017s06920.1"	969	"	"T/C"	"59,4/40,6"	"148/101"	249	stress_42	"POPTR_0017s06920.1"	969	"	"T/C"	"58,8/41,2"	"10/7"	17
stress_12bis	"POPTR_0002s14730.1"	1309	"	"A/C"	"57,8/42,2"	"148/108"	256	stress_42	"POPTR_0002s14730.1"	1309	"	"A/C"	"63,5/36,5"	"33/19"	52
stress_12bis	"POPTR_0002s14730.1"	1309	"	"A/C"	"57,8/42,2"	"148/108"	256	stress_45	"POPTR_0002s14730.1"	1309	"	"A/C"	"65,9/34,1"	"54/28"	82
stress_12bis	"POPTR_0002s05660.1"	525	"	"T/C"	"55,4/44,6"	"148/119"	267	stress_42	"POPTR_0002s05660.1"	525	"	"C/T"	"50,8/49,2"	"67/65"	132
stress_12bis	"POPTR_0002s05660.1"	525	"	"T/C"	"55,4/44,6"	"148/119"	267	stress_45	"POPTR_0002s05660.1"	525	"	"T/C"	"55,6/44,4"	"79/63"	142
stress_12bis	"POPTR_0002s14730.1"	1783	"	"T/G"	"54,6/45,4"	"148/123"	271	stress_42	"POPTR_0002s14730.1"	1783	"	"T/G"	"77,8/21,0"	"63/17"	81
stress_12bis	"POPTR_0002s14730.1"	1783	"	"T/G"	"54,6/45,4"	"148/123"	271	stress_45	"POPTR_0002s14730.1"	1783	"	"T/G"	"67,3/32,7"	"66/32"	98
stress_12bis	"POPTR_0006s14400.1"	36	"	"C/T"	"53,2/46,8"	"148/130"	278	stress_42	"POPTR_0006s14400.1"	36	"	"T/C"	"73,3/26,7"	"340/124"	464
stress_12bis	"POPTR_0006s14400.1"	36	"	"C/T"	"53,2/46,8"	"148/130"	278	stress_45	"POPTR_0006s14400.1"	36	"	"T/C"	"79,5/20,5"	"583/150"	733
stress_12bis	"POPTR_0014s13660.1"	897	"	"T/C"	"51,4/48,6"	"148/140"	288	stress_42	"POPTR_0014s13660.1"	897	"	"C/T"	"57,7/42,3"	"45/33"	78
stress_12bis	"POPTR_0014s13660.1"	897	"	"T/C"	"51,4/48,6"	"148/140"	288	stress_45	"POPTR_0014s13660.1"	897	"	"C/T"	"57,4/42,6"	"58/43"	101
stress_12bis	"POPTR_0016s03230.1"	55	"	"A/G"	"83,7/16,3"	"149/29"	178	stress_42	"POPTR_0016s03230.1"	55	"	"A/G"	"73,7/26,3"	"42/15"	57
stress_12bis	"POPTR_0016s03230.1"	55	"	"A/G"	"83,7/16,3"	"149/29"	178	stress_45	"POPTR_0016s03230.1"	55	"	"A/G"	"67,3/32,7"	"33/16"	49
stress_12bis	"POPTR_0002s25260.1"	418	"	"A/T"	"67,7/31,8"	"149/70"	220	stress_42	"POPTR_0002s25260.1"	418	"	"T/A"	"58,2/41,8"	"99/71"	170
stress_12bis	"POPTR_0002s25260.1"	418	"	"A/T"	"67,7/31,8"	"149/70"	220	stress_45	"POPTR_0002s25260.1"	418	"	"A/T"	"51,3/48,7"	"119/113"	232
stress_12bis	"POPTR_0002s08150.1"	537	"	"C/T"	"60,0/40,0"	"15/10"	25	stress_45	"POPTR_0002s08150.1"	537	"	"C/T"	"53,0/46,3"	"71/62"	134
stress_12bis	"POPTR_0013s15560.1"	390	"	"G/A"	"57,7/42,3"	"15/11"	26	stress_42	"POPTR_0013s15560.1"	390	"	"G/A"	"56,0/44,0"	"61/48"	109
stress_12bis	"POPTR_0013s15560.1"	390	"	"G/A"	"57,7/42,3"	"15/11"	26	stress_45	"POPTR_0013s15560.1"	390	"	"A/G"	"52,1/47,0"	"61/55"	117
stress_12bis	"POPTR_0009s05850.1"	70	"	"C/A"	"57,7/42,3"	"15/11"	26	stress_45	"POPTR_0009s05850.1"	70	"	"C/A"	"50,8/49,2"	"63/61"	124
stress_12bis	"POPTR_0005s22660.1"	299	"	"C/T"	"55,6/44,4"	"15/12"	27	stress_42	"POPTR_0005s22660.1"	299	"	"C/T"	"66,4/33,6"	"79/40"	119
stress_12bis	"POPTR_0013s15560.1"	428	"	"A/G"	"55,6/44,4"	"15/12"	27	stress_42	"POPTR_0013s15560.1"	428	"	"G/A"	"59,5/40,5"	"88/60"	148
stress_12bis	"POPTR_0013s15560.1"	428	"	"A/G"	"55,6/44,4"	"15/12"	27	stress_45	"POPTR_0013s15560.1"	428	"	"A/G"	"55,1/44,9"	"76/62"	138
stress_12bis	"POPTR_0001s12960.1"	543	"	"C/T"	"55,6/44,4"	"15/12"	27	stress_45	"POPTR_0001s12960.1"	543	"	"C/T"	"54,5/44,6"	"61/50"	112
stress_12bis	"POPTR_0009s05840.1"	382	"	"C/T"	"51,7/48,3"	"15/14"	29	stress_45	"POPTR_0009s05840.1"	382	"	"T/C"	"59,0/41,0"	"92/64"	156
stress_12bis	"POPTR_0011s12400.1"	642	"	"A/G"	"51,7/48,3"	"15/14"	29	stress_42	"POPTR_0011s12400.1"	642	"	"G/A"	"58,1/41,9"	"108/78"	186
stress_12bis	"POPTR_0011s12400.1"	642	"	"A/G"	"51,7/48,3"	"15/14"	29	stress_45	"POPTR_0011s12400.1"	642	"	"G/A"	"54,8/45,2"	"115/95"	210
stress_12bis	"POPTR_0014s15960.1"	693	"	"G/A"	"83,3/16,7"	"15/3"	18	stress_42	"POPTR_0014s15960.1"	693	"	"A/G"	"59,4/40,6"	"129/88"	217
stress_12bis	"POPTR_0014s15960.1"	693	"	"G/A"	"83,3/16,7"	"15/3"	18	stress_45	"POPTR_0014s15960.1"	693	"	"A/G"	"62,4/37,6"	"148/89"	237
stress_12bis	"POPTR_0014s15960.1"	697	"	"A/C"	"78,9/21,1"	"15/4"	19	stress_42	"POPTR_0014s15960.1"	697	"	"C/A"	"59,5/40,5"	"141/96"	237
stress_12bis	"POPTR_0014s15960.1"	697	"	"A/C"	"78,9/21,1"	"15/4"	19	stress_45	"POPTR_0014s15960.1"	697	"	"C/A"	"64,4/35,6"	"168/93"	261
stress_12bis	"POPTR_0001s40250.1"	2575	"	"G/A"	"78,9/21,1"	"15/4"	19	stress_45	"POPTR_0001s40250.1"	2575	"	"G/A"	"68,2/31,8"	"101/47"	148
stress_12bis	"POPTR_0017s00850.1"	773	"	"A/G"	"75,0/25,0"	"15/5"	20	stress_42	"POPTR_0017s00850.1"	773	"	"G/A"	"58,7/41,3"	"64/45"	109
stress_12bis	"POPTR_0017s00850.1"	773	"	"A/G"	"75,0/25,0"	"15/5"	20	stress_45	"POPTR_0017s00850.1"	773	"	"A/G"	"51,2/48,8"	"63/60"	123
stress_12bis	"POPTR_0007s15300.1"	495	"	"G/T"	"75,0/25,0"	"15/5"	20	stress_45	"POPTR_0007s15300.1"	495	"	"G/T"	"65,1/34,9"	"71/38"	109
stress_12bis	"POPTR_0016s10400.1"	871	"	"G/C"	"75,0/25,0"	"15/5"	20	stress_42	"POPTR_0016s10400.1"	871	"	"G/C"	"76,1/23,9"	"86/27"	113
stress_12bis	"POPTR_0016s10400.1"	871	"	"G/C"	"75,0/25,0"	"15/5"	20	stress_45	"POPTR_0016s10400.1"	871	"	"G/C"	"82,1/17,9"	"92/20"	112
stress_12bis	"POPTR_0001s40250.1"	2166	"	"G/A"	"68,2/31,8"	"15/7"	22	stress_45	"POPTR_0001s40250.1"	2166	"	"G/A"	"80,7/19,3"	"146/35"	181
stress_12bis	"POPTR_0010s19930.1"	518	"	"A/C"	"68,2/31,8"	"15/7"	22	stress_42	"POPTR_0010s19930.1"	518	"	"A/C"	"58,3/41,7"	"81/58"	139
stress_12bis	"POPTR_0010s19930.1"	518	"	"A/C"	"68,2/31,8"	"15/7"	22	stress_45	"POPTR_0010s19930.1"	518	"	"A/C"	"54,7/45,3"	"70/58"	128
stress_12bis	"POPTR_0001s12960.1"	169	"	"C/T"	"65,2/34,8"	"15/8"	23	stress_45	"POPTR_0001s12960.1"	169	"	"T/C"	"54,5/44,6"	"55/45"	101
stress_12bis	"POPTR_0002s19060.1"	1201	"	"A/G"	"65,2/34,8"	"15/8"	23	stress_42	"POPTR_0002s19060.1"	1201	"	"G/A"	"52,9/47,1"	"54/48"	102
stress_12bis	"POPTR_0002s19060.1"	1201	"	"A/G"	"65,2/34,8"	"15/8"	23	stress_45	"POPTR_0002s19060.1"	1201	"	"A/G"	"50,8/49,2"	"63/61"	124
stress_12bis	"POPTR_0009s05840.1"	405	"	"T/C"	"62,5/37,5"	"15/9"	24	stress_45	"POPTR_0009s05840.1"	405	"	"T/C"	"61,7/38,3"	"87/54"	141
stress_12bis	"POPTR_0001s32780.1"	558	"	"G/A"	"62,5/37,5"	"15/9"	24	stress_45	"POPTR_0001s32780.1"	558	"	"G/A"	"56,5/43,5"	"70/54"	124
stress_12bis	"POPTR_0011s08940.1"	786	"	"T/G"	"52,1/47,9"	"150/138"	288	stress_42	"POPTR_0011s08940.1"	786	"	"G/T"	"61,1/38,9"	"44/28"	72
stress_12bis	"POPTR_0011s08940.1"	786	"	"T/G"	"52,1/47,9"	"150/138"	288	stress_45	"POPTR_0011s08940.1"	786	"	"G/T"	"66,4/33,6"	"91/46"	137
stress_12bis	"POPTR_0009s01320.1"	1263	"	"T/C"	"61,2/38,8"	"150/95"	245	stress_42	"POPTR_0009s01320.1"	1263	"	"T/C"	"64,5/35,5"	"171/94"	265
stress_12bis	"POPTR_0009s01320.1"	1263	"	"T/C"	"61,2/38,8"	"150/95"	245	stress_45	"POPTR_0009s01320.1"	1263	"	"T/C"	"61,9/38,1"	"200/123"	323
stress_12bis	"POPTR_0005s26740.1"	441	"	"T/C"	"60,7/39,3"	"150/97"	247	stress_42	"POPTR_0005s26740.1"	441	"	"T/C"	"68,2/31,8"	"133/62"	195
stress_12bis	"POPTR_0005s26740.1"	441	"	"T/C"	"60,7/39,3"	"150/97"	247	stress_45	"POPTR_0005s26740.1"	441	"	"T/C"	"72,4/27,0"	"142/53"	196
stress_12bis	"POPTR_0001s38810.1"	560	"	"G/C"	"60,2/39,8"	"150/99"	249	stress_42	"POPTR_0001s38810.1"	560	"	"C/G"	"66,0/34,0"	"217/112"	329
stress_12bis	"POPTR_0001s38810.1"	560	"	"G/C"	"60,2/39,8"	"150/99"	249	stress_45	"POPTR_0001s38810.1"	560	"	"C/G"	"62,4/37,6"	"266/160"	426
stress_12bis	"POPTR_0004s09910.1"	270	"	"T/G"	"65,0/34,9"	"1503/808"	2313	stress_42	"POPTR_0004s09910.1"	270	"	"G/T"	"66,0/34,0"	"310/160"	470
stress_12bis	"POPTR_0004s09910.1"	270	"	"T/G"	"65,0/34,9"	"1503/808"	2313	stress_45	"POPTR_0004s09910.1"	270	"	"G/T"	"50,3/49,7"	"231/228"	459
stress_12bis	"POPTR_0010s05530.1"	1281	"	"C/A"	"56,6/43,4"	"151/116"	267	stress_42	"POPTR_0010s05530.1"	1281	"	"A/C"	"55,4/44,6"	"36/29"	65
stress_12bis	"POPTR_0010s05530.1"	1281	"	"C/A"	"56,6/43,4"	"151/116"	267	stress_45	"POPTR_0010s05530.1"	1281	"	"A/C"	"57,3/42,7"	"47/35"	82
stress_12bis	"POPTR_0010s21280.1"	1485	"	"G/A"	"82,1/17,9"	"151/33"	184	stress_45	"POPTR_0010s21280.1"	1485	"	"G/A"	"80,0/20,0"	"112/28"	140
stress_12bis	"POPTR_0009s08520.1"	114	"	"A/G"	"58,2/41,8"	"152/109"	261	stress_42	"POPTR_0009s08520.1"	114	"	"G/A"	"60,0/40,0"	"9/6"	15
stress_12bis	"POPTR_0009s08520.1"	114	"	"A/G"	"58,2/41,8"	"152/109"	261	stress_45	"POPTR_0009s08520.1"	114	"	"A/G"	"63,0/37,0"	"17/10"	27
stress_12bis	"POPTR_0005s26740.1"	234	"	"C/T"	"58,0/42,0"	"152/110"	262	stress_42	"POPTR_0005s26740.1"	234	"	"C/T"	"63,8/36,2"	"111/63"	174
stress_12bis	"POPTR_0005s26740.1"	234	"	"C/T"	"58,0/42,0"	"152/110"	262	stress_45	"POPTR_0005s26740.1"	234	"	"C/T"	"60,6/39,4"	"120/78"	198
stress_12bis	"POPTR_0017s06920.1"	796	"	"G/A"	"58,0/42,0"	"152/110"	262	stress_45	"POPTR_0017s06920.1"	796	"	"G/A"	"63,6/36,4"	"7/4"	11
stress_12bis	"POPTR_0017s06920.1"	511	"	"G/A"	"56,1/43,9"	"152/119"	271	stress_45	"POPTR_0017s06920.1"	511	"	"G/A"	"69,2/30,8"	"9/4"	13
stress_12bis	"POPTR_0016s03230.1"	361	"	"T/A"	"71,4/28,6"	"152/61"	213	stress_42	"POPTR_0016s03230.1"	361	"	"T/A"	"68,8/31,2"	"44/20"	64
stress_12bis	"POPTR_0016s03230.1"	361	"	"T/A"	"71,4/28,6"	"152/61"	213	stress_45	"POPTR_0016s03230.1"	361	"	"T/A"	"74,0/26,0"	"37/13"	50
stress_12bis	"POPTR_0009s01320.1"	469	"	"T/C"	"61,3/38,3"	"152/95"	248	stress_42	"POPTR_0009s01320.1"	469	"	"T/C"	"57,5/42,5"	"131/97"	228
stress_12bis	"POPTR_0009s01320.1"	469	"	"T/C"	"61,3/38,3"	"152/95"	248	stress_45	"POPTR_0009s01320.1"	469	"	"T/C"	"54,5/45,5"	"174/145"	319
stress_12bis	"POPTR_0009s01320.1"	471	"	"A/G"	"61,5/38,5"	"152/95"	247	stress_42	"POPTR_0009s01320.1"	471	"	"A/G"	"57,0/42,5"	"130/97"	228
stress_12bis	"POPTR_0009s01320.1"	471	"	"A/G"	"61,5/38,5"	"152/95"	247	stress_45	"POPTR_0009s01320.1"	471	"	"A/G"	"55,1/44,9"	"173/141"	314
stress_12bis	"POPTR_0009s01320.1"	1752	"	"T/C"	"60,2/39,8"	"153/101"	254	stress_42	"POPTR_0009s01320.1"	1752	"	"T/C"	"59,8/40,2"	"231/155"	386
stress_12bis	"POPTR_0009s01320.1"	1752	"	"T/C"	"60,2/39,8"	"153/101"	254	stress_45	"POPTR_0009s01320.1"	1752	"	"T/C"	"58,1/41,9"	"211/152"	363
stress_12bis	"POPTR_0005s26740.1"	237	"	"C/A"	"55,8/44,2"	"153/121"	274	stress_42	"POPTR_0005s26740.1"	237	"	"C/A"	"63,3/36,7"	"119/69"	188
stress_12bis	"POPTR_0005s26740.1"	237	"	"C/A"	"55,8/44,2"	"153/121"	274	stress_45	"POPTR_0005s26740.1"	237	"	"C/A"	"58,4/41,6"	"125/89"	214
stress_12bis	"POPTR_0010s07730.1"	270	"	"A/G"	"71,8/28,2"	"153/60"	213	stress_42	"POPTR_0010s07730.1"	270	"	"A/G"	"71,3/28,7"	"67/27"	94
stress_12bis	"POPTR_0010s07730.1"	270	"	"A/G"	"71,8/28,2"	"153/60"	213	stress_45	"POPTR_0010s07730.1"	270	"	"A/G"	"65,8/34,2"	"52/27"	79
stress_12bis	"POPTR_0009s05240.1"	930	"	"T/A"	"59,9/40,1"	"154/103"	257	stress_42	"POPTR_0009s05240.1"	930	"	"T/A"	"80,6/19,4"	"87/21"	108
stress_12bis	"POPTR_0009s05240.1"	930	"	"T/A"	"59,9/40,1"	"154/103"	257	stress_45	"POPTR_0009s05240.1"	930	"	"T/A"	"69,6/30,4"	"78/34"	112
stress_12bis	"POPTR_0010s07730.1"	120	"	"C/A"	"54,2/45,8"	"154/130"	284	stress_42	"POPTR_0010s07730.1"	120	"	"A/C"	"54,8/45,2"	"51/42"	93
stress_12bis	"POPTR_0010s07730.1"	120	"	"C/A"	"54,2/45,8"	"154/130"	284	stress_45	"POPTR_0010s07730.1"	120	"	"C/A"	"58,0/42,0"	"47/34"	81
stress_12bis	"POPTR_0017s06920.1"	357	"	"A/G"	"56,8/43,2"	"155/118"	273	stress_42	"POPTR_0017s06920.1"	357	"	"A/G"	"66,7/33,3"	"8/4"	12
stress_12bis	"POPTR_0017s06920.1"	357	"	"A/G"	"56,8/43,2"	"155/118"	273	stress_45	"POPTR_0017s06920.1"	357	"	"G/A"	"54,5/45,5"	"6/5"	11
stress_12bis	"POPTR_0002s14730.1"	987	"	"T/A"	"64,0/36,0"	"155/87"	242	stress_42	"POPTR_0002s14730.1"	987	"	"T/A"	"81,1/18,9"	"73/17"	90
stress_12bis	"POPTR_0001s40480.1"	44	"	"A/T"	"60,0/40,0"	"156/104"	260	stress_42	"POPTR_0001s40480.1"	44	"	"A/T"	"55,9/44,1"	"19/15"	34
stress_12bis	"POPTR_0001s40480.1"	44	"	"A/T"	"60,0/40,0"	"156/104"	260	stress_45	"POPTR_0001s40480.1"	44	"	"A/T"	"59,5/40,5"	"22/15"	37
stress_12bis	"POPTR_0002s05660.1"	131	"	"C/T"	"56,9/43,1"	"156/118"	274	stress_42	"POPTR_0002s05660.1"	131	"	"T/C"	"51,1/47,8"	"46/43"	90
stress_12bis	"POPTR_0002s05660.1"	131	"	"C/T"	"56,9/43,1"	"156/118"	274	stress_45	"POPTR_0002s05660.1"	131	"	"C/T"	"50,9/48,1"	"54/51"	106
stress_12bis	"POPTR_0011s17170.1"	297	"	"T/C"	"66,4/33,6"	"156/79"	235	stress_42	"POPTR_0011s17170.1"	297	"	"T/C"	"72,4/27,6"	"55/21"	76
stress_12bis	"POPTR_0011s17170.1"	297	"	"T/C"	"66,4/33,6"	"156/79"	235	stress_45	"POPTR_0011s17170.1"	297	"	"T/C"	"69,5/30,5"	"57/25"	82
stress_12bis	"POPTR_0001s38810.1"	550	"	"A/G"	"61,2/38,8"	"156/99"	255	stress_42	"POPTR_0001s38810.1"	550	"	"G/A"	"64,2/35,8"	"217/121"	338
stress_12bis	"POPTR_0001s38810.1"	550	"	"A/G"	"61,2/38,8"	"156/99"	255	stress_45	"POPTR_0001s38810.1"	550	"	"G/A"	"64,3/35,7"	"272/151"	423
stress_12bis	"POPTR_0004s01470.1"	1086	"	"A/G"	"59,0/41,0"	"157/109"	266	stress_42	"POPTR_0004s01470.1"	1086	"	"A/G"	"55,8/44,2"	"72/57"	129
stress_12bis	"POPTR_0004s01470.1"	1086	"	"A/G"	"59,0/41,0"	"157/109"	266	stress_45	"POPTR_0004s01470.1"	1086	"	"A/G"	"66,1/33,9"	"80/41"	121
stress_12bis	"POPTR_0002s22560.1"	113	"	"G/A"	"58,6/41,4"	"157/111"	268	stress_42	"POPTR_0002s22560.1"	113	"	"G/A"	"74,1/25,9"	"40/14"	54
stress_12bis	"POPTR_0002s22560.1"	113	"	"G/A"	"58,6/41,4"	"157/111"	268	stress_45	"POPTR_0002s22560.1"	113	"	"G/A"	"53,1/46,9"	"52/46"	98
stress_12bis	"POPTR_0008s05480.1"	1702	"	"C/T"	"58,4/41,6"	"157/112"	269	stress_42	"POPTR_0008s05480.1"	1702	"	"C/T"	"57,5/42,5"	"130/96"	226
stress_12bis	"POPTR_0008s05480.1"	1702	"	"C/T"	"58,4/41,6"	"157/112"	269	stress_45	"POPTR_0008s05480.1"	1702	"	"C/T"	"53,5/46,5"	"272/236"	508
stress_12bis	"POPTR_0005s24030.1"	128	"	"A/G"	"52,0/48,0"	"158/146"	304	stress_42	"POPTR_0005s24030.1"	128	"	"A/G"	"59,3/40,7"	"73/50"	123
stress_12bis	"POPTR_0005s24030.1"	128	"	"A/G"	"52,0/48,0"	"158/146"	304	stress_45	"POPTR_0005s24030.1"	128	"	"A/G"	"55,0/45,0"	"55/45"	100
stress_12bis	"POPTR_0008s15100.1"	291	"	"T/A"	"50,5/49,5"	"158/155"	313	stress_42	"POPTR_0008s15100.1"	291	"	"A/T"	"53,1/46,9"	"68/60"	128
stress_12bis	"POPTR_0008s15100.1"	291	"	"T/A"	"50,5/49,5"	"158/155"	313	stress_45	"POPTR_0008s15100.1"	291	"	"A/T"	"58,7/41,3"	"71/50"	121
stress_12bis	"POPTR_0017s06920.1"	699	"	"A/G"	"63,7/36,3"	"158/90"	248	stress_45	"POPTR_0017s06920.1"	699	"	"A/G"	"66,7/33,3"	"8/4"	12
stress_12bis	"POPTR_0005s13860.1"	712	"	"T/A"	"61,5/38,5"	"158/99"	257	stress_42	"POPTR_0005s13860.1"	712	"	"T/A"	"68,8/31,2"	"44/20"	64
stress_12bis	"POPTR_0005s13860.1"	712	"	"T/A"	"61,5/38,5"	"158/99"	257	stress_45	"POPTR_0005s13860.1"	712	"	"T/A"	"72,9/27,1"	"62/23"	85
stress_12bis	"POPTR_0002s22560.1"	136	"	"A/T"	"56,4/43,6"	"159/123"	282	stress_42	"POPTR_0002s22560.1"	136	"	"A/T"	"63,3/36,7"	"38/22"	60
stress_12bis	"POPTR_0002s22560.1"	136	"	"A/T"	"56,4/43,6"	"159/123"	282	stress_45	"POPTR_0002s22560.1"	136	"	"A/T"	"53,9/46,1"	"55/47"	102
stress_12bis	"POPTR_0011s08940.1"	794	"	"G/C"	"50,8/49,2"	"159/154"	313	stress_42	"POPTR_0011s08940.1"	794	"	"C/G"	"64,1/35,9"	"50/28"	78
stress_12bis	"POPTR_0011s08940.1"	794	"	"G/C"	"50,8/49,2"	"159/154"	313	stress_45	"POPTR_0011s08940.1"	794	"	"C/G"	"67,8/32,2"	"103/49"	152
stress_12bis	"POPTR_0009s05840.1"	168	"	"T/C"	"61,5/38,5"	"16/10"	26	stress_45	"POPTR_0009s05840.1"	168	"	"T/C"	"54,1/45,9"	"59/50"	109
stress_12bis	"POPTR_0001s32780.1"	810	"	"T/C"	"57,1/42,9"	"16/12"	28	stress_42	"POPTR_0001s32780.1"	810	"	"C/T"	"52,2/47,8"	"59/54"	113
stress_12bis	"POPTR_0001s32780.1"	810	"	"T/C"	"57,1/42,9"	"16/12"	28	stress_45	"POPTR_0001s32780.1"	810	"	"T/C"	"56,8/43,2"	"105/80"	185
stress_12bis	"POPTR_0016s08520.1"	1036	"	"G/T"	"55,2/44,8"	"16/13"	29	stress_45	"POPTR_0016s08520.1"	1036	"	"T/G"	"56,6/43,4"	"69/53"	122
stress_12bis	"POPTR_0009s07210.1"	1398	"	"A/T"	"76,2/23,8"	"16/5"	21	stress_45	"POPTR_0009s07210.1"	1398	"	"A/T"	"75,8/24,2"	"138/44"	182
stress_12bis	"POPTR_0001s40250.1"	1899	"	"A/G"	"76,2/23,8"	"16/5"	21	stress_45	"POPTR_0001s40250.1"	1899	"	"A/G"	"78,6/21,4"	"110/30"	140
stress_12bis	"POPTR_0002s08150.1"	589	"	"C/T"	"76,2/23,8"	"16/5"	21	stress_45	"POPTR_0002s08150.1"	589	"	"C/T"	"82,5/17,5"	"104/22"	126
stress_12bis	"POPTR_0014s14200.1"	606	"	"A/C"	"72,7/27,3"	"16/6"	22	stress_45	"POPTR_0014s14200.1"	606	"	"A/C"	"64,8/35,2"	"68/37"	105
stress_12bis	"POPTR_0009s05840.1"	210	"	"A/G"	"72,7/27,3"	"16/6"	22	stress_45	"POPTR_0009s05840.1"	210	"	"A/G"	"65,4/34,6"	"83/44"	127
stress_12bis	"POPTR_0015s04140.1"	2012	"	"T/C"	"72,7/27,3"	"16/6"	22	stress_45	"POPTR_0015s04140.1"	2012	"	"T/C"	"67,2/32,8"	"78/38"	116
stress_12bis	"POPTR_0001s09030.1"	534	"	"C/T"	"72,7/27,3"	"16/6"	22	stress_45	"POPTR_0001s09030.1"	534	"	"T/C"	"66,7/33,3"	"98/49"	147
stress_12bis	"POPTR_0002s08150.1"	591	"	"C/G"	"72,7/27,3"	"16/6"	22	stress_45	"POPTR_0002s08150.1"	591	"	"C/G"	"80,8/19,2"	"101/24"	125
stress_12bis	"POPTR_0002s10000.1"	630	"	"G/T"	"72,7/27,3"	"16/6"	22	stress_45	"POPTR_0002s10000.1"	630	"	"G/T"	"72,7/26,4"	"88/32"	121
stress_12bis	"POPTR_0008s09150.1"	180	"	"C/T"	"69,6/30,4"	"16/7"	23	stress_42	"POPTR_0008s09150.1"	180	"	"C/T"	"51,4/48,6"	"54/51"	105
stress_12bis	"POPTR_0008s09150.1"	180	"	"C/T"	"69,6/30,4"	"16/7"	23	stress_45	"POPTR_0008s09150.1"	180	"	"C/T"	"50,5/49,5"	"105/103"	208
stress_12bis	"POPTR_0014s14200.1"	633	"	"G/A"	"66,7/33,3"	"16/8"	24	stress_45	"POPTR_0014s14200.1"	633	"	"G/A"	"64,3/35,7"	"83/46"	129
stress_12bis	"POPTR_0010s22950.1"	99	"	"A/T"	"66,7/33,3"	"16/8"	24	stress_42	"POPTR_0010s22950.1"	99	"	"A/T"	"63,4/36,6"	"204/118"	322
stress_12bis	"POPTR_0010s22950.1"	99	"	"A/T"	"66,7/33,3"	"16/8"	24	stress_45	"POPTR_0010s22950.1"	99	"	"A/T"	"62,1/37,9"	"330/201"	531
stress_12bis	"POPTR_0009s05840.1"	411	"	"T/C"	"64,0/36,0"	"16/9"	25	stress_45	"POPTR_0009s05840.1"	411	"	"T/C"	"59,3/40,7"	"83/57"	140
stress_12bis	"POPTR_0001s14310.1"	84	"	"G/A"	"64,0/36,0"	"16/9"	25	stress_45	"POPTR_0001s14310.1"	84	"	"A/G"	"50,0/50,0"	"76/76"	152
stress_12bis	"POPTR_0005s11500.1"	702	"	"C/T"	"53,3/46,7"	"160/140"	300	stress_42	"POPTR_0005s11500.1"	702	"	"T/C"	"56,8/43,2"	"42/32"	74
stress_12bis	"POPTR_0005s11500.1"	702	"	"C/T"	"53,3/46,7"	"160/140"	300	stress_45	"POPTR_0005s11500.1"	702	"	"T/C"	"53,7/46,3"	"65/56"	121
stress_12bis	"POPTR_0002s14730.1"	630	"	"A/T"	"82,5/17,5"	"160/34"	194	stress_42	"POPTR_0002s14730.1"	630	"	"T/A"	"58,7/41,3"	"27/19"	46
stress_12bis	"POPTR_0002s14730.1"	630	"	"A/T"	"82,5/17,5"	"160/34"	194	stress_45	"POPTR_0002s14730.1"	630	"	"T/A"	"50,5/49,5"	"46/45"	91
stress_12bis	"POPTR_0002s22600.1"	979	"	"G/T"	"79,6/20,4"	"160/41"	201	stress_42	"POPTR_0002s22600.1"	979	"	"G/T"	"73,8/26,2"	"45/16"	61
stress_12bis	"POPTR_0002s22600.1"	979	"	"G/T"	"79,6/20,4"	"160/41"	201	stress_45	"POPTR_0002s22600.1"	979	"	"G/T"	"68,8/31,2"	"64/29"	93
stress_12bis	"POPTR_0014s11210.1"	899	"	"A/T"	"67,2/32,8"	"160/78"	238	stress_42	"POPTR_0014s11210.1"	899	"	"A/T"	"54,4/45,6"	"68/57"	125
stress_12bis	"POPTR_0014s11210.1"	899	"	"A/T"	"67,2/32,8"	"160/78"	238	stress_45	"POPTR_0014s11210.1"	899	"	"A/T"	"54,8/45,2"	"68/56"	124
stress_12bis	"POPTR_0008s15780.1"	164	"	"A/G"	"75,4/24,6"	"1609/526"	2135	stress_42	"POPTR_0008s15780.1"	164	"	"A/G"	"78,0/22,0"	"1741/491"	2232
stress_12bis	"POPTR_0008s15780.1"	164	"	"A/G"	"75,4/24,6"	"1609/526"	2135	stress_45	"POPTR_0008s15780.1"	164	"	"A/G"	"77,1/22,9"	"2113/629"	2742
stress_12bis	"POPTR_0017s06920.1"	339	"	"T/C"	"55,9/44,1"	"161/127"	288	stress_42	"POPTR_0017s06920.1"	339	"	"T/C"	"66,7/33,3"	"8/4"	12
stress_12bis	"POPTR_0004s08380.1"	49	"	"G/A"	"76,7/23,3"	"161/49"	210	stress_42	"POPTR_0004s08380.1"	49	"	"G/A"	"63,6/36,4"	"14/8"	22
stress_12bis	"POPTR_0004s08380.1"	49	"	"G/A"	"76,7/23,3"	"161/49"	210	stress_45	"POPTR_0004s08380.1"	49	"	"G/A"	"83,3/16,7"	"25/5"	30
stress_12bis	"POPTR_0005s13860.1"	729	"	"A/G"	"72,2/27,8"	"161/62"	223	stress_42	"POPTR_0005s13860.1"	729	"	"A/G"	"75,9/24,1"	"41/13"	54
stress_12bis	"POPTR_0005s13860.1"	729	"	"A/G"	"72,2/27,8"	"161/62"	223	stress_45	"POPTR_0005s13860.1"	729	"	"A/G"	"84,8/15,2"	"78/14"	92
stress_12bis	"POPTR_0004s09910.1"	331	"	"T/C"	"61,0/38,7"	"1612/1023"	2642	stress_42	"POPTR_0004s09910.1"	331	"	"T/C"	"65,1/34,6"	"233/124"	358
stress_12bis	"POPTR_0004s09910.1"	331	"	"T/C"	"61,0/38,7"	"1612/1023"	2642	stress_45	"POPTR_0004s09910.1"	331	"	"T/C"	"62,4/37,1"	"254/151"	407
stress_12bis	"POPTR_0004s01470.1"	581	"	"G/A"	"53,6/46,0"	"162/139"	302	stress_42	"POPTR_0004s01470.1"	581	"	"G/A"	"60,4/39,6"	"64/42"	106
stress_12bis	"POPTR_0004s01470.1"	581	"	"G/A"	"53,6/46,0"	"162/139"	302	stress_45	"POPTR_0004s01470.1"	581	"	"G/A"	"60,3/39,7"	"73/48"	121
stress_12bis	"POPTR_0014s10200.1"	82	"	"C/G"	"61,5/38,5"	"163/102"	265	stress_42	"POPTR_0014s10200.1"	82	"	"C/G"	"70,2/29,8"	"40/17"	57
stress_12bis	"POPTR_0014s10200.1"	82	"	"C/G"	"61,5/38,5"	"163/102"	265	stress_45	"POPTR_0014s10200.1"	82	"	"C/G"	"50,7/49,3"	"34/33"	67
stress_12bis	"POPTR_0001s35230.1"	87	"	"A/G"	"52,6/47,4"	"163/147"	310	stress_42	"POPTR_0001s35230.1"	87	"	"G/A"	"51,4/48,6"	"75/71"	146
stress_12bis	"POPTR_0001s35230.1"	87	"	"A/G"	"52,6/47,4"	"163/147"	310	stress_45	"POPTR_0001s35230.1"	87	"	"G/A"	"51,3/48,7"	"97/92"	189
stress_12bis	"POPTR_0010s07730.1"	264	"	"C/T"	"71,8/28,2"	"163/64"	227	stress_42	"POPTR_0010s07730.1"	264	"	"C/T"	"72,5/27,5"	"79/30"	109
stress_12bis	"POPTR_0010s07730.1"	264	"	"C/T"	"71,8/28,2"	"163/64"	227	stress_45	"POPTR_0010s07730.1"	264	"	"C/T"	"65,5/34,5"	"57/30"	87
stress_12bis	"POPTR_0002s05660.1"	318	"	"C/T"	"55,6/44,4"	"164/131"	295	stress_42	"POPTR_0002s05660.1"	318	"	"T/C"	"52,8/47,2"	"65/58"	123
stress_12bis	"POPTR_0002s05660.1"	318	"	"C/T"	"55,6/44,4"	"164/131"	295	stress_45	"POPTR_0002s05660.1"	318	"	"C/T"	"50,4/49,6"	"70/69"	139
stress_12bis	"POPTR_0005s26740.1"	72	"	"C/T"	"79,6/20,4"	"164/42"	206	stress_42	"POPTR_0005s26740.1"	72	"	"C/T"	"71,0/29,0"	"76/31"	107
stress_12bis	"POPTR_0005s26740.1"	72	"	"C/T"	"79,6/20,4"	"164/42"	206	stress_45	"POPTR_0005s26740.1"	72	"	"C/T"	"78,7/21,3"	"122/33"	155
stress_12bis	"POPTR_0001s11600.1"	189	"	"T/A"	"57,7/41,6"	"165/119"	286	stress_42	"POPTR_0001s11600.1"	189	"	"A/T"	"61,3/38,7"	"38/24"	62
stress_12bis	"POPTR_0001s11600.1"	189	"	"T/A"	"57,7/41,6"	"165/119"	286	stress_45	"POPTR_0001s11600.1"	189	"	"T/A"	"57,4/42,6"	"35/26"	61
stress_12bis	"POPTR_0006s14400.1"	621	"	"A/G"	"53,7/46,3"	"165/142"	307	stress_42	"POPTR_0006s14400.1"	621	"	"G/A"	"78,6/21,4"	"426/116"	542
stress_12bis	"POPTR_0006s14400.1"	621	"	"A/G"	"53,7/46,3"	"165/142"	307	stress_45	"POPTR_0006s14400.1"	621	"	"G/A"	"79,9/20,1"	"631/159"	790
stress_12bis	"POPTR_0002s22600.1"	980	"	"A/T"	"79,8/20,2"	"166/42"	208	stress_42	"POPTR_0002s22600.1"	980	"	"A/T"	"74,2/25,8"	"46/16"	62
stress_12bis	"POPTR_0002s22600.1"	980	"	"A/T"	"79,8/20,2"	"166/42"	208	stress_45	"POPTR_0002s22600.1"	980	"	"A/T"	"68,1/31,9"	"64/30"	94
stress_12bis	"POPTR_0002s00840.1"	666	"	"C/T"	"62,2/37,8"	"168/102"	270	stress_42	"POPTR_0002s00840.1"	666	"	"C/T"	"68,3/31,7"	"28/13"	41
stress_12bis	"POPTR_0002s00840.1"	666	"	"C/T"	"62,2/37,8"	"168/102"	270	stress_45	"POPTR_0002s00840.1"	666	"	"C/T"	"69,6/30,4"	"32/14"	46
stress_12bis	"POPTR_0002s01080.1"	1455	"	"G/T"	"51,2/48,5"	"168/159"	328	stress_42	"POPTR_0002s01080.1"	1455	"	"G/T"	"52,7/47,3"	"98/88"	186
stress_12bis	"POPTR_0002s01080.1"	1455	"	"G/T"	"51,2/48,5"	"168/159"	328	stress_45	"POPTR_0002s01080.1"	1455	"	"T/G"	"50,4/49,1"	"114/111"	226
stress_12bis	"POPTR_0005s13860.1"	771	"	"A/T"	"63,4/36,6"	"168/97"	265	stress_42	"POPTR_0005s13860.1"	771	"	"A/T"	"75,3/24,7"	"58/19"	77
stress_12bis	"POPTR_0005s13860.1"	771	"	"A/T"	"63,4/36,6"	"168/97"	265	stress_45	"POPTR_0005s13860.1"	771	"	"A/T"	"64,1/35,9"	"59/33"	92
stress_12bis	"POPTR_0002s19710.1"	360	"	"A/T"	"56,5/42,8"	"169/128"	299	stress_42	"POPTR_0002s19710.1"	360	"	"A/T"	"64,5/34,7"	"78/42"	121
stress_12bis	"POPTR_0002s19710.1"	360	"	"A/T"	"56,5/42,8"	"169/128"	299	stress_45	"POPTR_0002s19710.1"	360	"	"A/T"	"53,3/46,7"	"48/42"	90
stress_12bis	"POPTR_0002s14730.1"	1638	"	"T/A"	"80,5/19,5"	"169/41"	210	stress_42	"POPTR_0002s14730.1"	1638	"	"A/T"	"53,6/46,4"	"37/32"	69
stress_12bis	"POPTR_0002s14730.1"	1638	"	"T/A"	"80,5/19,5"	"169/41"	210	stress_45	"POPTR_0002s14730.1"	1638	"	"A/T"	"54,7/45,3"	"58/48"	106
stress_12bis	"POPTR_0016s08520.1"	765	"	"G/A"	"63,0/37,0"	"17/10"	27	stress_45	"POPTR_0016s08520.1"	765	"	"A/G"	"52,3/47,7"	"56/51"	107
stress_12bis	"POPTR_0009s05840.1"	318	"	"A/T"	"60,7/39,3"	"17/11"	28	stress_45	"POPTR_0009s05840.1"	318	"	"A/T"	"58,8/41,2"	"104/73"	177
stress_12bis	"POPTR_0010s19860.1"	659	"	"T/C"	"56,7/43,3"	"17/13"	30	stress_45	"POPTR_0010s19860.1"	659	"	"T/C"	"50,0/49,1"	"55/54"	110
stress_12bis	"POPTR_0002s04420.1"	97	"	"C/T"	"56,7/43,3"	"17/13"	30	stress_45	"POPTR_0002s04420.1"	97	"	"C/T"	"53,0/47,0"	"62/55"	117
stress_12bis	"POPTR_0002s09480.1"	467	"	"C/A"	"56,7/43,3"	"17/13"	30	stress_45	"POPTR_0002s09480.1"	467	"	"C/A"	"53,2/46,8"	"82/72"	154
stress_12bis	"POPTR_0008s12550.1"	1638	"	"T/C"	"54,8/45,2"	"17/14"	31	stress_45	"POPTR_0008s12550.1"	1638	"	"T/C"	"50,9/49,1"	"57/55"	112
stress_12bis	"POPTR_0013s15560.1"	141	"	"A/G"	"51,5/48,5"	"17/16"	33	stress_42	"POPTR_0013s15560.1"	141	"	"G/A"	"51,7/48,3"	"74/69"	143
stress_12bis	"POPTR_0013s15560.1"	141	"	"A/G"	"51,5/48,5"	"17/16"	33	stress_45	"POPTR_0013s15560.1"	141	"	"G/A"	"55,8/43,6"	"92/72"	165
stress_12bis	"POPTR_0008s12550.1"	102	"	"A/C"	"51,5/48,5"	"17/16"	33	stress_45	"POPTR_0008s12550.1"	102	"	"C/A"	"50,5/49,5"	"53/52"	105
stress_12bis	"POPTR_0002s08150.1"	500	"	"A/C"	"65,4/34,6"	"17/9"	26	stress_45	"POPTR_0002s08150.1"	500	"	"A/C"	"51,5/48,5"	"85/80"	165
stress_12bis	"POPTR_0002s22560.1"	124	"	"T/C"	"62,5/37,5"	"170/102"	272	stress_42	"POPTR_0002s22560.1"	124	"	"T/C"	"68,4/31,6"	"39/18"	57
stress_12bis	"POPTR_0002s22560.1"	124	"	"T/C"	"62,5/37,5"	"170/102"	272	stress_45	"POPTR_0002s22560.1"	124	"	"T/C"	"52,0/48,0"	"51/47"	98
stress_12bis	"POPTR_0011s08940.1"	408	"	"C/T"	"54,0/46,0"	"170/145"	315	stress_42	"POPTR_0011s08940.1"	408	"	"T/C"	"69,5/30,5"	"41/18"	59
stress_12bis	"POPTR_0011s08940.1"	408	"	"C/T"	"54,0/46,0"	"170/145"	315	stress_45	"POPTR_0011s08940.1"	408	"	"C/T"	"55,7/44,3"	"54/43"	97
stress_12bis	"POPTR_0014s13660.1"	306	"	"C/T"	"50,9/49,1"	"171/165"	336	stress_42	"POPTR_0014s13660.1"	306	"	"C/T"	"50,5/49,5"	"48/47"	95
stress_12bis	"POPTR_0014s13660.1"	306	"	"C/T"	"50,9/49,1"	"171/165"	336	stress_45	"POPTR_0014s13660.1"	306	"	"C/T"	"50,9/49,1"	"57/55"	112
stress_12bis	"POPTR_0001s40480.1"	106	"	"T/G"	"57,5/42,1"	"172/126"	299	stress_42	"POPTR_0001s40480.1"	106	"	"G/T"	"57,7/42,3"	"15/11"	26
stress_12bis	"POPTR_0001s40480.1"	106	"	"T/G"	"57,5/42,1"	"172/126"	299	stress_45	"POPTR_0001s40480.1"	106	"	"G/T"	"59,0/41,0"	"23/16"	39
stress_12bis	"POPTR_0009s01320.1"	1731	"	"T/A"	"58,2/41,8"	"173/124"	297	stress_42	"POPTR_0009s01320.1"	1731	"	"T/A"	"60,0/40,0"	"255/170"	425
stress_12bis	"POPTR_0009s01320.1"	1731	"	"T/A"	"58,2/41,8"	"173/124"	297	stress_45	"POPTR_0009s01320.1"	1731	"	"T/A"	"59,0/41,0"	"222/154"	376
stress_12bis	"POPTR_0014s10200.1"	253	"	"G/T"	"52,4/47,6"	"173/157"	330	stress_42	"POPTR_0014s10200.1"	253	"	"G/T"	"53,5/46,5"	"46/40"	86
stress_12bis	"POPTR_0014s10200.1"	253	"	"G/T"	"52,4/47,6"	"173/157"	330	stress_45	"POPTR_0014s10200.1"	253	"	"G/T"	"52,4/47,6"	"43/39"	82
stress_12bis	"POPTR_0002s14730.1"	1088	"	"A/T"	"58,6/41,4"	"174/123"	297	stress_42	"POPTR_0002s14730.1"	1088	"	"T/A"	"73,1/26,9"	"76/28"	104
stress_12bis	"POPTR_0002s14730.1"	1088	"	"A/T"	"58,6/41,4"	"174/123"	297	stress_45	"POPTR_0002s14730.1"	1088	"	"T/A"	"71,8/28,2"	"130/51"	181
stress_12bis	"POPTR_0004s01470.1"	597	"	"A/T"	"57,8/42,2"	"174/127"	301	stress_42	"POPTR_0004s01470.1"	597	"	"A/T"	"55,7/44,3"	"59/47"	106
stress_12bis	"POPTR_0004s01470.1"	597	"	"A/T"	"57,8/42,2"	"174/127"	301	stress_45	"POPTR_0004s01470.1"	597	"	"A/T"	"60,0/40,0"	"75/50"	125
stress_12bis	"POPTR_0014s11210.1"	975	"	"T/A"	"71,6/27,6"	"174/67"	243	stress_42	"POPTR_0014s11210.1"	975	"	"T/A"	"68,7/30,4"	"79/35"	115
stress_12bis	"POPTR_0014s11210.1"	975	"	"T/A"	"71,6/27,6"	"174/67"	243	stress_45	"POPTR_0014s11210.1"	975	"	"T/A"	"62,6/36,5"	"72/42"	115
stress_12bis	"POPTR_0011s11960.1"	77	"	"A/G"	"50,6/49,4"	"1758/1714"	3472	stress_42	"POPTR_0011s11960.1"	77	"	"A/G"	"80,5/19,5"	"9321/2262"	11586
stress_12bis	"POPTR_0011s11960.1"	77	"	"A/G"	"50,6/49,4"	"1758/1714"	3472	stress_45	"POPTR_0011s11960.1"	77	"	"A/G"	"77,7/22,3"	"7618/2186"	9804
stress_12bis	"POPTR_0002s22600.1"	1158	"	"G/T"	"53,6/45,8"	"177/151"	330	stress_42	"POPTR_0002s22600.1"	1158	"	"G/T"	"59,1/40,9"	"78/54"	132
stress_12bis	"POPTR_0002s22600.1"	1158	"	"G/T"	"53,6/45,8"	"177/151"	330	stress_45	"POPTR_0002s22600.1"	1158	"	"G/T"	"63,9/36,1"	"108/61"	169
stress_12bis	"POPTR_0005s24030.1"	126	"	"G/A"	"53,1/46,6"	"178/156"	335	stress_42	"POPTR_0005s24030.1"	126	"	"G/A"	"59,5/40,5"	"78/53"	131
stress_12bis	"POPTR_0005s24030.1"	126	"	"G/A"	"53,1/46,6"	"178/156"	335	stress_45	"POPTR_0005s24030.1"	126	"	"G/A"	"57,3/42,7"	"63/47"	110
stress_12bis	"POPTR_0006s27170.1"	381	"	"C/T"	"51,7/48,3"	"178/166"	344	stress_42	"POPTR_0006s27170.1"	381	"	"C/T"	"63,6/36,4"	"21/12"	33
stress_12bis	"POPTR_0006s27170.1"	381	"	"C/T"	"51,7/48,3"	"178/166"	344	stress_45	"POPTR_0006s27170.1"	381	"	"C/T"	"53,5/46,5"	"38/33"	71
stress_12bis	"POPTR_0006s13310.1"	251	"	"A/G"	"61,1/38,9"	"179/114"	293	stress_42	"POPTR_0006s13310.1"	251	"	"A/G"	"63,2/36,8"	"134/78"	212
stress_12bis	"POPTR_0006s13310.1"	251	"	"A/G"	"61,1/38,9"	"179/114"	293	stress_45	"POPTR_0006s13310.1"	251	"	"A/G"	"55,6/44,4"	"189/151"	340
stress_12bis	"POPTR_0008s20770.1"	492	"	"G/A"	"59,1/40,9"	"179/124"	303	stress_42	"POPTR_0008s20770.1"	492	"	"A/G"	"57,4/42,6"	"120/89"	209
stress_12bis	"POPTR_0008s20770.1"	492	"	"G/A"	"59,1/40,9"	"179/124"	303	stress_45	"POPTR_0008s20770.1"	492	"	"A/G"	"51,2/48,8"	"147/140"	287
stress_12bis	"POPTR_0017s06920.1"	69	"	"G/A"	"57,7/42,3"	"179/131"	310	stress_45	"POPTR_0017s06920.1"	69	"	"G/A"	"76,9/23,1"	"10/3"	13
stress_12bis	"POPTR_0017s06920.1"	1377	"	"T/A"	"65,6/34,4"	"179/94"	273	stress_45	"POPTR_0017s06920.1"	1377	"	"T/A"	"60,0/40,0"	"9/6"	15
stress_12bis	"POPTR_0009s05720.1"	106	"	"A/G"	"64,4/35,6"	"179/99"	278	stress_42	"POPTR_0009s05720.1"	106	"	"A/G"	"73,9/26,1"	"51/18"	69
stress_12bis	"POPTR_0009s05720.1"	106	"	"A/G"	"64,4/35,6"	"179/99"	278	stress_45	"POPTR_0009s05720.1"	106	"	"A/G"	"74,5/25,5"	"35/12"	47
stress_12bis	"POPTR_0015s13050.1"	514	"	"G/A"	"62,1/37,9"	"18/11"	29	stress_45	"POPTR_0015s13050.1"	514	"	"G/A"	"61,5/38,5"	"107/67"	174
stress_12bis	"POPTR_0016s08520.1"	415	"	"G/A"	"62,1/37,9"	"18/11"	29	stress_45	"POPTR_0016s08520.1"	415	"	"G/A"	"50,9/49,1"	"55/53"	108
stress_12bis	"POPTR_0001s36050.1"	735	"	"T/C"	"60,0/40,0"	"18/12"	30	stress_45	"POPTR_0001s36050.1"	735	"	"C/T"	"56,2/42,9"	"59/45"	105
stress_12bis	"POPTR_0002s03990.1"	123	"	"C/T"	"58,1/41,9"	"18/13"	31	stress_42	"POPTR_0002s03990.1"	123	"	"C/T"	"61,1/38,9"	"66/42"	108
stress_12bis	"POPTR_0018s09730.1"	936	"	"G/A"	"56,2/43,8"	"18/14"	32	stress_42	"POPTR_0018s09730.1"	936	"	"A/G"	"64,4/35,6"	"141/78"	219
stress_12bis	"POPTR_0018s09730.1"	936	"	"G/A"	"56,2/43,8"	"18/14"	32	stress_45	"POPTR_0018s09730.1"	936	"	"A/G"	"63,2/36,8"	"215/125"	340
stress_12bis	"POPTR_0009s05850.1"	804	"	"C/T"	"56,2/43,8"	"18/14"	32	stress_45	"POPTR_0009s05850.1"	804	"	"T/C"	"54,8/45,2"	"92/76"	168
stress_12bis	"POPTR_0007s06220.1"	108	"	"G/C"	"56,2/43,8"	"18/14"	32	stress_45	"POPTR_0007s06220.1"	108	"	"C/G"	"63,6/36,4"	"89/51"	140
stress_12bis	"POPTR_0016s08520.1"	702	"	"G/T"	"54,5/45,5"	"18/15"	33	stress_45	"POPTR_0016s08520.1"	702	"	"G/T"	"52,3/47,7"	"57/52"	109
stress_12bis	"POPTR_0001s32950.1"	138	"	"G/T"	"51,4/48,6"	"18/17"	35	stress_45	"POPTR_0001s32950.1"	138	"	"T/G"	"51,5/48,5"	"68/64"	132
stress_12bis	"POPTR_0015s04140.1"	1541	"	"A/C"	"50,0/50,0"	"18/18"	36	stress_45	"POPTR_0015s04140.1"	1541	"	"A/C"	"50,0/50,0"	"56/56"	112
stress_12bis	"POPTR_0015s12460.1"	369	"	"G/T"	"50,0/50,0"	"18/18"	36	stress_45	"POPTR_0015s12460.1"	369	"	"G/T"	"55,7/44,3"	"59/47"	106
stress_12bis	"POPTR_0001s40250.1"	1938	"	"T/C"	"81,8/18,2"	"18/4"	22	stress_45	"POPTR_0001s40250.1"	1938	"	"T/C"	"75,2/23,6"	"124/39"	165
stress_12bis	"POPTR_0010s08290.1"	452	"	"T/A"	"78,3/21,7"	"18/5"	23	stress_42	"POPTR_0010s08290.1"	452	"	"T/A"	"84,5/15,5"	"98/18"	116
stress_12bis	"POPTR_0018s09730.1"	711	"	"A/G"	"72,0/28,0"	"18/7"	25	stress_42	"POPTR_0018s09730.1"	711	"	"A/G"	"58,3/41,7"	"123/88"	211
stress_12bis	"POPTR_0018s09730.1"	711	"	"A/G"	"72,0/28,0"	"18/7"	25	stress_45	"POPTR_0018s09730.1"	711	"	"A/G"	"58,8/41,2"	"190/133"	323
stress_12bis	"POPTR_0010s19930.1"	480	"	"C/A"	"66,7/29,6"	"18/8"	27	stress_42	"POPTR_0010s19930.1"	480	"	"C/A"	"69,9/30,1"	"114/49"	163
stress_12bis	"POPTR_0010s19930.1"	480	"	"C/A"	"66,7/29,6"	"18/8"	27	stress_45	"POPTR_0010s19930.1"	480	"	"C/A"	"66,0/32,6"	"93/46"	141
stress_12bis	"POPTR_0002s19060.1"	1431	"	"T/C"	"66,7/33,3"	"18/9"	27	stress_42	"POPTR_0002s19060.1"	1431	"	"C/T"	"61,8/38,2"	"63/39"	102
stress_12bis	"POPTR_0002s19060.1"	1431	"	"T/C"	"66,7/33,3"	"18/9"	27	stress_45	"POPTR_0002s19060.1"	1431	"	"C/T"	"59,2/40,8"	"61/42"	103
stress_12bis	"POPTR_0011s08940.1"	1008	"	"T/C"	"54,5/45,2"	"180/149"	330	stress_42	"POPTR_0011s08940.1"	1008	"	"C/T"	"66,3/33,7"	"69/35"	104
stress_12bis	"POPTR_0011s08940.1"	1008	"	"T/C"	"54,5/45,2"	"180/149"	330	stress_45	"POPTR_0011s08940.1"	1008	"	"C/T"	"61,9/38,1"	"99/61"	160
stress_12bis	"POPTR_0011s08940.1"	1259	"	"G/A"	"51,1/48,9"	"180/172"	352	stress_42	"POPTR_0011s08940.1"	1259	"	"A/G"	"64,5/35,5"	"69/38"	107
stress_12bis	"POPTR_0011s08940.1"	1259	"	"G/A"	"51,1/48,9"	"180/172"	352	stress_45	"POPTR_0011s08940.1"	1259	"	"A/G"	"66,9/33,1"	"117/58"	175
stress_12bis	"POPTR_0007s12070.1"	846	"	"C/T"	"69,2/30,8"	"180/80"	260	stress_42	"POPTR_0007s12070.1"	846	"	"C/T"	"61,9/38,1"	"39/24"	63
stress_12bis	"POPTR_0007s12070.1"	846	"	"C/T"	"69,2/30,8"	"180/80"	260	stress_45	"POPTR_0007s12070.1"	846	"	"T/C"	"51,6/48,4"	"32/30"	62
stress_12bis	"POPTR_0004s18190.1"	372	"	"A/T"	"52,3/47,4"	"181/164"	346	stress_42	"POPTR_0004s18190.1"	372	"	"A/T"	"54,7/45,3"	"35/29"	64
stress_12bis	"POPTR_0004s18190.1"	372	"	"A/T"	"52,3/47,4"	"181/164"	346	stress_45	"POPTR_0004s18190.1"	372	"	"A/T"	"61,3/38,7"	"38/24"	62
stress_12bis	"POPTR_0014s13660.1"	167	"	"G/A"	"78,4/21,2"	"181/49"	231	stress_42	"POPTR_0014s13660.1"	167	"	"G/A"	"73,6/26,4"	"39/14"	53
stress_12bis	"POPTR_0014s13660.1"	167	"	"G/A"	"78,4/21,2"	"181/49"	231	stress_45	"POPTR_0014s13660.1"	167	"	"G/A"	"69,3/30,7"	"52/23"	75
stress_12bis	"POPTR_0008s20770.1"	378	"	"T/C"	"72,1/27,9"	"181/70"	251	stress_42	"POPTR_0008s20770.1"	378	"	"T/C"	"54,5/45,5"	"84/70"	154
stress_12bis	"POPTR_0008s20770.1"	378	"	"T/C"	"72,1/27,9"	"181/70"	251	stress_45	"POPTR_0008s20770.1"	378	"	"T/C"	"55,5/44,5"	"131/105"	236
stress_12bis	"POPTR_0007s12070.1"	159	"	"C/T"	"55,8/44,2"	"182/144"	326	stress_42	"POPTR_0007s12070.1"	159	"	"T/C"	"52,5/47,5"	"32/29"	61
stress_12bis	"POPTR_0007s12070.1"	159	"	"C/T"	"55,8/44,2"	"182/144"	326	stress_45	"POPTR_0007s12070.1"	159	"	"C/T"	"58,3/41,7"	"56/40"	96
stress_12bis	"POPTR_0002s22560.1"	465	"	"T/C"	"55,7/44,3"	"182/145"	327	stress_42	"POPTR_0002s22560.1"	465	"	"T/C"	"60,9/39,1"	"42/27"	69
stress_12bis	"POPTR_0002s22560.1"	465	"	"T/C"	"55,7/44,3"	"182/145"	327	stress_45	"POPTR_0002s22560.1"	465	"	"T/C"	"54,7/45,3"	"76/63"	139
stress_12bis	"POPTR_0004s01470.1"	765	"	"T/G"	"55,2/44,8"	"182/148"	330	stress_42	"POPTR_0004s01470.1"	765	"	"T/G"	"66,9/32,3"	"89/43"	133
stress_12bis	"POPTR_0004s01470.1"	765	"	"T/G"	"55,2/44,8"	"182/148"	330	stress_45	"POPTR_0004s01470.1"	765	"	"T/G"	"52,9/47,1"	"64/57"	121
stress_12bis	"POPTR_0008s15100.1"	566	"	"T/C"	"51,3/48,7"	"182/173"	355	stress_42	"POPTR_0008s15100.1"	566	"	"T/C"	"52,4/47,6"	"77/70"	147
stress_12bis	"POPTR_0008s15100.1"	566	"	"T/C"	"51,3/48,7"	"182/173"	355	stress_45	"POPTR_0008s15100.1"	566	"	"T/C"	"52,7/47,3"	"68/61"	129
stress_12bis	"POPTR_0008s15100.1"	408	"	"C/T"	"52,9/47,1"	"183/163"	346	stress_42	"POPTR_0008s15100.1"	408	"	"T/C"	"54,0/46,0"	"75/64"	139
stress_12bis	"POPTR_0008s15100.1"	408	"	"C/T"	"52,9/47,1"	"183/163"	346	stress_45	"POPTR_0008s15100.1"	408	"	"C/T"	"53,2/46,8"	"66/58"	124
stress_12bis	"POPTR_0002s14730.1"	1836	"	"T/A"	"65,6/20,4"	"183/57"	279	stress_42	"POPTR_0002s14730.1"	1836	"	"A/T/	"36,7/34,2/29,2"	"44/41/35"	120
stress_12bis	"POPTR_0002s14730.1"	1836	"	"T/A"	"65,6/20,4"	"183/57"	279	stress_45	"POPTR_0002s14730.1"	1836	"	"A/T/	"38,7/33,5/27,7"	"60/52/43"	155
stress_12bis	"POPTR_0006s23890.1"	107	"	"T/C"	"69,6/30,4"	"183/80"	263	stress_42	"POPTR_0006s23890.1"	107	"	"T/C"	"63,2/35,9"	"74/42"	117
stress_12bis	"POPTR_0006s23890.1"	107	"	"T/C"	"69,6/30,4"	"183/80"	263	stress_45	"POPTR_0006s23890.1"	107	"	"T/C"	"65,1/34,9"	"82/44"	126
stress_12bis	"POPTR_0006s08530.1"	290	"	"C/A"	"57,1/42,9"	"1830/1377"	3207	stress_42	"POPTR_0006s08530.1"	290	"	"A/C"	"59,5/40,5"	"2056/1399"	3455
stress_12bis	"POPTR_0006s08530.1"	290	"	"C/A"	"57,1/42,9"	"1830/1377"	3207	stress_45	"POPTR_0006s08530.1"	290	"	"A/C"	"55,9/44,0"	"1985/1563"	3550
stress_12bis	"POPTR_0009s01320.1"	1737	"	"G/T"	"57,0/43,0"	"184/139"	323	stress_42	"POPTR_0009s01320.1"	1737	"	"G/T"	"59,4/40,6"	"281/192"	473
stress_12bis	"POPTR_0009s01320.1"	1737	"	"G/T"	"57,0/43,0"	"184/139"	323	stress_45	"POPTR_0009s01320.1"	1737	"	"G/T"	"58,6/41,4"	"249/176"	425
stress_12bis	"POPTR_0014s10200.1"	355	"	"G/A"	"53,0/47,0"	"184/163"	347	stress_42	"POPTR_0014s10200.1"	355	"	"G/A"	"56,7/43,3"	"55/42"	97
stress_12bis	"POPTR_0014s10200.1"	355	"	"G/A"	"53,0/47,0"	"184/163"	347	stress_45	"POPTR_0014s10200.1"	355	"	"G/A"	"60,0/40,0"	"48/32"	80
stress_12bis	"POPTR_0016s03230.1"	90	"	"A/G"	"84,0/16,0"	"184/35"	219	stress_42	"POPTR_0016s03230.1"	90	"	"A/G"	"72,1/27,9"	"44/17"	61
stress_12bis	"POPTR_0016s03230.1"	90	"	"A/G"	"84,0/16,0"	"184/35"	219	stress_45	"POPTR_0016s03230.1"	90	"	"A/G"	"71,0/29,0"	"44/18"	62
stress_12bis	"POPTR_0004s01470.1"	187	"	"G/C"	"58,7/41,3"	"185/130"	315	stress_42	"POPTR_0004s01470.1"	187	"	"G/C"	"56,4/43,6"	"57/44"	101
stress_12bis	"POPTR_0004s01470.1"	187	"	"G/C"	"58,7/41,3"	"185/130"	315	stress_45	"POPTR_0004s01470.1"	187	"	"G/C"	"59,5/40,5"	"75/51"	126
stress_12bis	"POPTR_0019s14100.1"	296	"	"G/C"	"54,7/45,3"	"185/153"	338	stress_42	"POPTR_0019s14100.1"	296	"	"C/G"	"52,5/47,5"	"74/67"	141
stress_12bis	"POPTR_0019s14100.1"	296	"	"G/C"	"54,7/45,3"	"185/153"	338	stress_45	"POPTR_0019s14100.1"	296	"	"C/G"	"51,2/48,8"	"83/79"	162
stress_12bis	"POPTR_0008s15100.1"	394	"	"C/T"	"51,2/48,2"	"186/175"	363	stress_42	"POPTR_0008s15100.1"	394	"	"T/C"	"53,4/46,6"	"87/76"	163
stress_12bis	"POPTR_0008s15100.1"	394	"	"C/T"	"51,2/48,2"	"186/175"	363	stress_45	"POPTR_0008s15100.1"	394	"	"C/T"	"54,5/45,5"	"73/61"	134
stress_12bis	"POPTR_0006s08530.1"	310	"	"G/A"	"62,5/37,4"	"1863/1114"	2982	stress_42	"POPTR_0006s08530.1"	310	"	"A/G"	"55,2/44,6"	"1711/1382"	3100
stress_12bis	"POPTR_0006s08530.1"	310	"	"G/A"	"62,5/37,4"	"1863/1114"	2982	stress_45	"POPTR_0006s08530.1"	310	"	"G/A"	"50,6/49,3"	"1607/1567"	3176
stress_12bis	"POPTR_0017s06920.1"	1200	"	"C/A"	"60,9/39,1"	"187/120"	307	stress_42	"POPTR_0017s06920.1"	1200	"	"C/A"	"53,3/46,7"	"8/7"	15
stress_12bis	"POPTR_0017s06920.1"	1200	"	"C/A"	"60,9/39,1"	"187/120"	307	stress_45	"POPTR_0017s06920.1"	1200	"	"C/A"	"80,0/20,0"	"8/2"	10
stress_12bis	"POPTR_0001s47590.1"	136	"	"A/G"	"53,1/46,9"	"187/165"	352	stress_42	"POPTR_0001s47590.1"	136	"	"A/G"	"52,0/48,0"	"78/72"	150
stress_12bis	"POPTR_0001s47590.1"	136	"	"A/G"	"53,1/46,9"	"187/165"	352	stress_45	"POPTR_0001s47590.1"	136	"	"A/G"	"55,9/44,1"	"76/60"	136
stress_12bis	"POPTR_0008s06720.1"	14	"	"C/T"	"65,6/34,4"	"187/98"	285	stress_42	"POPTR_0008s06720.1"	14	"	"C/T"	"51,9/48,1"	"28/26"	54
stress_12bis	"POPTR_0008s06720.1"	14	"	"C/T"	"65,6/34,4"	"187/98"	285	stress_45	"POPTR_0008s06720.1"	14	"	"T/C"	"59,4/40,6"	"38/26"	64
stress_12bis	"POPTR_0005s26740.1"	300	"	"C/T"	"60,5/39,5"	"188/123"	311	stress_42	"POPTR_0005s26740.1"	300	"	"C/T"	"64,9/35,1"	"135/73"	208
stress_12bis	"POPTR_0005s26740.1"	300	"	"C/T"	"60,5/39,5"	"188/123"	311	stress_45	"POPTR_0005s26740.1"	300	"	"C/T"	"57,3/42,7"	"122/91"	213
stress_12bis	"POPTR_0008s15100.1"	149	"	"T/C"	"58,8/41,2"	"188/132"	320	stress_42	"POPTR_0008s15100.1"	149	"	"T/C"	"51,7/48,3"	"62/58"	120
stress_12bis	"POPTR_0008s15100.1"	149	"	"T/C"	"58,8/41,2"	"188/132"	320	stress_45	"POPTR_0008s15100.1"	149	"	"C/T"	"57,5/42,5"	"77/57"	134
stress_12bis	"POPTR_0002s05660.1"	615	"	"G/A"	"53,3/46,7"	"188/165"	353	stress_42	"POPTR_0002s05660.1"	615	"	"G/A"	"54,2/45,8"	"64/54"	118
stress_12bis	"POPTR_0002s05660.1"	615	"	"G/A"	"53,3/46,7"	"188/165"	353	stress_45	"POPTR_0002s05660.1"	615	"	"G/A"	"57,3/42,7"	"82/61"	143
stress_12bis	"POPTR_0006s14400.1"	504	"	"T/C"	"51,1/48,9"	"188/180"	368	stress_42	"POPTR_0006s14400.1"	504	"	"C/T"	"77,2/22,8"	"522/154"	676
stress_12bis	"POPTR_0006s14400.1"	504	"	"T/C"	"51,1/48,9"	"188/180"	368	stress_45	"POPTR_0006s14400.1"	504	"	"C/T"	"78,3/21,7"	"734/204"	938
stress_12bis	"POPTR_0001s12960.1"	159	"	"T/C"	"63,3/36,7"	"19/11"	30	stress_45	"POPTR_0001s12960.1"	159	"	"C/T"	"54,4/45,6"	"56/47"	103
stress_12bis	"POPTR_0001s32780.1"	1164	"	"T/C"	"63,3/36,7"	"19/11"	30	stress_45	"POPTR_0001s32780.1"	1164	"	"T/C"	"64,2/35,8"	"79/44"	123
stress_12bis	"POPTR_0009s05840.1"	334	"	"A/G"	"61,3/38,7"	"19/12"	31	stress_45	"POPTR_0009s05840.1"	334	"	"A/G"	"55,9/44,1"	"90/71"	161
stress_12bis	"POPTR_0001s32950.1"	124	"	"T/A"	"55,9/44,1"	"19/15"	34	stress_45	"POPTR_0001s32950.1"	124	"	"A/T"	"50,4/49,6"	"60/59"	119
stress_12bis	"POPTR_0010s19860.1"	465	"	"C/T"	"55,9/44,1"	"19/15"	34	stress_45	"POPTR_0010s19860.1"	465	"	"C/T"	"54,7/45,3"	"58/48"	106
stress_12bis	"POPTR_0007s06220.1"	363	"	"A/G"	"55,9/44,1"	"19/15"	34	stress_45	"POPTR_0007s06220.1"	363	"	"A/G"	"54,0/46,0"	"61/52"	113
stress_12bis	"POPTR_0007s11960.1"	507	"	"T/A"	"55,9/44,1"	"19/15"	34	stress_45	"POPTR_0007s11960.1"	507	"	"T/A"	"59,4/40,6"	"63/43"	106
stress_12bis	"POPTR_0006s28990.1"	2841	"	"T/C"	"54,3/45,7"	"19/16"	35	stress_45	"POPTR_0006s28990.1"	2841	"	"C/T"	"57,3/42,7"	"67/50"	117
stress_12bis	"POPTR_0009s12420.1"	951	"	"C/T"	"54,3/45,7"	"19/16"	35	stress_42	"POPTR_0009s12420.1"	951	"	"C/T"	"60,9/39,1"	"98/63"	161
stress_12bis	"POPTR_0009s12420.1"	951	"	"C/T"	"54,3/45,7"	"19/16"	35	stress_45	"POPTR_0009s12420.1"	951	"	"C/T"	"52,4/47,6"	"86/78"	164
stress_12bis	"POPTR_0016s05530.1"	723	"	"C/T"	"54,3/45,7"	"19/16"	35	stress_45	"POPTR_0016s05530.1"	723	"	"C/T"	"49,7/49,7"	"74/74"	149
stress_12bis	"POPTR_0001s32950.1"	1002	"	"T/C"	"52,8/47,2"	"19/17"	36	stress_45	"POPTR_0001s32950.1"	1002	"	"C/T"	"54,7/45,3"	"82/68"	150
stress_12bis	"POPTR_0010s19860.1"	116	"	"A/C"	"51,4/48,6"	"19/18"	37	stress_45	"POPTR_0010s19860.1"	116	"	"C/A"	"56,8/43,2"	"71/54"	125
stress_12bis	"POPTR_0007s06220.1"	366	"	"T/A"	"51,4/48,6"	"19/18"	37	stress_45	"POPTR_0007s06220.1"	366	"	"T/A"	"56,6/43,4"	"73/56"	129
stress_12bis	"POPTR_0004s17840.1"	108	"	"C/T"	"50,0/50,0"	"19/19"	38	stress_45	"POPTR_0004s17840.1"	108	"	"C/T"	"50,0/50,0"	"64/64"	128
stress_12bis	"POPTR_0009s12420.1"	40	"	"T/C"	"79,2/20,8"	"19/5"	24	stress_45	"POPTR_0009s12420.1"	40	"	"T/C"	"72,3/27,7"	"94/36"	130
stress_12bis	"POPTR_0011s12400.1"	816	"	"A/G"	"76,0/24,0"	"19/6"	25	stress_42	"POPTR_0011s12400.1"	816	"	"A/G"	"61,7/38,3"	"113/70"	183
stress_12bis	"POPTR_0011s12400.1"	816	"	"A/G"	"76,0/24,0"	"19/6"	25	stress_45	"POPTR_0011s12400.1"	816	"	"A/G"	"55,9/44,1"	"113/89"	202
stress_12bis	"POPTR_0001s32780.1"	1143	"	"T/C"	"70,4/29,6"	"19/8"	27	stress_45	"POPTR_0001s32780.1"	1143	"	"T/C"	"60,9/38,4"	"84/53"	138
stress_12bis	"POPTR_0006s13310.1"	102	"	"T/C"	"59,4/40,6"	"190/130"	320	stress_42	"POPTR_0006s13310.1"	102	"	"T/C"	"51,8/48,2"	"85/79"	164
stress_12bis	"POPTR_0006s13310.1"	102	"	"T/C"	"59,4/40,6"	"190/130"	320	stress_45	"POPTR_0006s13310.1"	102	"	"T/C"	"55,7/44,3"	"220/175"	395
stress_12bis	"POPTR_0002s14730.1"	1026	"	"A/C"	"58,3/41,7"	"190/136"	326	stress_42	"POPTR_0002s14730.1"	1026	"	"C/A"	"67,7/32,3"	"84/40"	124
stress_12bis	"POPTR_0002s14730.1"	1026	"	"A/C"	"58,3/41,7"	"190/136"	326	stress_45	"POPTR_0002s14730.1"	1026	"	"C/A"	"78,8/21,2"	"167/45"	212
stress_12bis	"POPTR_0008s05480.1"	1626	"	"C/T"	"55,9/44,1"	"190/150"	340	stress_42	"POPTR_0008s05480.1"	1626	"	"C/T"	"52,0/48,0"	"127/117"	244
stress_12bis	"POPTR_0008s05480.1"	1626	"	"C/T"	"55,9/44,1"	"190/150"	340	stress_45	"POPTR_0008s05480.1"	1626	"	"C/T"	"50,5/49,5"	"260/255"	515
stress_12bis	"POPTR_0006s27030.1"	174	"	"G/A"	"52,5/47,5"	"190/172"	362	stress_42	"POPTR_0006s27030.1"	174	"	"G/A"	"52,6/47,4"	"71/64"	135
stress_12bis	"POPTR_0006s27030.1"	174	"	"G/A"	"52,5/47,5"	"190/172"	362	stress_45	"POPTR_0006s27030.1"	174	"	"A/G"	"52,0/48,0"	"52/48"	100
stress_12bis	"POPTR_0001s40480.1"	69	"	"T/C"	"52,2/47,8"	"190/174"	364	stress_42	"POPTR_0001s40480.1"	69	"	"T/C"	"63,4/36,6"	"26/15"	41
stress_12bis	"POPTR_0001s40480.1"	69	"	"T/C"	"52,2/47,8"	"190/174"	364	stress_45	"POPTR_0001s40480.1"	69	"	"T/C"	"57,4/42,6"	"27/20"	47
stress_12bis	"POPTR_0007s12070.1"	543	"	"T/C"	"77,2/22,8"	"190/56"	246	stress_42	"POPTR_0007s12070.1"	543	"	"T/C"	"71,9/28,1"	"41/16"	57
stress_12bis	"POPTR_0007s12070.1"	543	"	"T/C"	"77,2/22,8"	"190/56"	246	stress_45	"POPTR_0007s12070.1"	543	"	"T/C"	"83,1/16,9"	"49/10"	59
stress_12bis	"POPTR_0002s14730.1"	1647	"	"G/A"	"70,1/29,9"	"190/81"	271	stress_42	"POPTR_0002s14730.1"	1647	"	"A/G"	"60,4/39,6"	"58/38"	96
stress_12bis	"POPTR_0002s14730.1"	1647	"	"G/A"	"70,1/29,9"	"190/81"	271	stress_45	"POPTR_0002s14730.1"	1647	"	"A/G"	"65,8/34,2"	"98/51"	149
stress_12bis	"POPTR_0002s14730.1"	1139	"	"C/T"	"83,0/17,0"	"191/39"	230	stress_42	"POPTR_0002s14730.1"	1139	"	"C/T"	"63,4/36,6"	"26/15"	41
stress_12bis	"POPTR_0002s14730.1"	1139	"	"C/T"	"83,0/17,0"	"191/39"	230	stress_45	"POPTR_0002s14730.1"	1139	"	"C/T"	"55,1/44,9"	"49/40"	89
stress_12bis	"POPTR_0004s08380.1"	54	"	"G/A"	"80,6/19,4"	"191/46"	237	stress_42	"POPTR_0004s08380.1"	54	"	"G/A"	"75,0/25,0"	"15/5"	20
stress_12bis	"POPTR_0004s08380.1"	54	"	"G/A"	"80,6/19,4"	"191/46"	237	stress_45	"POPTR_0004s08380.1"	54	"	"G/A"	"83,9/16,1"	"26/5"	31
stress_12bis	"POPTR_0014s10200.1"	180	"	"A/G"	"68,8/31,2"	"192/87"	279	stress_45	"POPTR_0014s10200.1"	180	"	"A/G"	"81,0/19,0"	"51/12"	63
stress_12bis	"POPTR_0002s22560.1"	987	"	"G/C"	"75,4/24,2"	"193/62"	256	stress_42	"POPTR_0002s22560.1"	987	"	"G/C"	"84,7/15,3"	"50/9"	59
stress_12bis	"POPTR_0011s11960.1"	84	"	"T/C"	"62,5/37,5"	"1936/1161"	3098	stress_45	"POPTR_0011s11960.1"	84	"	"T/C"	"84,0/15,9"	"8456/1606"	10071
stress_12bis	"POPTR_0006s08530.1"	192	"	"C/T"	"52,0/48,0"	"1942/1791"	3733	stress_42	"POPTR_0006s08530.1"	192	"	"C/T"	"69,1/30,9"	"2751/1233"	3984
stress_12bis	"POPTR_0006s08530.1"	192	"	"C/T"	"52,0/48,0"	"1942/1791"	3733	stress_45	"POPTR_0006s08530.1"	192	"	"C/T"	"65,0/35,0"	"2616/1406"	4022
stress_12bis	"POPTR_0006s08530.1"	231	"	"G/A"	"59,8/40,1"	"1948/1307"	3257	stress_42	"POPTR_0006s08530.1"	231	"	"G/A"	"74,9/25,0"	"2929/980"	3913
stress_12bis	"POPTR_0006s08530.1"	231	"	"G/A"	"59,8/40,1"	"1948/1307"	3257	stress_45	"POPTR_0006s08530.1"	231	"	"G/A"	"70,5/29,4"	"2760/1152"	3914
stress_12bis	"POPTR_0002s05660.1"	558	"	"A/G"	"59,6/40,4"	"195/132"	327	stress_42	"POPTR_0002s05660.1"	558	"	"A/G"	"53,3/46,7"	"90/79"	169
stress_12bis	"POPTR_0002s05660.1"	558	"	"A/G"	"59,6/40,4"	"195/132"	327	stress_45	"POPTR_0002s05660.1"	558	"	"A/G"	"57,1/42,9"	"92/69"	161
stress_12bis	"POPTR_0002s22560.1"	169	"	"T/A"	"56,9/42,9"	"195/147"	343	stress_42	"POPTR_0002s22560.1"	169	"	"A/T"	"50,9/49,1"	"27/26"	53
stress_12bis	"POPTR_0002s22560.1"	169	"	"T/A"	"56,9/42,9"	"195/147"	343	stress_45	"POPTR_0002s22560.1"	169	"	"A/T"	"55,6/44,4"	"79/63"	142
stress_12bis	"POPTR_0006s14400.1"	756	"	"G/C"	"51,6/48,1"	"195/182"	378	stress_42	"POPTR_0006s14400.1"	756	"	"C/G"	"77,9/22,0"	"641/181"	823
stress_12bis	"POPTR_0006s14400.1"	756	"	"G/C"	"51,6/48,1"	"195/182"	378	stress_45	"POPTR_0006s14400.1"	756	"	"C/G"	"78,8/21,1"	"794/212"	1007
stress_12bis	"POPTR_0002s25260.1"	228	"	"T/C"	"78,9/20,6"	"195/51"	247	stress_42	"POPTR_0002s25260.1"	228	"	"T/C"	"64,8/35,2"	"118/64"	182
stress_12bis	"POPTR_0002s25260.1"	228	"	"T/C"	"78,9/20,6"	"195/51"	247	stress_45	"POPTR_0002s25260.1"	228	"	"T/C"	"62,1/37,6"	"195/118"	314
stress_12bis	"POPTR_0006s14400.1"	415	"	"G/C"	"52,0/48,0"	"196/181"	377	stress_42	"POPTR_0006s14400.1"	415	"	"C/G"	"76,1/23,9"	"502/158"	660
stress_12bis	"POPTR_0006s14400.1"	415	"	"G/C"	"52,0/48,0"	"196/181"	377	stress_45	"POPTR_0006s14400.1"	415	"	"C/G"	"74,3/25,7"	"728/252"	980
stress_12bis	"POPTR_0006s27170.1"	360	"	"C/T"	"78,7/21,3"	"196/53"	249	stress_42	"POPTR_0006s27170.1"	360	"	"C/T"	"68,4/26,3"	"13/5"	19
stress_12bis	"POPTR_0006s27170.1"	360	"	"C/T"	"78,7/21,3"	"196/53"	249	stress_45	"POPTR_0006s27170.1"	360	"	"C/T"	"76,1/23,9"	"35/11"	46
stress_12bis	"POPTR_0014s11210.1"	932	"	"T/C"	"67,4/32,6"	"196/95"	291	stress_42	"POPTR_0014s11210.1"	932	"	"T/C"	"58,1/41,9"	"93/67"	160
stress_12bis	"POPTR_0014s11210.1"	932	"	"T/C"	"67,4/32,6"	"196/95"	291	stress_45	"POPTR_0014s11210.1"	932	"	"T/C"	"60,1/39,9"	"98/65"	163
stress_12bis	"POPTR_0017s06920.1"	1311	"	"A/C"	"62,7/37,3"	"197/117"	314	stress_42	"POPTR_0017s06920.1"	1311	"	"A/C"	"75,0/25,0"	"9/3"	12
stress_12bis	"POPTR_0017s06920.1"	1311	"	"A/C"	"62,7/37,3"	"197/117"	314	stress_45	"POPTR_0017s06920.1"	1311	"	"A/C"	"72,7/27,3"	"8/3"	11
stress_12bis	"POPTR_0014s10200.1"	63	"	"G/A"	"60,8/39,2"	"197/127"	324	stress_42	"POPTR_0014s10200.1"	63	"	"G/A"	"74,1/25,9"	"40/14"	54
stress_12bis	"POPTR_0014s10200.1"	63	"	"G/A"	"60,8/39,2"	"197/127"	324	stress_45	"POPTR_0014s10200.1"	63	"	"G/A"	"51,6/48,4"	"33/31"	64
stress_12bis	"POPTR_0017s06920.1"	1698	"	"C/T"	"59,7/40,3"	"197/133"	330	stress_42	"POPTR_0017s06920.1"	1698	"	"C/T"	"68,4/31,6"	"13/6"	19
stress_12bis	"POPTR_0017s06920.1"	1698	"	"C/T"	"59,7/40,3"	"197/133"	330	stress_45	"POPTR_0017s06920.1"	1698	"	"C/T"	"81,8/18,2"	"9/2"	11
stress_12bis	"POPTR_0014s10200.1"	136	"	"G/C"	"55,5/44,5"	"197/158"	355	stress_42	"POPTR_0014s10200.1"	136	"	"G/C"	"68,2/31,8"	"60/28"	88
stress_12bis	"POPTR_0014s10200.1"	136	"	"G/C"	"55,5/44,5"	"197/158"	355	stress_45	"POPTR_0014s10200.1"	136	"	"G/C"	"63,2/36,8"	"48/28"	76
stress_12bis	"POPTR_0005s15660.1"	256	"	"C/A"	"64,8/34,1"	"1970/1038"	3040	stress_42	"POPTR_0005s15660.1"	256	"	"C/A"	"64,2/34,9"	"596/324"	929
stress_12bis	"POPTR_0005s15660.1"	256	"	"C/A"	"64,8/34,1"	"1970/1038"	3040	stress_45	"POPTR_0005s15660.1"	256	"	"C/A"	"58,3/40,4"	"459/318"	787
stress_12bis	"POPTR_0006s13310.1"	510	"	"T/C"	"57,4/42,6"	"198/147"	345	stress_42	"POPTR_0006s13310.1"	510	"	"T/C"	"57,6/42,4"	"117/86"	203
stress_12bis	"POPTR_0006s13310.1"	510	"	"T/C"	"57,4/42,6"	"198/147"	345	stress_45	"POPTR_0006s13310.1"	510	"	"T/C"	"54,4/45,6"	"206/173"	379
stress_12bis	"POPTR_0002s14730.1"	1017	"	"T/A"	"61,4/38,6"	"199/125"	324	stress_42	"POPTR_0002s14730.1"	1017	"	"A/T"	"67,7/32,3"	"86/41"	127
stress_12bis	"POPTR_0002s14730.1"	1017	"	"T/A"	"61,4/38,6"	"199/125"	324	stress_45	"POPTR_0002s14730.1"	1017	"	"A/T"	"79,4/20,1"	"158/40"	199
stress_12bis	"POPTR_0010s24290.1"	141	"	"T/C"	"54,4/45,6"	"199/167"	366	stress_42	"POPTR_0010s24290.1"	141	"	"C/T"	"56,1/43,9"	"413/323"	736
stress_12bis	"POPTR_0010s24290.1"	141	"	"T/C"	"54,4/45,6"	"199/167"	366	stress_45	"POPTR_0010s24290.1"	141	"	"C/T"	"57,9/42,1"	"293/213"	506
stress_12bis	"POPTR_0004s08380.1"	196	"	"C/G"	"75,7/24,0"	"199/63"	263	stress_42	"POPTR_0004s08380.1"	196	"	"C/G"	"77,8/22,2"	"21/6"	27
stress_12bis	"POPTR_0004s08380.1"	196	"	"C/G"	"75,7/24,0"	"199/63"	263	stress_45	"POPTR_0004s08380.1"	196	"	"C/G"	"80,4/19,6"	"37/9"	46
stress_12bis	"POPTR_0014s14200.1"	519	"	"T/C"	"62,5/37,5"	"20/12"	32	stress_45	"POPTR_0014s14200.1"	519	"	"C/T"	"63,2/36,8"	"74/43"	117
stress_12bis	"POPTR_0009s12420.1"	411	"	"T/G"	"60,6/36,4"	"20/12"	33	stress_42	"POPTR_0009s12420.1"	411	"	"T/G"	"68,6/31,4"	"116/53"	169
stress_12bis	"POPTR_0009s12420.1"	411	"	"T/G"	"60,6/36,4"	"20/12"	33	stress_45	"POPTR_0009s12420.1"	411	"	"T/G"	"67,6/32,4"	"150/72"	222
stress_12bis	"POPTR_0008s12550.1"	936	"	"T/C"	"62,5/37,5"	"20/12"	32	stress_45	"POPTR_0008s12550.1"	936	"	"T/C"	"53,1/46,9"	"69/61"	130
stress_12bis	"POPTR_0004s11780.1"	144	"	"A/C"	"60,6/39,4"	"20/13"	33	stress_45	"POPTR_0004s11780.1"	144	"	"C/A"	"57,7/42,3"	"60/44"	104
stress_12bis	"POPTR_0016s05530.1"	795	"	"T/C"	"60,6/39,4"	"20/13"	33	stress_45	"POPTR_0016s05530.1"	795	"	"C/T"	"63,2/36,8"	"67/39"	106
stress_12bis	"POPTR_0009s12420.1"	108	"	"T/A"	"58,8/41,2"	"20/14"	34	stress_42	"POPTR_0009s12420.1"	108	"	"T/A"	"70,3/29,7"	"78/33"	111
stress_12bis	"POPTR_0009s12420.1"	108	"	"T/A"	"58,8/41,2"	"20/14"	34	stress_45	"POPTR_0009s12420.1"	108	"	"T/A"	"66,4/33,6"	"85/43"	128
stress_12bis	"POPTR_0016s08520.1"	234	"	"C/T"	"58,8/41,2"	"20/14"	34	stress_45	"POPTR_0016s08520.1"	234	"	"T/C"	"52,0/48,0"	"53/49"	102
stress_12bis	"POPTR_0001s36050.1"	315	"	"A/G"	"57,1/42,9"	"20/15"	35	stress_45	"POPTR_0001s36050.1"	315	"	"G/A"	"51,5/48,5"	"53/50"	103
stress_12bis	"POPTR_0016s08520.1"	994	"	"T/A"	"55,6/44,4"	"20/16"	36	stress_45	"POPTR_0016s08520.1"	994	"	"A/T"	"55,0/44,2"	"71/57"	129
stress_12bis	"POPTR_0008s12550.1"	1335	"	"C/G"	"54,1/45,9"	"20/17"	37	stress_42	"POPTR_0008s12550.1"	1335	"	"C/G"	"50,0/50,0"	"57/57"	114
stress_12bis	"POPTR_0008s12550.1"	1335	"	"C/G"	"54,1/45,9"	"20/17"	37	stress_45	"POPTR_0008s12550.1"	1335	"	"G/C"	"53,5/46,5"	"84/73"	157
stress_12bis	"POPTR_0015s12460.1"	405	"	"T/C"	"52,6/47,4"	"20/18"	38	stress_45	"POPTR_0015s12460.1"	405	"	"T/C"	"51,0/49,0"	"53/51"	104
stress_12bis	"POPTR_0002s08150.1"	354	"	"C/T"	"51,3/48,7"	"20/19"	39	stress_45	"POPTR_0002s08150.1"	354	"	"T/C"	"50,8/49,2"	"67/65"	132
stress_12bis	"POPTR_0009s13460.1"	99	"	"C/T"	"50,0/50,0"	"20/20"	40	stress_45	"POPTR_0009s13460.1"	99	"	"T/C"	"50,4/49,6"	"65/64"	129
stress_12bis	"POPTR_0002s06680.1"	762	"	"C/T"	"50,0/50,0"	"20/20"	40	stress_45	"POPTR_0002s06680.1"	762	"	"C/T"	"51,3/48,7"	"58/55"	113
stress_12bis	"POPTR_0001s32950.1"	927	"	"T/C"	"71,4/28,6"	"20/8"	28	stress_45	"POPTR_0001s32950.1"	927	"	"T/C"	"56,2/43,8"	"59/46"	105
stress_12bis	"POPTR_0001s40480.1"	978	"	"A/G"	"58,3/41,7"	"200/143"	343	stress_42	"POPTR_0001s40480.1"	978	"	"G/A"	"57,5/42,5"	"23/17"	40
stress_12bis	"POPTR_0001s40480.1"	978	"	"A/G"	"58,3/41,7"	"200/143"	343	stress_45	"POPTR_0001s40480.1"	978	"	"G/A"	"65,4/34,6"	"34/18"	52
stress_12bis	"POPTR_0006s27170.1"	333	"	"C/T"	"59,6/40,4"	"202/137"	339	stress_42	"POPTR_0006s27170.1"	333	"	"T/C"	"61,0/39,0"	"25/16"	41
stress_12bis	"POPTR_0006s27170.1"	333	"	"C/T"	"59,6/40,4"	"202/137"	339	stress_45	"POPTR_0006s27170.1"	333	"	"T/C"	"61,7/38,3"	"37/23"	60
stress_12bis	"POPTR_0002s22560.1"	678	"	"T/C"	"57,2/42,8"	"202/151"	353	stress_42	"POPTR_0002s22560.1"	678	"	"C/T"	"50,7/49,3"	"37/36"	73
stress_12bis	"POPTR_0002s22560.1"	678	"	"T/C"	"57,2/42,8"	"202/151"	353	stress_45	"POPTR_0002s22560.1"	678	"	"C/T"	"56,3/43,7"	"89/69"	158
stress_12bis	"POPTR_0011s08940.1"	1203	"	"C/T"	"51,0/49,0"	"202/194"	396	stress_42	"POPTR_0011s08940.1"	1203	"	"T/C"	"68,1/31,9"	"79/37"	116
stress_12bis	"POPTR_0011s08940.1"	1203	"	"C/T"	"51,0/49,0"	"202/194"	396	stress_45	"POPTR_0011s08940.1"	1203	"	"T/C"	"59,1/40,9"	"110/76"	186
stress_12bis	"POPTR_0006s27170.1"	355	"	"T/G"	"74,8/24,1"	"202/65"	270	stress_42	"POPTR_0006s27170.1"	355	"	"T/G"	"58,3/41,7"	"14/10"	24
stress_12bis	"POPTR_0006s27170.1"	355	"	"T/G"	"74,8/24,1"	"202/65"	270	stress_45	"POPTR_0006s27170.1"	355	"	"T/G"	"66,7/33,3"	"32/16"	48
stress_12bis	"POPTR_0018s12270.1"	136	"	"T/C"	"72,5/27,5"	"203/77"	280	stress_42	"POPTR_0018s12270.1"	136	"	"T/C"	"69,9/30,1"	"102/44"	146
stress_12bis	"POPTR_0018s12270.1"	136	"	"T/C"	"72,5/27,5"	"203/77"	280	stress_45	"POPTR_0018s12270.1"	136	"	"T/C"	"67,4/32,6"	"87/42"	129
stress_12bis	"POPTR_0006s27170.1"	347	"	"A/G"	"66,2/33,8"	"204/104"	308	stress_42	"POPTR_0006s27170.1"	347	"	"A/G"	"51,6/48,4"	"16/15"	31
stress_12bis	"POPTR_0006s27170.1"	347	"	"A/G"	"66,2/33,8"	"204/104"	308	stress_45	"POPTR_0006s27170.1"	347	"	"A/G"	"50,9/49,1"	"28/27"	55
stress_12bis	"POPTR_0006s23890.1"	84	"	"T/G"	"67,8/32,2"	"204/97"	301	stress_42	"POPTR_0006s23890.1"	84	"	"T/G"	"66,2/33,8"	"98/50"	148
stress_12bis	"POPTR_0006s23890.1"	84	"	"T/G"	"67,8/32,2"	"204/97"	301	stress_45	"POPTR_0006s23890.1"	84	"	"T/G"	"76,7/23,3"	"102/31"	133
stress_12bis	"POPTR_0002s14730.1"	902	"	"C/A"	"76,5/23,5"	"205/63"	268	stress_42	"POPTR_0002s14730.1"	902	"	"A/C"	"55,6/44,4"	"45/36"	81
stress_12bis	"POPTR_0002s14730.1"	902	"	"C/A"	"76,5/23,5"	"205/63"	268	stress_45	"POPTR_0002s14730.1"	902	"	"A/C"	"58,7/41,3"	"61/43"	104
stress_12bis	"POPTR_0008s05480.1"	1605	"	"C/T"	"55,5/44,5"	"206/165"	371	stress_42	"POPTR_0008s05480.1"	1605	"	"C/T"	"52,8/47,2"	"124/111"	235
stress_12bis	"POPTR_0008s05480.1"	1605	"	"C/T"	"55,5/44,5"	"206/165"	371	stress_45	"POPTR_0008s05480.1"	1605	"	"C/T"	"53,5/46,3"	"276/239"	516
stress_12bis	"POPTR_0011s08940.1"	1207	"	"A/T"	"52,8/47,2"	"206/184"	390	stress_42	"POPTR_0011s08940.1"	1207	"	"T/A"	"68,8/31,2"	"75/34"	109
stress_12bis	"POPTR_0011s08940.1"	1207	"	"A/T"	"52,8/47,2"	"206/184"	390	stress_45	"POPTR_0011s08940.1"	1207	"	"T/A"	"57,2/42,2"	"107/79"	187
stress_12bis	"POPTR_0002s22560.1"	1749	"	"A/G"	"57,2/42,8"	"207/155"	362	stress_42	"POPTR_0002s22560.1"	1749	"	"G/A"	"55,8/44,2"	"87/69"	156
stress_12bis	"POPTR_0002s22560.1"	1749	"	"A/G"	"57,2/42,8"	"207/155"	362	stress_45	"POPTR_0002s22560.1"	1749	"	"G/A"	"52,7/47,3"	"79/71"	150
stress_12bis	"POPTR_0006s13310.1"	312	"	"C/T"	"61,2/38,8"	"208/132"	340	stress_42	"POPTR_0006s13310.1"	312	"	"C/T"	"60,9/39,1"	"120/77"	197
stress_12bis	"POPTR_0006s13310.1"	312	"	"C/T"	"61,2/38,8"	"208/132"	340	stress_45	"POPTR_0006s13310.1"	312	"	"C/T"	"57,0/43,0"	"200/151"	351
stress_12bis	"POPTR_0011s17170.1"	97	"	"A/C"	"72,1/27,9"	"209/81"	290	stress_42	"POPTR_0011s17170.1"	97	"	"A/C"	"67,0/31,9"	"61/29"	91
stress_12bis	"POPTR_0011s17170.1"	97	"	"A/C"	"72,1/27,9"	"209/81"	290	stress_45	"POPTR_0011s17170.1"	97	"	"A/C"	"66,4/33,6"	"71/36"	107
stress_12bis	"POPTR_0009s12420.1"	941	"	"C/G"	"65,6/34,4"	"21/11"	32	stress_42	"POPTR_0009s12420.1"	941	"	"C/G"	"64,4/35,6"	"96/53"	149
stress_12bis	"POPTR_0009s12420.1"	941	"	"C/G"	"65,6/34,4"	"21/11"	32	stress_45	"POPTR_0009s12420.1"	941	"	"C/G"	"61,0/39,0"	"86/55"	141
stress_12bis	"POPTR_0001s14280.1"	1365	"	"G/C"	"65,6/34,4"	"21/11"	32	stress_42	"POPTR_0001s14280.1"	1365	"	"G/C"	"57,0/43,0"	"73/55"	128
stress_12bis	"POPTR_0001s14280.1"	1365	"	"G/C"	"65,6/34,4"	"21/11"	32	stress_45	"POPTR_0001s14280.1"	1365	"	"G/C"	"58,6/41,4"	"65/46"	111
stress_12bis	"POPTR_0001s32780.1"	630	"	"C/T"	"65,6/34,4"	"21/11"	32	stress_45	"POPTR_0001s32780.1"	630	"	"C/T"	"52,1/47,9"	"75/69"	144
stress_12bis	"POPTR_0005s22660.1"	125	"	"G/C"	"63,6/36,4"	"21/12"	33	stress_42	"POPTR_0005s22660.1"	125	"	"G/C"	"68,7/31,3"	"101/46"	147
stress_12bis	"POPTR_0005s22660.1"	125	"	"G/C"	"63,6/36,4"	"21/12"	33	stress_45	"POPTR_0005s22660.1"	125	"	"G/C"	"75,2/24,8"	"76/25"	101
stress_12bis	"POPTR_0001s40250.1"	2745	"	"T/C"	"63,6/36,4"	"21/12"	33	stress_42	"POPTR_0001s40250.1"	2745	"	"T/C"	"65,7/34,3"	"88/46"	134
stress_12bis	"POPTR_0001s40250.1"	2745	"	"T/C"	"63,6/36,4"	"21/12"	33	stress_45	"POPTR_0001s40250.1"	2745	"	"T/C"	"78,3/21,7"	"217/60"	277
stress_12bis	"POPTR_0001s01350.1"	288	"	"T/A"	"60,0/40,0"	"21/14"	35	stress_45	"POPTR_0001s01350.1"	288	"	"A/T"	"52,4/47,6"	"54/49"	103
stress_12bis	"POPTR_0005s11780.1"	453	"	"T/A"	"58,3/41,7"	"21/15"	36	stress_45	"POPTR_0005s11780.1"	453	"	"T/A"	"55,4/43,6"	"56/44"	101
stress_12bis	"POPTR_0009s11920.1"	30	"	"T/C"	"55,3/44,7"	"21/17"	38	stress_45	"POPTR_0009s11920.1"	30	"	"T/C"	"57,4/42,6"	"58/43"	101
stress_12bis	"POPTR_0001s14280.1"	629	"	"T/A"	"48,8/46,5"	"21/20"	43	stress_42	"POPTR_0001s14280.1"	629	"	"T/A"	"50,4/48,0"	"64/61"	127
stress_12bis	"POPTR_0001s14280.1"	629	"	"T/A"	"48,8/46,5"	"21/20"	43	stress_45	"POPTR_0001s14280.1"	629	"	"A/T"	"57,9/40,9"	"92/65"	159
stress_12bis	"POPTR_0002s06680.1"	759	"	"T/C"	"51,2/48,8"	"21/20"	41	stress_45	"POPTR_0002s06680.1"	759	"	"C/T"	"51,3/48,7"	"58/55"	113
stress_12bis	"POPTR_0001s01350.1"	186	"	"T/A"	"72,4/24,1"	"21/7"	29	stress_45	"POPTR_0001s01350.1"	186	"	"T/A"	"64,1/35,9"	"66/37"	103
stress_12bis	"POPTR_0016s08520.1"	856	"	"C/T"	"75,0/25,0"	"21/7"	28	stress_45	"POPTR_0016s08520.1"	856	"	"T/C"	"50,9/49,1"	"55/53"	108
stress_12bis	"POPTR_0016s08520.1"	600	"	"G/A"	"70,0/30,0"	"21/9"	30	stress_45	"POPTR_0016s08520.1"	600	"	"G/A"	"59,8/40,2"	"61/41"	102
stress_12bis	"POPTR_0017s06920.1"	1647	"	"T/C"	"61,2/38,6"	"211/133"	345	stress_45	"POPTR_0017s06920.1"	1647	"	"T/C"	"80,0/20,0"	"8/2"	10
stress_12bis	"POPTR_0006s13310.1"	279	"	"A/T"	"65,2/34,2"	"212/111"	325	stress_42	"POPTR_0006s13310.1"	279	"	"A/T"	"66,0/33,0"	"126/63"	191
stress_12bis	"POPTR_0006s13310.1"	279	"	"A/T"	"65,2/34,2"	"212/111"	325	stress_45	"POPTR_0006s13310.1"	279	"	"A/T"	"55,1/44,3"	"194/156"	352
stress_12bis	"POPTR_0017s06920.1"	1731	"	"C/A"	"62,7/37,3"	"212/126"	338	stress_42	"POPTR_0017s06920.1"	1731	"	"C/A"	"72,2/27,8"	"13/5"	18
stress_12bis	"POPTR_0017s06920.1"	1731	"	"C/A"	"62,7/37,3"	"212/126"	338	stress_45	"POPTR_0017s06920.1"	1731	"	"C/A"	"81,2/18,8"	"13/3"	16
stress_12bis	"POPTR_0010s20810.1"	333	"	"C/T"	"51,7/48,3"	"212/198"	410	stress_42	"POPTR_0010s20810.1"	333	"	"T/C"	"60,0/40,0"	"15/10"	25
stress_12bis	"POPTR_0010s20810.1"	333	"	"C/T"	"51,7/48,3"	"212/198"	410	stress_45	"POPTR_0010s20810.1"	333	"	"T/C"	"69,2/26,9"	"18/7"	26
stress_12bis	"POPTR_0005s15660.1"	469	"	"A/G"	"52,9/47,1"	"2141/1905"	4046	stress_42	"POPTR_0005s15660.1"	469	"	"A/G"	"57,3/42,7"	"728/543"	1271
stress_12bis	"POPTR_0005s15660.1"	469	"	"A/G"	"52,9/47,1"	"2141/1905"	4046	stress_45	"POPTR_0005s15660.1"	469	"	"A/G"	"57,6/42,4"	"592/435"	1027
stress_12bis	"POPTR_0002s19710.1"	216	"	"T/G"	"50,5/49,3"	"215/210"	426	stress_42	"POPTR_0002s19710.1"	216	"	"T/G"	"56,6/42,8"	"86/65"	152
stress_12bis	"POPTR_0002s19710.1"	216	"	"T/G"	"50,5/49,3"	"215/210"	426	stress_45	"POPTR_0002s19710.1"	216	"	"G/T"	"50,3/49,0"	"78/76"	155
stress_12bis	"POPTR_0004s01470.1"	642	"	"G/A"	"61,3/38,7"	"217/137"	354	stress_42	"POPTR_0004s01470.1"	642	"	"G/A"	"56,1/43,9"	"69/54"	123
stress_12bis	"POPTR_0004s01470.1"	642	"	"G/A"	"61,3/38,7"	"217/137"	354	stress_45	"POPTR_0004s01470.1"	642	"	"G/A"	"56,3/43,7"	"80/62"	142
stress_12bis	"POPTR_0014s11210.1"	717	"	"C/T"	"82,2/17,8"	"217/47"	264	stress_42	"POPTR_0014s11210.1"	717	"	"C/T"	"59,2/40,8"	"84/58"	142
stress_12bis	"POPTR_0014s11210.1"	717	"	"C/T"	"82,2/17,8"	"217/47"	264	stress_45	"POPTR_0014s11210.1"	717	"	"C/T"	"76,2/23,8"	"112/35"	147
stress_12bis	"POPTR_0009s05720.1"	99	"	"C/G"	"81,0/19,0"	"218/51"	269	stress_45	"POPTR_0009s05720.1"	99	"	"C/G"	"83,7/16,3"	"36/7"	43
stress_12bis	"POPTR_0008s15760.1"	369	"	"C/G"	"74,7/25,0"	"218/73"	292	stress_42	"POPTR_0008s15760.1"	369	"	"G/C"	"51,5/48,5"	"86/81"	167
stress_12bis	"POPTR_0008s15760.1"	369	"	"C/G"	"74,7/25,0"	"218/73"	292	stress_45	"POPTR_0008s15760.1"	369	"	"C/G"	"64,9/35,1"	"137/74"	211
stress_12bis	"POPTR_0004s17610.1"	99	"	"C/T"	"66,7/33,3"	"22/11"	33	stress_42	"POPTR_0004s17610.1"	99	"	"C/T"	"69,3/30,7"	"95/42"	137
stress_12bis	"POPTR_0004s17610.1"	99	"	"C/T"	"66,7/33,3"	"22/11"	33	stress_45	"POPTR_0004s17610.1"	99	"	"C/T"	"65,3/33,9"	"162/84"	248
stress_12bis	"POPTR_0001s14280.1"	768	"	"G/A"	"66,7/33,3"	"22/11"	33	stress_42	"POPTR_0001s14280.1"	768	"	"A/G"	"51,5/48,5"	"84/79"	163
stress_12bis	"POPTR_0001s14280.1"	768	"	"G/A"	"66,7/33,3"	"22/11"	33	stress_45	"POPTR_0001s14280.1"	768	"	"A/G"	"55,1/44,9"	"97/79"	176
stress_12bis	"POPTR_0001s32780.1"	1053	"	"T/C"	"59,5/40,5"	"22/15"	37	stress_45	"POPTR_0001s32780.1"	1053	"	"T/C"	"56,9/43,1"	"78/59"	137
stress_12bis	"POPTR_0014s01970.1"	250	"	"G/A"	"56,4/43,6"	"22/17"	39	stress_45	"POPTR_0014s01970.1"	250	"	"G/A"	"68,2/31,8"	"73/34"	107
stress_12bis	"POPTR_0014s01970.1"	1063	"	"A/G"	"56,4/43,6"	"22/17"	39	stress_42	"POPTR_0014s01970.1"	1063	"	"G/A"	"53,8/46,2"	"70/60"	130
stress_12bis	"POPTR_0014s01970.1"	1063	"	"A/G"	"56,4/43,6"	"22/17"	39	stress_45	"POPTR_0014s01970.1"	1063	"	"G/A"	"51,6/48,4"	"64/60"	124
stress_12bis	"POPTR_0004s17610.1"	381	"	"G/A"	"56,4/43,6"	"22/17"	39	stress_42	"POPTR_0004s17610.1"	381	"	"G/A"	"52,6/47,4"	"91/82"	173
stress_12bis	"POPTR_0004s17610.1"	381	"	"G/A"	"56,4/43,6"	"22/17"	39	stress_45	"POPTR_0004s17610.1"	381	"	"G/A"	"54,0/46,0"	"128/109"	237
stress_12bis	"POPTR_0016s05530.1"	717	"	"G/T"	"55,0/45,0"	"22/18"	40	stress_45	"POPTR_0016s05530.1"	717	"	"T/G"	"51,3/48,7"	"79/75"	154
stress_12bis	"POPTR_0009s06690.1"	745	"	"G/A"	"53,7/46,3"	"22/19"	41	stress_45	"POPTR_0009s06690.1"	745	"	"G/A"	"51,9/48,1"	"83/77"	160
stress_12bis	"POPTR_0002s08150.1"	369	"	"C/G"	"53,7/46,3"	"22/19"	41	stress_45	"POPTR_0002s08150.1"	369	"	"G/C"	"57,3/42,7"	"82/61"	143
stress_12bis	"POPTR_0002s06680.1"	1044	"	"A/C"	"53,7/46,3"	"22/19"	41	stress_45	"POPTR_0002s06680.1"	1044	"	"A/C"	"54,1/45,9"	"60/51"	111
stress_12bis	"POPTR_0010s19860.1"	756	"	"A/G"	"51,2/48,8"	"22/21"	43	stress_45	"POPTR_0010s19860.1"	756	"	"G/A"	"56,0/44,0"	"75/59"	134
stress_12bis	"POPTR_0014s05640.1"	552	"	"A/G"	"50,0/50,0"	"22/22"	44	stress_45	"POPTR_0014s05640.1"	552	"	"A/G"	"66,7/33,3"	"86/43"	129
stress_12bis	"POPTR_0001s14310.1"	564	"	"T/C"	"75,9/24,1"	"22/7"	29	stress_45	"POPTR_0001s14310.1"	564	"	"T/C"	"54,8/45,2"	"86/71"	157
stress_12bis	"POPTR_0002s22600.1"	246	"	"C/T"	"61,0/39,0"	"221/141"	362	stress_42	"POPTR_0002s22600.1"	246	"	"C/T"	"61,9/38,1"	"73/45"	118
stress_12bis	"POPTR_0002s22600.1"	246	"	"C/T"	"61,0/39,0"	"221/141"	362	stress_45	"POPTR_0002s22600.1"	246	"	"C/T"	"56,7/43,3"	"97/74"	171
stress_12bis	"POPTR_0002s01080.1"	42	"	"T/C"	"53,8/46,2"	"222/191"	413	stress_42	"POPTR_0002s01080.1"	42	"	"T/C"	"56,3/43,7"	"85/66"	151
stress_12bis	"POPTR_0002s01080.1"	42	"	"T/C"	"53,8/46,2"	"222/191"	413	stress_45	"POPTR_0002s01080.1"	42	"	"C/T"	"50,2/49,8"	"119/118"	237
stress_12bis	"POPTR_0007s12070.1"	282	"	"A/T"	"65,8/34,2"	"223/116"	339	stress_42	"POPTR_0007s12070.1"	282	"	"A/T"	"53,3/46,7"	"32/28"	60
stress_12bis	"POPTR_0007s12070.1"	282	"	"A/T"	"65,8/34,2"	"223/116"	339	stress_45	"POPTR_0007s12070.1"	282	"	"A/T"	"63,9/36,1"	"53/30"	83
stress_12bis	"POPTR_0002s08410.1"	786	"	"T/C"	"50,7/49,1"	"223/216"	440	stress_42	"POPTR_0002s08410.1"	786	"	"C/T"	"58,2/41,2"	"96/68"	165
stress_12bis	"POPTR_0002s08410.1"	786	"	"T/C"	"50,7/49,1"	"223/216"	440	stress_45	"POPTR_0002s08410.1"	786	"	"T/C"	"54,5/45,5"	"102/85"	187
stress_12bis	"POPTR_0014s13660.1"	160	"	"T/A"	"82,0/18,0"	"223/49"	272	stress_42	"POPTR_0014s13660.1"	160	"	"T/A"	"77,8/22,2"	"49/14"	63
stress_12bis	"POPTR_0014s13660.1"	160	"	"T/A"	"82,0/18,0"	"223/49"	272	stress_45	"POPTR_0014s13660.1"	160	"	"T/A"	"69,7/30,3"	"53/23"	76
stress_12bis	"POPTR_0004s08500.1"	96	"	"G/A"	"74,4/25,6"	"224/77"	301	stress_42	"POPTR_0004s08500.1"	96	"	"G/A"	"50,1/49,9"	"374/373"	747
stress_12bis	"POPTR_0004s08500.1"	96	"	"G/A"	"74,4/25,6"	"224/77"	301	stress_45	"POPTR_0004s08500.1"	96	"	"G/A"	"54,1/45,9"	"426/361"	787
stress_12bis	"POPTR_0014s17070.1"	157	"	"A/G"	"52,1/47,9"	"225/207"	432	stress_42	"POPTR_0014s17070.1"	157	"	"A/G"	"53,2/46,8"	"58/51"	109
stress_12bis	"POPTR_0014s17070.1"	157	"	"A/G"	"52,1/47,9"	"225/207"	432	stress_45	"POPTR_0014s17070.1"	157	"	"A/G"	"53,1/46,9"	"77/68"	145
stress_12bis	"POPTR_0002s14730.1"	1791	"	"A/T"	"83,0/17,0"	"225/46"	271	stress_42	"POPTR_0002s14730.1"	1791	"	"A/T"	"50,0/50,0"	"43/43"	86
stress_12bis	"POPTR_0002s14730.1"	1791	"	"A/T"	"83,0/17,0"	"225/46"	271	stress_45	"POPTR_0002s14730.1"	1791	"	"A/T"	"59,4/40,6"	"63/43"	106
stress_12bis	"POPTR_0010s05530.1"	921	"	"A/C"	"81,2/18,8"	"225/52"	277	stress_42	"POPTR_0010s05530.1"	921	"	"A/C"	"84,1/15,9"	"37/7"	44
stress_12bis	"POPTR_0004s09910.1"	348	"	"G/C"	"62,4/37,6"	"2250/1355"	3606	stress_42	"POPTR_0004s09910.1"	348	"	"G/C"	"69,8/30,0"	"432/186"	619
stress_12bis	"POPTR_0004s09910.1"	348	"	"G/C"	"62,4/37,6"	"2250/1355"	3606	stress_45	"POPTR_0004s09910.1"	348	"	"G/C"	"65,9/34,1"	"414/214"	628
stress_12bis	"POPTR_0002s22600.1"	843	"	"A/G"	"54,6/45,4"	"226/188"	414	stress_42	"POPTR_0002s22600.1"	843	"	"A/G"	"55,9/44,1"	"62/49"	111
stress_12bis	"POPTR_0002s22600.1"	843	"	"A/G"	"54,6/45,4"	"226/188"	414	stress_45	"POPTR_0002s22600.1"	843	"	"A/G"	"55,0/45,0"	"82/67"	149
stress_12bis	"POPTR_0004s08380.1"	155	"	"A/C"	"51,0/48,8"	"226/216"	443	stress_42	"POPTR_0004s08380.1"	155	"	"A/C"	"58,2/41,8"	"32/23"	55
stress_12bis	"POPTR_0004s08380.1"	155	"	"A/C"	"51,0/48,8"	"226/216"	443	stress_45	"POPTR_0004s08380.1"	155	"	"C/A"	"57,4/42,6"	"39/29"	68
stress_12bis	"POPTR_0004s08380.1"	426	"	"A/G"	"50,7/49,1"	"227/220"	448	stress_42	"POPTR_0004s08380.1"	426	"	"A/G"	"60,7/39,3"	"37/24"	61
stress_12bis	"POPTR_0004s08380.1"	426	"	"A/G"	"50,7/49,1"	"227/220"	448	stress_45	"POPTR_0004s08380.1"	426	"	"A/G"	"54,1/45,9"	"40/34"	74
stress_12bis	"POPTR_0004s08500.1"	249	"	"T/C"	"50,6/49,4"	"228/223"	451	stress_42	"POPTR_0004s08500.1"	249	"	"T/C"	"60,3/39,7"	"526/347"	873
stress_12bis	"POPTR_0004s08500.1"	249	"	"T/C"	"50,6/49,4"	"228/223"	451	stress_45	"POPTR_0004s08500.1"	249	"	"T/C"	"61,2/38,8"	"567/359"	926
stress_12bis	"POPTR_0011s17170.1"	128	"	"A/T"	"68,8/31,2"	"229/104"	333	stress_42	"POPTR_0011s17170.1"	128	"	"A/T"	"65,5/34,5"	"78/41"	119
stress_12bis	"POPTR_0011s17170.1"	128	"	"A/T"	"68,8/31,2"	"229/104"	333	stress_45	"POPTR_0011s17170.1"	128	"	"A/T"	"64,2/35,8"	"61/34"	95
stress_12bis	"POPTR_0010s08290.1"	411	"	"A/T"	"58,6/41,2"	"229/161"	391	stress_42	"POPTR_0010s08290.1"	411	"	"A/T"	"63,4/36,5"	"1555/895"	2452
stress_12bis	"POPTR_0010s08290.1"	411	"	"A/T"	"58,6/41,2"	"229/161"	391	stress_45	"POPTR_0010s08290.1"	411	"	"A/T"	"63,8/36,1"	"1623/919"	2545
stress_12bis	"POPTR_0019s14100.1"	388	"	"T/A"	"54,1/45,9"	"229/194"	423	stress_42	"POPTR_0019s14100.1"	388	"	"T/A"	"52,6/47,4"	"91/82"	173
stress_12bis	"POPTR_0019s14100.1"	388	"	"T/A"	"54,1/45,9"	"229/194"	423	stress_45	"POPTR_0019s14100.1"	388	"	"T/A"	"50,7/49,3"	"112/109"	221
stress_12bis	"POPTR_0002s09480.1"	373	"	"T/C"	"65,7/34,3"	"23/12"	35	stress_45	"POPTR_0002s09480.1"	373	"	"T/C"	"53,1/46,1"	"68/59"	128
stress_12bis	"POPTR_0002s09480.1"	375	"	"T/G"	"63,9/36,1"	"23/13"	36	stress_45	"POPTR_0002s09480.1"	375	"	"T/G"	"54,5/45,5"	"73/61"	134
stress_12bis	"POPTR_0014s01970.1"	1044	"	"G/A"	"57,5/42,5"	"23/17"	40	stress_42	"POPTR_0014s01970.1"	1044	"	"A/G"	"51,8/48,2"	"58/54"	112
stress_12bis	"POPTR_0014s01970.1"	1044	"	"G/A"	"57,5/42,5"	"23/17"	40	stress_45	"POPTR_0014s01970.1"	1044	"	"A/G"	"58,6/41,4"	"65/46"	111
stress_12bis	"POPTR_0006s28990.1"	2460	"	"T/C"	"53,5/46,5"	"23/20"	43	stress_42	"POPTR_0006s28990.1"	2460	"	"T/C"	"50,0/49,0"	"51/50"	102
stress_12bis	"POPTR_0006s28990.1"	2460	"	"T/C"	"53,5/46,5"	"23/20"	43	stress_45	"POPTR_0006s28990.1"	2460	"	"C/T"	"57,7/42,3"	"60/44"	104
stress_12bis	"POPTR_0009s06690.1"	501	"	"C/T"	"53,5/46,5"	"23/20"	43	stress_45	"POPTR_0009s06690.1"	501	"	"T/C"	"51,2/48,8"	"65/62"	127
stress_12bis	"POPTR_0010s19860.1"	273	"	"G/A"	"53,5/46,5"	"23/20"	43	stress_45	"POPTR_0010s19860.1"	273	"	"G/A"	"55,4/44,6"	"62/50"	112
stress_12bis	"POPTR_0010s22610.1"	75	"	"A/G"	"52,3/47,7"	"23/21"	44	stress_45	"POPTR_0010s22610.1"	75	"	"G/A"	"57,6/42,4"	"76/56"	132
stress_12bis	"POPTR_0016s05530.1"	681	"	"C/G"	"51,1/48,9"	"23/22"	45	stress_42	"POPTR_0016s05530.1"	681	"	"G/C"	"51,4/48,6"	"57/54"	111
stress_12bis	"POPTR_0016s05530.1"	681	"	"C/G"	"51,1/48,9"	"23/22"	45	stress_45	"POPTR_0016s05530.1"	681	"	"C/G"	"50,6/49,4"	"85/83"	168
stress_12bis	"POPTR_0004s08380.1"	1011	"	"C/T"	"50,5/49,5"	"230/225"	455	stress_42	"POPTR_0004s08380.1"	1011	"	"T/C"	"56,5/43,5"	"39/30"	69
stress_12bis	"POPTR_0004s08380.1"	1011	"	"C/T"	"50,5/49,5"	"230/225"	455	stress_45	"POPTR_0004s08380.1"	1011	"	"T/C"	"52,9/47,1"	"36/32"	68
stress_12bis	"POPTR_0004s08380.1"	99	"	"A/G"	"66,8/33,2"	"233/116"	349	stress_42	"POPTR_0004s08380.1"	99	"	"A/G"	"63,3/36,7"	"31/18"	49
stress_12bis	"POPTR_0004s08380.1"	99	"	"A/G"	"66,8/33,2"	"233/116"	349	stress_45	"POPTR_0004s08380.1"	99	"	"A/G"	"60,4/39,6"	"32/21"	53
stress_12bis	"POPTR_0011s08940.1"	888	"	"C/T"	"55,5/44,5"	"233/187"	420	stress_42	"POPTR_0011s08940.1"	888	"	"T/C"	"59,0/41,0"	"62/43"	105
stress_12bis	"POPTR_0011s08940.1"	888	"	"C/T"	"55,5/44,5"	"233/187"	420	stress_45	"POPTR_0011s08940.1"	888	"	"T/C"	"57,8/42,2"	"115/84"	199
stress_12bis	"POPTR_0014s17070.1"	699	"	"T/A"	"50,9/48,5"	"233/222"	458	stress_42	"POPTR_0014s17070.1"	699	"	"T/A"	"51,2/48,8"	"85/81"	166
stress_12bis	"POPTR_0014s17070.1"	699	"	"T/A"	"50,9/48,5"	"233/222"	458	stress_45	"POPTR_0014s17070.1"	699	"	"T/A"	"55,6/44,4"	"94/75"	169
stress_12bis	"POPTR_0004s18190.1"	711	"	"A/C"	"51,2/48,6"	"234/222"	457	stress_42	"POPTR_0004s18190.1"	711	"	"A/C"	"48,9/47,8"	"45/44"	92
stress_12bis	"POPTR_0004s18190.1"	711	"	"A/C"	"51,2/48,6"	"234/222"	457	stress_45	"POPTR_0004s18190.1"	711	"	"A/C"	"53,8/45,2"	"56/47"	104
stress_12bis	"POPTR_0008s15760.1"	367	"	"C/G"	"78,0/21,3"	"234/64"	300	stress_42	"POPTR_0008s15760.1"	367	"	"C/G"	"50,3/49,7"	"79/78"	157
stress_12bis	"POPTR_0008s15760.1"	367	"	"C/G"	"78,0/21,3"	"234/64"	300	stress_45	"POPTR_0008s15760.1"	367	"	"C/G"	"67,6/32,4"	"144/69"	213
stress_12bis	"POPTR_0008s06720.1"	315	"	"G/A"	"52,1/47,9"	"236/217"	453	stress_42	"POPTR_0008s06720.1"	315	"	"G/A"	"73,8/26,2"	"79/28"	107
stress_12bis	"POPTR_0008s06720.1"	315	"	"G/A"	"52,1/47,9"	"236/217"	453	stress_45	"POPTR_0008s06720.1"	315	"	"G/A"	"70,5/29,5"	"86/36"	122
stress_12bis	"POPTR_0004s08380.1"	333	"	"C/T"	"51,6/47,9"	"237/220"	459	stress_42	"POPTR_0004s08380.1"	333	"	"T/C"	"70,0/30,0"	"35/15"	50
stress_12bis	"POPTR_0004s08380.1"	333	"	"C/T"	"51,6/47,9"	"237/220"	459	stress_45	"POPTR_0004s08380.1"	333	"	"T/C"	"58,8/41,2"	"30/21"	51
stress_12bis	"POPTR_0008s06720.1"	351	"	"T/G"	"50,5/49,5"	"237/232"	469	stress_42	"POPTR_0008s06720.1"	351	"	"G/T"	"66,7/31,8"	"88/42"	132
stress_12bis	"POPTR_0008s06720.1"	351	"	"T/G"	"50,5/49,5"	"237/232"	469	stress_45	"POPTR_0008s06720.1"	351	"	"G/T"	"71,7/28,3"	"71/28"	99
stress_12bis	"POPTR_0007s12070.1"	615	"	"T/C"	"54,3/45,4"	"238/199"	438	stress_42	"POPTR_0007s12070.1"	615	"	"C/T"	"54,7/45,3"	"47/39"	86
stress_12bis	"POPTR_0007s12070.1"	615	"	"T/C"	"54,3/45,4"	"238/199"	438	stress_45	"POPTR_0007s12070.1"	615	"	"C/T"	"54,3/45,7"	"50/42"	92
stress_12bis	"POPTR_0004s08380.1"	113	"	"G/A"	"56,0/44,0"	"239/188"	427	stress_42	"POPTR_0004s08380.1"	113	"	"G/A"	"56,5/43,5"	"39/30"	69
stress_12bis	"POPTR_0004s08380.1"	113	"	"G/A"	"56,0/44,0"	"239/188"	427	stress_45	"POPTR_0004s08380.1"	113	"	"A/G"	"50,0/50,0"	"30/30"	60
stress_12bis	"POPTR_0004s18190.1"	1064	"	"G/A"	"52,8/47,2"	"239/214"	453	stress_42	"POPTR_0004s18190.1"	1064	"	"G/A"	"55,8/44,2"	"72/57"	129
stress_12bis	"POPTR_0004s18190.1"	1064	"	"G/A"	"52,8/47,2"	"239/214"	453	stress_45	"POPTR_0004s18190.1"	1064	"	"G/A"	"55,3/44,7"	"47/38"	85
stress_12bis	"POPTR_0002s01080.1"	658	"	"C/T"	"51,1/48,9"	"239/229"	468	stress_42	"POPTR_0002s01080.1"	658	"	"T/C"	"51,4/48,6"	"90/85"	175
stress_12bis	"POPTR_0002s01080.1"	658	"	"C/T"	"51,1/48,9"	"239/229"	468	stress_45	"POPTR_0002s01080.1"	658	"	"C/T"	"50,9/48,3"	"117/111"	230
stress_12bis	"POPTR_0008s09150.1"	42	"	"C/T"	"63,2/36,8"	"24/14"	38	stress_45	"POPTR_0008s09150.1"	42	"	"C/T"	"58,1/41,9"	"68/49"	117
stress_12bis	"POPTR_0009s12420.1"	219	"	"G/T"	"60,0/40,0"	"24/16"	40	stress_42	"POPTR_0009s12420.1"	219	"	"G/T"	"69,7/29,5"	"92/39"	132
stress_12bis	"POPTR_0009s12420.1"	219	"	"G/T"	"60,0/40,0"	"24/16"	40	stress_45	"POPTR_0009s12420.1"	219	"	"G/T"	"60,6/39,4"	"94/61"	155
stress_12bis	"POPTR_0014s02550.1"	1252	"	"A/T"	"58,5/41,5"	"24/17"	41	stress_45	"POPTR_0014s02550.1"	1252	"	"T/A"	"56,3/43,7"	"58/45"	103
stress_12bis	"POPTR_0010s07340.1"	1536	"	"T/C"	"55,8/44,2"	"24/19"	43	stress_42	"POPTR_0010s07340.1"	1536	"	"T/C"	"57,3/42,7"	"63/47"	110
stress_12bis	"POPTR_0008s12550.1"	153	"	"T/G"	"55,8/44,2"	"24/19"	43	stress_45	"POPTR_0008s12550.1"	153	"	"T/G"	"52,5/47,5"	"53/48"	101
stress_12bis	"POPTR_0003s13880.1"	414	"	"C/T"	"54,5/45,5"	"24/20"	44	stress_42	"POPTR_0003s13880.1"	414	"	"T/C"	"60,6/39,4"	"80/52"	132
stress_12bis	"POPTR_0003s13880.1"	414	"	"C/T"	"54,5/45,5"	"24/20"	44	stress_45	"POPTR_0003s13880.1"	414	"	"T/C"	"52,1/47,3"	"76/69"	146
stress_12bis	"POPTR_0001s32770.1"	1011	"	"T/A"	"54,5/45,5"	"24/20"	44	stress_45	"POPTR_0001s32770.1"	1011	"	"A/T"	"53,6/45,5"	"59/50"	110
stress_12bis	"POPTR_0010s11780.1"	647	"	"C/A"	"53,3/46,7"	"24/21"	45	stress_45	"POPTR_0010s11780.1"	647	"	"C/A"	"63,9/36,1"	"92/52"	144
stress_12bis	"POPTR_0010s19860.1"	318	"	"C/T"	"53,3/46,7"	"24/21"	45	stress_45	"POPTR_0010s19860.1"	318	"	"T/C"	"57,3/42,7"	"59/44"	103
stress_12bis	"POPTR_0005s15660.1"	493	"	"A/G"	"56,1/43,9"	"2403/1880"	4283	stress_42	"POPTR_0005s15660.1"	493	"	"A/G"	"50,1/49,8"	"654/650"	1305
stress_12bis	"POPTR_0005s15660.1"	493	"	"A/G"	"56,1/43,9"	"2403/1880"	4283	stress_45	"POPTR_0005s15660.1"	493	"	"A/G"	"50,1/49,9"	"558/556"	1114
stress_12bis	"POPTR_0008s06720.1"	26	"	"T/C"	"63,6/36,4"	"241/138"	379	stress_42	"POPTR_0008s06720.1"	26	"	"C/T"	"52,6/47,4"	"40/36"	76
stress_12bis	"POPTR_0008s06720.1"	26	"	"T/C"	"63,6/36,4"	"241/138"	379	stress_45	"POPTR_0008s06720.1"	26	"	"C/T"	"63,7/36,3"	"65/37"	102
stress_12bis	"POPTR_0007s12070.1"	813	"	"G/A"	"56,6/43,4"	"241/185"	426	stress_42	"POPTR_0007s12070.1"	813	"	"G/A"	"50,8/49,2"	"60/58"	118
stress_12bis	"POPTR_0007s12070.1"	813	"	"G/A"	"56,6/43,4"	"241/185"	426	stress_45	"POPTR_0007s12070.1"	813	"	"A/G"	"52,0/48,0"	"51/47"	98
stress_12bis	"POPTR_0006s14400.1"	218	"	"G/A"	"59,0/40,8"	"243/168"	412	stress_42	"POPTR_0006s14400.1"	218	"	"A/G"	"73,9/25,6"	"445/154"	602
stress_12bis	"POPTR_0006s14400.1"	218	"	"G/A"	"59,0/40,8"	"243/168"	412	stress_45	"POPTR_0006s14400.1"	218	"	"A/G"	"77,6/22,3"	"801/230"	1032
stress_12bis	"POPTR_0004s18190.1"	654	"	"C/G"	"58,0/42,0"	"243/176"	419	stress_42	"POPTR_0004s18190.1"	654	"	"C/G"	"53,9/45,1"	"55/46"	102
stress_12bis	"POPTR_0004s18190.1"	654	"	"C/G"	"58,0/42,0"	"243/176"	419	stress_45	"POPTR_0004s18190.1"	654	"	"C/G"	"53,0/47,0"	"62/55"	117
stress_12bis	"POPTR_0004s18190.1"	1098	"	"T/A"	"54,2/45,3"	"243/203"	448	stress_42	"POPTR_0004s18190.1"	1098	"	"A/T"	"56,8/43,2"	"84/64"	148
stress_12bis	"POPTR_0004s18190.1"	1098	"	"T/A"	"54,2/45,3"	"243/203"	448	stress_45	"POPTR_0004s18190.1"	1098	"	"A/T"	"50,6/49,4"	"44/43"	87
stress_12bis	"POPTR_0011s11390.1"	549	"	"T/C"	"53,1/46,9"	"243/215"	458	stress_42	"POPTR_0011s11390.1"	549	"	"C/T"	"69,2/30,8"	"63/28"	91
stress_12bis	"POPTR_0011s11390.1"	549	"	"T/C"	"53,1/46,9"	"243/215"	458	stress_45	"POPTR_0011s11390.1"	549	"	"C/T"	"57,8/42,2"	"59/43"	102
stress_12bis	"POPTR_0006s13310.1"	201	"	"T/A"	"64,2/35,8"	"244/136"	380	stress_42	"POPTR_0006s13310.1"	201	"	"T/A"	"55,2/44,2"	"91/73"	165
stress_12bis	"POPTR_0006s13310.1"	201	"	"T/A"	"64,2/35,8"	"244/136"	380	stress_45	"POPTR_0006s13310.1"	201	"	"T/A"	"55,9/43,8"	"204/160"	365
stress_12bis	"POPTR_0005s15660.1"	195	"	"A/T"	"55,6/44,3"	"2442/1945"	4391	stress_42	"POPTR_0005s15660.1"	195	"	"A/T"	"59,2/40,8"	"760/523"	1283
stress_12bis	"POPTR_0005s15660.1"	195	"	"A/T"	"55,6/44,3"	"2442/1945"	4391	stress_45	"POPTR_0005s15660.1"	195	"	"A/T"	"60,7/39,2"	"648/419"	1068
stress_12bis	"POPTR_0019s09140.1"	749	"	"A/T"	"54,9/45,1"	"245/201"	446	stress_42	"POPTR_0019s09140.1"	749	"	"A/T"	"51,4/48,6"	"93/88"	181
stress_12bis	"POPTR_0019s09140.1"	749	"	"A/T"	"54,9/45,1"	"245/201"	446	stress_45	"POPTR_0019s09140.1"	749	"	"A/T"	"59,5/40,5"	"113/77"	190
stress_12bis	"POPTR_0007s12070.1"	892	"	"A/G"	"54,8/45,2"	"246/203"	449	stress_42	"POPTR_0007s12070.1"	892	"	"G/A"	"53,9/46,1"	"62/53"	115
stress_12bis	"POPTR_0007s12070.1"	892	"	"A/G"	"54,8/45,2"	"246/203"	449	stress_45	"POPTR_0007s12070.1"	892	"	"G/A"	"59,6/40,4"	"62/42"	104
stress_12bis	"POPTR_0006s13310.1"	891	"	"C/T"	"63,8/36,2"	"247/140"	387	stress_42	"POPTR_0006s13310.1"	891	"	"C/T"	"59,3/40,7"	"188/129"	317
stress_12bis	"POPTR_0006s13310.1"	891	"	"C/T"	"63,8/36,2"	"247/140"	387	stress_45	"POPTR_0006s13310.1"	891	"	"C/T"	"52,0/47,8"	"222/204"	427
stress_12bis	"POPTR_0006s14400.1"	939	"	"T/A"	"54,4/45,6"	"247/207"	454	stress_42	"POPTR_0006s14400.1"	939	"	"A/T"	"79,9/20,1"	"791/199"	990
stress_12bis	"POPTR_0006s14400.1"	939	"	"T/A"	"54,4/45,6"	"247/207"	454	stress_45	"POPTR_0006s14400.1"	939	"	"A/T"	"78,8/21,1"	"946/254"	1201
stress_12bis	"POPTR_0008s06720.1"	339	"	"G/A"	"50,4/49,6"	"247/243"	490	stress_42	"POPTR_0008s06720.1"	339	"	"A/G"	"65,4/34,6"	"83/44"	127
stress_12bis	"POPTR_0008s06720.1"	339	"	"G/A"	"50,4/49,6"	"247/243"	490	stress_45	"POPTR_0008s06720.1"	339	"	"A/G"	"75,9/24,1"	"88/28"	116
stress_12bis	"POPTR_0006s14400.1"	740	"	"G/A"	"55,1/44,9"	"249/203"	452	stress_42	"POPTR_0006s14400.1"	740	"	"A/G"	"76,2/23,6"	"682/211"	895
stress_12bis	"POPTR_0006s14400.1"	740	"	"G/A"	"55,1/44,9"	"249/203"	452	stress_45	"POPTR_0006s14400.1"	740	"	"A/G"	"75,8/24,2"	"816/261"	1077
stress_12bis	"POPTR_0005s15660.1"	494	"	"C/T"	"57,3/42,6"	"2493/1855"	4350	stress_42	"POPTR_0005s15660.1"	494	"	"C/T"	"51,4/48,6"	"677/641"	1318
stress_12bis	"POPTR_0005s15660.1"	494	"	"C/T"	"57,3/42,6"	"2493/1855"	4350	stress_45	"POPTR_0005s15660.1"	494	"	"C/T"	"51,1/48,9"	"569/544"	1113
stress_12bis	"POPTR_0018s02230.1"	92	"	"T/C"	"71,4/28,6"	"25/10"	35	stress_45	"POPTR_0018s02230.1"	92	"	"T/C"	"60,2/39,8"	"62/41"	103
stress_12bis	"POPTR_0010s19930.1"	232	"	"T/G"	"71,4/28,6"	"25/10"	35	stress_42	"POPTR_0010s19930.1"	232	"	"T/G"	"68,2/31,8"	"161/75"	236
stress_12bis	"POPTR_0010s19930.1"	232	"	"T/G"	"71,4/28,6"	"25/10"	35	stress_45	"POPTR_0010s19930.1"	232	"	"T/G"	"66,8/33,2"	"151/75"	226
stress_12bis	"POPTR_0013s15560.1"	294	"	"A/T"	"69,4/30,6"	"25/11"	36	stress_42	"POPTR_0013s15560.1"	294	"	"A/T"	"56,5/43,5"	"70/54"	124
stress_12bis	"POPTR_0013s15560.1"	294	"	"A/T"	"69,4/30,6"	"25/11"	36	stress_45	"POPTR_0013s15560.1"	294	"	"A/T"	"62,3/37,7"	"101/61"	162
stress_12bis	"POPTR_0014s01970.1"	462	"	"T/G"	"59,5/40,5"	"25/17"	42	stress_45	"POPTR_0014s01970.1"	462	"	"T/G"	"50,5/49,5"	"53/52"	105
stress_12bis	"POPTR_0002s21340.1"	1448	"	"G/A"	"58,1/41,9"	"25/18"	43	stress_45	"POPTR_0002s21340.1"	1448	"	"G/A"	"56,4/43,6"	"57/44"	101
stress_12bis	"POPTR_0009s11920.1"	477	"	"C/A"	"55,6/44,4"	"25/20"	45	stress_45	"POPTR_0009s11920.1"	477	"	"C/A"	"55,7/44,3"	"59/47"	106
stress_12bis	"POPTR_0010s15190.1"	237	"	"C/G"	"55,6/44,4"	"25/20"	45	stress_45	"POPTR_0010s15190.1"	237	"	"G/C"	"52,9/47,1"	"55/49"	104
stress_12bis	"POPTR_0002s06680.1"	543	"	"G/A"	"55,6/44,4"	"25/20"	45	stress_45	"POPTR_0002s06680.1"	543	"	"A/G"	"52,0/48,0"	"53/49"	102
stress_12bis	"POPTR_0014s01970.1"	499	"	"T/A"	"54,3/45,7"	"25/21"	46	stress_42	"POPTR_0014s01970.1"	499	"	"A/T"	"53,3/46,7"	"56/49"	105
stress_12bis	"POPTR_0014s01970.1"	499	"	"T/A"	"54,3/45,7"	"25/21"	46	stress_45	"POPTR_0014s01970.1"	499	"	"T/A"	"53,8/46,2"	"63/54"	117
stress_12bis	"POPTR_0010s19930.1"	242	"	"A/C"	"78,1/21,9"	"25/7"	32	stress_42	"POPTR_0010s19930.1"	242	"	"A/C"	"67,5/32,5"	"154/74"	228
stress_12bis	"POPTR_0010s19930.1"	242	"	"A/C"	"78,1/21,9"	"25/7"	32	stress_45	"POPTR_0010s19930.1"	242	"	"A/C"	"66,5/33,5"	"137/69"	206
stress_12bis	"POPTR_0006s14400.1"	948	"	"T/C"	"52,6/47,2"	"253/227"	481	stress_42	"POPTR_0006s14400.1"	948	"	"C/T"	"78,8/21,0"	"812/217"	1031
stress_12bis	"POPTR_0006s14400.1"	948	"	"T/C"	"52,6/47,2"	"253/227"	481	stress_45	"POPTR_0006s14400.1"	948	"	"C/T"	"80,3/19,2"	"973/233"	1211
stress_12bis	"POPTR_0001s40480.1"	784	"	"G/T"	"57,6/42,4"	"254/187"	441	stress_42	"POPTR_0001s40480.1"	784	"	"G/T"	"84,0/16,0"	"42/8"	50
stress_12bis	"POPTR_0001s40480.1"	784	"	"G/T"	"57,6/42,4"	"254/187"	441	stress_45	"POPTR_0001s40480.1"	784	"	"G/T"	"64,2/35,8"	"43/24"	67
stress_12bis	"POPTR_0001s40480.1"	785	"	"T/C"	"57,6/42,4"	"254/187"	441	stress_42	"POPTR_0001s40480.1"	785	"	"T/C"	"84,3/15,7"	"43/8"	51
stress_12bis	"POPTR_0001s40480.1"	785	"	"T/C"	"57,6/42,4"	"254/187"	441	stress_45	"POPTR_0001s40480.1"	785	"	"T/C"	"62,7/37,3"	"42/25"	67
stress_12bis	"POPTR_0019s09140.1"	753	"	"C/A"	"56,3/43,7"	"254/197"	451	stress_42	"POPTR_0019s09140.1"	753	"	"A/C"	"51,4/48,6"	"95/90"	185
stress_12bis	"POPTR_0019s09140.1"	753	"	"C/A"	"56,3/43,7"	"254/197"	451	stress_45	"POPTR_0019s09140.1"	753	"	"C/A"	"62,1/37,9"	"113/69"	182
stress_12bis	"POPTR_0004s09910.1"	15	"	"G/T"	"52,5/47,5"	"255/231"	486	stress_42	"POPTR_0004s09910.1"	15	"	"G/T"	"52,4/47,6"	"22/20"	42
stress_12bis	"POPTR_0004s09910.1"	15	"	"G/T"	"52,5/47,5"	"255/231"	486	stress_45	"POPTR_0004s09910.1"	15	"	"T/G"	"64,4/35,6"	"47/26"	73
stress_12bis	"POPTR_0002s19710.1"	264	"	"G/A"	"81,5/18,5"	"255/58"	313	stress_42	"POPTR_0002s19710.1"	264	"	"G/A"	"83,6/16,4"	"112/22"	134
stress_12bis	"POPTR_0006s14400.1"	231	"	"G/A"	"59,3/40,7"	"256/176"	432	stress_42	"POPTR_0006s14400.1"	231	"	"A/G"	"73,1/26,7"	"438/160"	599
stress_12bis	"POPTR_0006s14400.1"	231	"	"G/A"	"59,3/40,7"	"256/176"	432	stress_45	"POPTR_0006s14400.1"	231	"	"A/G"	"77,0/23,0"	"772/231"	1003
stress_12bis	"POPTR_0008s15780.1"	376	"	"A/T"	"74,9/25,1"	"256/86"	342	stress_42	"POPTR_0008s15780.1"	376	"	"A/T"	"76,7/23,3"	"385/117"	502
stress_12bis	"POPTR_0008s15780.1"	376	"	"A/T"	"74,9/25,1"	"256/86"	342	stress_45	"POPTR_0008s15780.1"	376	"	"A/T"	"68,1/31,9"	"286/134"	420
stress_12bis	"POPTR_0006s27170.1"	526	"	"A/C"	"70,6/29,4"	"257/107"	364	stress_42	"POPTR_0006s27170.1"	526	"	"A/C"	"80,8/19,2"	"42/10"	52
stress_12bis	"POPTR_0006s27170.1"	526	"	"A/C"	"70,6/29,4"	"257/107"	364	stress_45	"POPTR_0006s27170.1"	526	"	"A/C"	"81,3/17,6"	"74/16"	91
stress_12bis	"POPTR_0006s27170.1"	286	"	"T/C"	"60,3/39,7"	"257/169"	426	stress_42	"POPTR_0006s27170.1"	286	"	"T/C"	"83,6/16,4"	"61/12"	73
stress_12bis	"POPTR_0006s27170.1"	286	"	"T/C"	"60,3/39,7"	"257/169"	426	stress_45	"POPTR_0006s27170.1"	286	"	"T/C"	"71,9/28,1"	"69/27"	96
stress_12bis	"POPTR_0006s13310.1"	618	"	"A/C"	"74,6/25,4"	"258/88"	346	stress_42	"POPTR_0006s13310.1"	618	"	"A/C"	"65,3/34,3"	"141/74"	216
stress_12bis	"POPTR_0006s13310.1"	618	"	"A/C"	"74,6/25,4"	"258/88"	346	stress_45	"POPTR_0006s13310.1"	618	"	"A/C"	"63,5/36,2"	"230/131"	362
stress_12bis	"POPTR_0008s06720.1"	552	"	"C/T"	"60,9/39,1"	"259/166"	425	stress_42	"POPTR_0008s06720.1"	552	"	"T/C"	"54,3/45,7"	"75/63"	138
stress_12bis	"POPTR_0008s06720.1"	552	"	"C/T"	"60,9/39,1"	"259/166"	425	stress_45	"POPTR_0008s06720.1"	552	"	"T/C"	"64,5/35,5"	"69/38"	107
stress_12bis	"POPTR_0011s11390.1"	924	"	"C/T"	"57,3/42,5"	"259/192"	452	stress_42	"POPTR_0011s11390.1"	924	"	"T/C"	"58,2/40,9"	"64/45"	110
stress_12bis	"POPTR_0011s11390.1"	924	"	"C/T"	"57,3/42,5"	"259/192"	452	stress_45	"POPTR_0011s11390.1"	924	"	"T/C"	"54,2/45,8"	"58/49"	107
stress_12bis	"POPTR_0009s06690.1"	165	"	"A/C"	"63,4/36,6"	"26/15"	41	stress_45	"POPTR_0009s06690.1"	165	"	"C/A"	"57,0/43,0"	"90/68"	158
stress_12bis	"POPTR_0016s11670.1"	257	"	"C/G"	"60,5/39,5"	"26/17"	43	stress_45	"POPTR_0016s11670.1"	257	"	"G/C"	"57,0/43,0"	"61/46"	107
stress_12bis	"POPTR_0009s06690.1"	276	"	"A/T"	"57,8/42,2"	"26/19"	45	stress_45	"POPTR_0009s06690.1"	276	"	"T/A"	"50,6/49,4"	"78/76"	154
stress_12bis	"POPTR_0011s05250.1"	625	"	"T/C"	"57,8/42,2"	"26/19"	45	stress_45	"POPTR_0011s05250.1"	625	"	"T/C"	"65,3/34,7"	"79/42"	121
stress_12bis	"POPTR_0008s09150.1"	59	"	"A/T"	"54,2/45,8"	"26/22"	48	stress_45	"POPTR_0008s09150.1"	59	"	"A/T"	"54,0/46,0"	"75/64"	139
stress_12bis	"POPTR_0009s06690.1"	984	"	"T/C"	"52,0/48,0"	"26/24"	50	stress_42	"POPTR_0009s06690.1"	984	"	"C/T"	"59,8/40,2"	"70/47"	117
stress_12bis	"POPTR_0009s06690.1"	984	"	"T/C"	"52,0/48,0"	"26/24"	50	stress_45	"POPTR_0009s06690.1"	984	"	"T/C"	"51,7/48,3"	"92/86"	178
stress_12bis	"POPTR_0011s05250.1"	1428	"	"G/T"	"50,0/50,0"	"26/26"	52	stress_45	"POPTR_0011s05250.1"	1428	"	"G/T"	"59,8/40,2"	"67/45"	112
stress_12bis	"POPTR_0001s40480.1"	891	"	"A/G"	"58,0/42,0"	"261/189"	450	stress_42	"POPTR_0001s40480.1"	891	"	"A/G"	"77,6/22,4"	"45/13"	58
stress_12bis	"POPTR_0001s40480.1"	891	"	"A/G"	"58,0/42,0"	"261/189"	450	stress_45	"POPTR_0001s40480.1"	891	"	"A/G"	"80,0/20,0"	"52/13"	65
stress_12bis	"POPTR_0002s22600.1"	354	"	"C/T"	"56,1/43,1"	"263/202"	469	stress_42	"POPTR_0002s22600.1"	354	"	"C/T"	"56,8/43,2"	"71/54"	125
stress_12bis	"POPTR_0002s22600.1"	354	"	"C/T"	"56,1/43,1"	"263/202"	469	stress_45	"POPTR_0002s22600.1"	354	"	"C/T"	"55,2/44,3"	"107/86"	194
stress_12bis	"POPTR_0004s08380.1"	258	"	"C/T"	"53,5/46,5"	"265/230"	495	stress_42	"POPTR_0004s08380.1"	258	"	"T/C"	"54,0/46,0"	"34/29"	63
stress_12bis	"POPTR_0004s08380.1"	258	"	"C/T"	"53,5/46,5"	"265/230"	495	stress_45	"POPTR_0004s08380.1"	258	"	"C/T"	"59,3/40,7"	"32/22"	54
stress_12bis	"POPTR_0005s13860.1"	541	"	"C/T"	"79,6/20,4"	"266/68"	334	stress_42	"POPTR_0005s13860.1"	541	"	"C/T"	"76,4/23,6"	"81/25"	106
stress_12bis	"POPTR_0005s13860.1"	541	"	"C/T"	"79,6/20,4"	"266/68"	334	stress_45	"POPTR_0005s13860.1"	541	"	"C/T"	"81,5/18,5"	"101/23"	124
stress_12bis	"POPTR_0014s17400.1"	600	"	"C/T"	"67,1/32,9"	"267/131"	398	stress_42	"POPTR_0014s17400.1"	600	"	"C/T"	"61,4/38,6"	"102/64"	166
stress_12bis	"POPTR_0014s17400.1"	600	"	"C/T"	"67,1/32,9"	"267/131"	398	stress_45	"POPTR_0014s17400.1"	600	"	"C/T"	"64,5/35,5"	"129/71"	200
stress_12bis	"POPTR_0006s14400.1"	993	"	"C/T"	"57,3/42,7"	"267/199"	466	stress_42	"POPTR_0006s14400.1"	993	"	"T/C"	"75,8/24,1"	"797/253"	1051
stress_12bis	"POPTR_0006s14400.1"	993	"	"C/T"	"57,3/42,7"	"267/199"	466	stress_45	"POPTR_0006s14400.1"	993	"	"T/C"	"75,5/24,4"	"982/317"	1301
stress_12bis	"POPTR_0011s11390.1"	108	"	"G/A"	"54,2/45,8"	"267/226"	493	stress_42	"POPTR_0011s11390.1"	108	"	"A/G"	"66,2/33,8"	"53/27"	80
stress_12bis	"POPTR_0011s11390.1"	108	"	"G/A"	"54,2/45,8"	"267/226"	493	stress_45	"POPTR_0011s11390.1"	108	"	"A/G"	"70,4/29,6"	"69/29"	98
stress_12bis	"POPTR_0018s12270.1"	121	"	"G/A"	"76,5/23,5"	"267/82"	349	stress_42	"POPTR_0018s12270.1"	121	"	"G/A"	"76,4/23,6"	"120/37"	157
stress_12bis	"POPTR_0018s12270.1"	121	"	"G/A"	"76,5/23,5"	"267/82"	349	stress_45	"POPTR_0018s12270.1"	121	"	"G/A"	"70,4/29,6"	"107/45"	152
stress_12bis	"POPTR_0008s15100.1"	117	"	"C/T"	"60,2/39,8"	"268/177"	445	stress_42	"POPTR_0008s15100.1"	117	"	"C/T"	"56,5/43,5"	"95/73"	168
stress_12bis	"POPTR_0008s15100.1"	117	"	"C/T"	"60,2/39,8"	"268/177"	445	stress_45	"POPTR_0008s15100.1"	117	"	"T/C"	"52,8/47,2"	"86/77"	163
stress_12bis	"POPTR_0005s15660.1"	257	"	"G/A"	"72,3/27,6"	"2684/1023"	3710	stress_42	"POPTR_0005s15660.1"	257	"	"G/A"	"71,1/28,9"	"787/320"	1107
stress_12bis	"POPTR_0005s15660.1"	257	"	"G/A"	"72,3/27,6"	"2684/1023"	3710	stress_45	"POPTR_0005s15660.1"	257	"	"G/A"	"64,7/35,3"	"580/316"	896
stress_12bis	"POPTR_0002s19710.1"	252	"	"C/T"	"79,4/20,6"	"269/70"	339	stress_42	"POPTR_0002s19710.1"	252	"	"C/T"	"81,4/18,6"	"114/26"	140
stress_12bis	"POPTR_0002s19710.1"	252	"	"C/T"	"79,4/20,6"	"269/70"	339	stress_45	"POPTR_0002s19710.1"	252	"	"C/T"	"82,5/16,7"	"99/20"	120
stress_12bis	"POPTR_0019s08500.1"	123	"	"G/A"	"65,9/34,1"	"27/14"	41	stress_45	"POPTR_0019s08500.1"	123	"	"G/A"	"54,7/45,3"	"64/53"	117
stress_12bis	"POPTR_0009s11920.1"	210	"	"T/C"	"61,4/38,6"	"27/17"	44	stress_45	"POPTR_0009s11920.1"	210	"	"T/C"	"53,2/46,8"	"66/58"	124
stress_12bis	"POPTR_0016s11670.1"	261	"	"T/C"	"58,7/41,3"	"27/19"	46	stress_45	"POPTR_0016s11670.1"	261	"	"C/T"	"60,0/40,0"	"66/44"	110
stress_12bis	"POPTR_0005s26610.1"	645	"	"G/T"	"57,4/42,6"	"27/20"	47	stress_42	"POPTR_0005s26610.1"	645	"	"G/T"	"51,7/48,3"	"60/56"	116
stress_12bis	"POPTR_0008s16670.1"	648	"	"C/T"	"57,4/42,6"	"27/20"	47	stress_42	"POPTR_0008s16670.1"	648	"	"T/C"	"58,1/41,9"	"61/44"	105
stress_12bis	"POPTR_0008s16670.1"	648	"	"C/T"	"57,4/42,6"	"27/20"	47	stress_45	"POPTR_0008s16670.1"	648	"	"T/C"	"56,8/43,2"	"79/60"	139
stress_12bis	"POPTR_0001s37480.1"	207	"	"C/T"	"54,0/46,0"	"27/23"	50	stress_45	"POPTR_0001s37480.1"	207	"	"C/T"	"50,5/49,5"	"51/50"	101
stress_12bis	"POPTR_0001s12630.1"	255	"	"C/T"	"54,0/46,0"	"27/23"	50	stress_45	"POPTR_0001s12630.1"	255	"	"C/T"	"56,0/44,0"	"61/48"	109
stress_12bis	"POPTR_0008s04210.1"	1299	"	"T/A"	"52,9/47,1"	"27/24"	51	stress_42	"POPTR_0008s04210.1"	1299	"	"T/A"	"50,5/49,5"	"53/52"	105
stress_12bis	"POPTR_0008s04210.1"	1299	"	"T/A"	"52,9/47,1"	"27/24"	51	stress_45	"POPTR_0008s04210.1"	1299	"	"A/T"	"59,9/40,1"	"88/59"	147
stress_12bis	"POPTR_0003s13880.1"	365	"	"G/A"	"51,9/48,1"	"27/25"	52	stress_42	"POPTR_0003s13880.1"	365	"	"G/A"	"61,0/39,0"	"86/55"	141
stress_12bis	"POPTR_0003s13880.1"	365	"	"G/A"	"51,9/48,1"	"27/25"	52	stress_45	"POPTR_0003s13880.1"	365	"	"G/A"	"52,3/47,7"	"102/93"	195
stress_12bis	"POPTR_0001s37480.1"	786	"	"C/T"	"51,9/48,1"	"27/25"	52	stress_45	"POPTR_0001s37480.1"	786	"	"T/C"	"56,2/43,8"	"68/53"	121
stress_12bis	"POPTR_0006s28990.1"	1656	"	"G/A"	"50,9/49,1"	"27/26"	53	stress_42	"POPTR_0006s28990.1"	1656	"	"G/A"	"60,2/39,8"	"65/43"	108
stress_12bis	"POPTR_0006s28990.1"	1656	"	"G/A"	"50,9/49,1"	"27/26"	53	stress_45	"POPTR_0006s28990.1"	1656	"	"A/G"	"50,4/49,6"	"68/67"	135
stress_12bis	"POPTR_0006s28990.1"	2830	"	"C/T"	"50,9/49,1"	"27/26"	53	stress_42	"POPTR_0006s28990.1"	2830	"	"C/T"	"51,2/48,1"	"66/62"	129
stress_12bis	"POPTR_0006s28990.1"	2830	"	"C/T"	"50,9/49,1"	"27/26"	53	stress_45	"POPTR_0006s28990.1"	2830	"	"C/T"	"59,4/40,6"	"98/67"	165
stress_12bis	"POPTR_0013s15560.1"	558	"	"C/A"	"50,9/49,1"	"27/26"	53	stress_42	"POPTR_0013s15560.1"	558	"	"C/A"	"53,3/46,7"	"81/71"	152
stress_12bis	"POPTR_0013s15560.1"	558	"	"C/A"	"50,9/49,1"	"27/26"	53	stress_45	"POPTR_0013s15560.1"	558	"	"C/A"	"55,7/44,3"	"112/89"	201
stress_12bis	"POPTR_0010s07340.1"	1541	"	"A/G"	"50,0/50,0"	"27/27"	54	stress_42	"POPTR_0010s07340.1"	1541	"	"G/A"	"53,2/46,8"	"74/65"	139
stress_12bis	"POPTR_0010s07340.1"	1541	"	"A/G"	"50,0/50,0"	"27/27"	54	stress_45	"POPTR_0010s07340.1"	1541	"	"G/A"	"52,5/47,5"	"53/48"	101
stress_12bis	"POPTR_0013s03320.1"	88	"	"T/C"	"84,4/15,6"	"27/5"	32	stress_42	"POPTR_0013s03320.1"	88	"	"T/C"	"78,9/21,1"	"90/24"	114
stress_12bis	"POPTR_0010s01590.1"	289	"	"G/C"	"81,8/18,2"	"27/6"	33	stress_42	"POPTR_0010s01590.1"	289	"	"G/C"	"59,6/40,4"	"204/138"	342
stress_12bis	"POPTR_0010s01590.1"	289	"	"G/C"	"81,8/18,2"	"27/6"	33	stress_45	"POPTR_0010s01590.1"	289	"	"G/C"	"52,2/47,8"	"132/121"	253
stress_12bis	"POPTR_0009s05850.1"	168	"	"G/A"	"77,1/22,9"	"27/8"	35	stress_45	"POPTR_0009s05850.1"	168	"	"A/G"	"56,9/43,1"	"58/44"	102
stress_12bis	"POPTR_0010s11780.1"	679	"	"G/C"	"75,0/25,0"	"27/9"	36	stress_45	"POPTR_0010s11780.1"	679	"	"G/C"	"56,2/43,8"	"73/57"	130
stress_12bis	"POPTR_0005s15660.1"	344	"	"A/G"	"58,1/41,9"	"2700/1947"	4649	stress_42	"POPTR_0005s15660.1"	344	"	"A/G"	"56,5/43,5"	"790/608"	1398
stress_12bis	"POPTR_0005s15660.1"	344	"	"A/G"	"58,1/41,9"	"2700/1947"	4649	stress_45	"POPTR_0005s15660.1"	344	"	"A/G"	"50,5/49,5"	"579/568"	1147
stress_12bis	"POPTR_0008s06720.1"	162	"	"G/T"	"57,3/42,3"	"271/200"	473	stress_42	"POPTR_0008s06720.1"	162	"	"T/G"	"64,2/34,9"	"70/38"	109
stress_12bis	"POPTR_0008s06720.1"	162	"	"G/T"	"57,3/42,3"	"271/200"	473	stress_45	"POPTR_0008s06720.1"	162	"	"T/G"	"63,0/35,2"	"102/57"	162
stress_12bis	"POPTR_0011s11390.1"	993	"	"A/T"	"52,2/46,8"	"271/243"	519	stress_42	"POPTR_0011s11390.1"	993	"	"T/A"	"51,9/46,6"	"68/61"	131
stress_12bis	"POPTR_0011s11390.1"	993	"	"A/T"	"52,2/46,8"	"271/243"	519	stress_45	"POPTR_0011s11390.1"	993	"	"T/A"	"69,4/29,8"	"84/36"	121
stress_12bis	"POPTR_0004s08380.1"	361	"	"G/T"	"51,4/48,4"	"271/255"	527	stress_42	"POPTR_0004s08380.1"	361	"	"G/T"	"61,4/38,6"	"35/22"	57
stress_12bis	"POPTR_0004s08380.1"	361	"	"G/T"	"51,4/48,4"	"271/255"	527	stress_45	"POPTR_0004s08380.1"	361	"	"G/T"	"59,7/40,3"	"40/27"	67
stress_12bis	"POPTR_0005s15660.1"	228	"	"C/T"	"54,3/45,7"	"2714/2287"	5001	stress_42	"POPTR_0005s15660.1"	228	"	"C/T"	"58,4/41,6"	"855/608"	1463
stress_12bis	"POPTR_0005s15660.1"	228	"	"C/T"	"54,3/45,7"	"2714/2287"	5001	stress_45	"POPTR_0005s15660.1"	228	"	"C/T"	"58,8/41,1"	"738/516"	1255
stress_12bis	"POPTR_0006s13310.1"	606	"	"C/T"	"72,9/26,8"	"272/100"	373	stress_42	"POPTR_0006s13310.1"	606	"	"C/T"	"64,7/35,3"	"154/84"	238
stress_12bis	"POPTR_0006s13310.1"	606	"	"C/T"	"72,9/26,8"	"272/100"	373	stress_45	"POPTR_0006s13310.1"	606	"	"C/T"	"65,4/34,0"	"250/130"	382
stress_12bis	"POPTR_0014s11210.1"	483	"	"T/C"	"83,2/16,8"	"272/55"	327	stress_42	"POPTR_0014s11210.1"	483	"	"T/C"	"61,8/38,2"	"81/50"	131
stress_12bis	"POPTR_0014s11210.1"	483	"	"T/C"	"83,2/16,8"	"272/55"	327	stress_45	"POPTR_0014s11210.1"	483	"	"T/C"	"70,5/29,5"	"117/49"	166
stress_12bis	"POPTR_0006s14400.1"	825	"	"A/G"	"52,2/47,8"	"273/250"	523	stress_42	"POPTR_0006s14400.1"	825	"	"G/A"	"78,3/21,7"	"902/250"	1152
stress_12bis	"POPTR_0006s14400.1"	825	"	"A/G"	"52,2/47,8"	"273/250"	523	stress_45	"POPTR_0006s14400.1"	825	"	"G/A"	"77,9/22,1"	"1112/316"	1428
stress_12bis	"POPTR_0005s15660.1"	343	"	"C/A"	"58,4/41,6"	"2733/1945"	4679	stress_42	"POPTR_0005s15660.1"	343	"	"C/A"	"56,5/43,4"	"790/607"	1398
stress_12bis	"POPTR_0005s15660.1"	343	"	"C/A"	"58,4/41,6"	"2733/1945"	4679	stress_45	"POPTR_0005s15660.1"	343	"	"C/A"	"50,2/49,8"	"574/569"	1143
stress_12bis	"POPTR_0003s05110.1"	240	"	"A/T"	"51,0/49,0"	"274/263"	537	stress_42	"POPTR_0003s05110.1"	240	"	"A/T"	"63,8/36,2"	"104/59"	163
stress_12bis	"POPTR_0003s05110.1"	240	"	"A/T"	"51,0/49,0"	"274/263"	537	stress_45	"POPTR_0003s05110.1"	240	"	"A/T"	"63,0/37,0"	"87/51"	138
stress_12bis	"POPTR_0001s13100.1"	272	"	"A/C"	"61,1/38,9"	"275/175"	450	stress_42	"POPTR_0001s13100.1"	272	"	"A/C"	"50,8/49,2"	"33/32"	65
stress_12bis	"POPTR_0001s13100.1"	272	"	"A/C"	"61,1/38,9"	"275/175"	450	stress_45	"POPTR_0001s13100.1"	272	"	"C/A"	"64,6/35,4"	"31/17"	48
stress_12bis	"POPTR_0008s06720.1"	79	"	"G/A"	"60,7/39,3"	"275/178"	453	stress_42	"POPTR_0008s06720.1"	79	"	"A/G"	"67,3/32,7"	"68/33"	101
stress_12bis	"POPTR_0008s06720.1"	79	"	"G/A"	"60,7/39,3"	"275/178"	453	stress_45	"POPTR_0008s06720.1"	79	"	"A/G"	"65,0/35,0"	"78/42"	120
stress_12bis	"POPTR_0003s05110.1"	375	"	"C/T"	"60,3/39,7"	"276/182"	458	stress_42	"POPTR_0003s05110.1"	375	"	"C/T"	"64,4/35,6"	"112/62"	174
stress_12bis	"POPTR_0003s05110.1"	375	"	"C/T"	"60,3/39,7"	"276/182"	458	stress_45	"POPTR_0003s05110.1"	375	"	"C/T"	"61,2/38,8"	"93/59"	152
stress_12bis	"POPTR_0014s11210.1"	948	"	"T/A"	"73,5/26,5"	"277/100"	377	stress_42	"POPTR_0014s11210.1"	948	"	"T/A"	"65,8/33,7"	"127/65"	193
stress_12bis	"POPTR_0014s11210.1"	948	"	"T/A"	"73,5/26,5"	"277/100"	377	stress_45	"POPTR_0014s11210.1"	948	"	"T/A"	"67,0/33,0"	"138/68"	206
stress_12bis	"POPTR_0019s09140.1"	591	"	"C/T"	"52,6/47,4"	"278/251"	529	stress_42	"POPTR_0019s09140.1"	591	"	"C/T"	"57,3/42,7"	"102/76"	178
stress_12bis	"POPTR_0019s09140.1"	591	"	"C/T"	"52,6/47,4"	"278/251"	529	stress_45	"POPTR_0019s09140.1"	591	"	"C/T"	"55,9/44,1"	"113/89"	202
stress_12bis	"POPTR_0018s02230.1"	93	"	"C/T"	"71,8/28,2"	"28/11"	39	stress_45	"POPTR_0018s02230.1"	93	"	"C/T"	"60,0/40,0"	"63/42"	105
stress_12bis	"POPTR_0005s26610.1"	1236	"	"C/T"	"70,0/30,0"	"28/12"	40	stress_42	"POPTR_0005s26610.1"	1236	"	"T/C"	"50,8/49,2"	"64/62"	126
stress_12bis	"POPTR_0005s26220.1"	24	"	"A/G"	"68,3/31,7"	"28/13"	41	stress_42	"POPTR_0005s26220.1"	24	"	"A/G"	"67,0/33,0"	"73/36"	109
stress_12bis	"POPTR_0005s26220.1"	24	"	"A/G"	"68,3/31,7"	"28/13"	41	stress_45	"POPTR_0005s26220.1"	24	"	"A/G"	"73,5/26,5"	"83/30"	113
stress_12bis	"POPTR_0013s03320.1"	584	"	"G/A"	"66,7/33,3"	"28/14"	42	stress_42	"POPTR_0013s03320.1"	584	"	"G/A"	"81,2/18,8"	"91/21"	112
stress_12bis	"POPTR_0009s12420.1"	780	"	"T/A"	"65,1/34,9"	"28/15"	43	stress_42	"POPTR_0009s12420.1"	780	"	"T/A"	"62,8/37,2"	"137/81"	218
stress_12bis	"POPTR_0009s12420.1"	780	"	"T/A"	"65,1/34,9"	"28/15"	43	stress_45	"POPTR_0009s12420.1"	780	"	"T/A"	"64,9/35,1"	"144/78"	222
stress_12bis	"POPTR_0006s28990.1"	1671	"	"T/C"	"59,6/40,4"	"28/19"	47	stress_45	"POPTR_0006s28990.1"	1671	"	"T/C"	"50,8/49,2"	"63/61"	124
stress_12bis	"POPTR_0013s07050.1"	1155	"	"G/A"	"59,6/40,4"	"28/19"	47	stress_45	"POPTR_0013s07050.1"	1155	"	"G/A"	"60,5/39,5"	"72/47"	119
stress_12bis	"POPTR_0010s19860.1"	738	"	"T/C"	"59,6/40,4"	"28/19"	47	stress_42	"POPTR_0010s19860.1"	738	"	"C/T"	"55,6/44,4"	"60/48"	108
stress_12bis	"POPTR_0010s19860.1"	738	"	"T/C"	"59,6/40,4"	"28/19"	47	stress_45	"POPTR_0010s19860.1"	738	"	"C/T"	"56,5/43,5"	"83/64"	147
stress_12bis	"POPTR_0006s23580.1"	204	"	"T/C"	"56,0/44,0"	"28/22"	50	stress_45	"POPTR_0006s23580.1"	204	"	"C/T"	"63,2/36,8"	"72/42"	114
stress_12bis	"POPTR_0010s19860.1"	294	"	"T/C"	"56,0/44,0"	"28/22"	50	stress_45	"POPTR_0010s19860.1"	294	"	"C/T"	"50,0/50,0"	"55/55"	110
stress_12bis	"POPTR_0014s02550.1"	1611	"	"C/T"	"52,8/47,2"	"28/25"	53	stress_45	"POPTR_0014s02550.1"	1611	"	"C/T"	"52,7/47,3"	"58/52"	110
stress_12bis	"POPTR_0014s11040.1"	63	"	"T/C"	"52,8/47,2"	"28/25"	53	stress_45	"POPTR_0014s11040.1"	63	"	"C/T"	"52,1/47,9"	"61/56"	117
stress_12bis	"POPTR_0007s08400.1"	1827	"	"A/C"	"52,8/47,2"	"28/25"	53	stress_45	"POPTR_0007s08400.1"	1827	"	"C/A"	"56,1/43,9"	"92/72"	164
stress_12bis	"POPTR_0002s06680.1"	900	"	"T/C"	"51,9/48,1"	"28/26"	54	stress_45	"POPTR_0002s06680.1"	900	"	"T/C"	"55,5/43,7"	"66/52"	119
stress_12bis	"POPTR_0008s09150.1"	144	"	"C/T"	"51,9/48,1"	"28/26"	54	stress_42	"POPTR_0008s09150.1"	144	"	"T/C"	"52,1/47,9"	"85/78"	163
stress_12bis	"POPTR_0008s09150.1"	144	"	"C/T"	"51,9/48,1"	"28/26"	54	stress_45	"POPTR_0008s09150.1"	144	"	"T/C"	"53,2/46,8"	"123/108"	231
stress_12bis	"POPTR_0001s37480.1"	694	"	"T/C"	"50,9/49,1"	"28/27"	55	stress_45	"POPTR_0001s37480.1"	694	"	"C/T"	"62,6/37,4"	"72/43"	115
stress_12bis	"POPTR_0001s14280.1"	975	"	"C/T"	"50,0/50,0"	"28/28"	56	stress_42	"POPTR_0001s14280.1"	975	"	"C/T"	"52,7/47,3"	"89/80"	169
stress_12bis	"POPTR_0001s14280.1"	975	"	"C/T"	"50,0/50,0"	"28/28"	56	stress_45	"POPTR_0001s14280.1"	975	"	"C/T"	"54,2/45,8"	"129/109"	238
stress_12bis	"POPTR_0007s12070.1"	673	"	"G/A"	"60,0/40,0"	"281/187"	468	stress_42	"POPTR_0007s12070.1"	673	"	"A/G"	"50,0/50,0"	"47/47"	94
stress_12bis	"POPTR_0007s12070.1"	673	"	"G/A"	"60,0/40,0"	"281/187"	468	stress_45	"POPTR_0007s12070.1"	673	"	"A/G"	"56,7/43,3"	"51/39"	90
stress_12bis	"POPTR_0008s15770.1"	122	"	"G/C"	"51,4/48,6"	"281/266"	547	stress_42	"POPTR_0008s15770.1"	122	"	"G/C"	"80,0/19,8"	"336/83"	420
stress_12bis	"POPTR_0008s15770.1"	122	"	"G/C"	"51,4/48,6"	"281/266"	547	stress_45	"POPTR_0008s15770.1"	122	"	"G/C"	"68,1/31,9"	"358/168"	526
stress_12bis	"POPTR_0004s09910.1"	351	"	"A/C"	"79,3/20,5"	"2813/729"	3548	stress_42	"POPTR_0004s09910.1"	351	"	"A/C"	"57,8/42,2"	"356/260"	616
stress_12bis	"POPTR_0004s09910.1"	351	"	"A/C"	"79,3/20,5"	"2813/729"	3548	stress_45	"POPTR_0004s09910.1"	351	"	"A/C"	"69,8/30,2"	"437/189"	626
stress_12bis	"POPTR_0014s17070.1"	585	"	"A/G"	"52,5/47,5"	"282/255"	537	stress_42	"POPTR_0014s17070.1"	585	"	"A/G"	"55,7/44,3"	"103/82"	185
stress_12bis	"POPTR_0014s17070.1"	585	"	"A/G"	"52,5/47,5"	"282/255"	537	stress_45	"POPTR_0014s17070.1"	585	"	"A/G"	"56,7/43,3"	"97/74"	171
stress_12bis	"POPTR_0004s08380.1"	708	"	"C/T"	"53,6/46,4"	"283/245"	528	stress_42	"POPTR_0004s08380.1"	708	"	"C/T"	"53,8/46,2"	"35/30"	65
stress_12bis	"POPTR_0004s08380.1"	708	"	"C/T"	"53,6/46,4"	"283/245"	528	stress_45	"POPTR_0004s08380.1"	708	"	"C/T"	"50,6/49,4"	"44/43"	87
stress_12bis	"POPTR_0007s12070.1"	687	"	"T/A"	"60,3/39,7"	"284/187"	471	stress_42	"POPTR_0007s12070.1"	687	"	"T/A"	"53,9/46,1"	"55/47"	102
stress_12bis	"POPTR_0007s12070.1"	687	"	"T/A"	"60,3/39,7"	"284/187"	471	stress_45	"POPTR_0007s12070.1"	687	"	"A/T"	"50,0/50,0"	"50/50"	100
stress_12bis	"POPTR_0001s13100.1"	240	"	"T/G"	"59,2/40,8"	"284/196"	480	stress_42	"POPTR_0001s13100.1"	240	"	"G/T"	"65,8/34,2"	"48/25"	73
stress_12bis	"POPTR_0001s13100.1"	240	"	"T/G"	"59,2/40,8"	"284/196"	480	stress_45	"POPTR_0001s13100.1"	240	"	"G/T"	"53,6/46,4"	"30/26"	56
stress_12bis	"POPTR_0006s23580.1"	464	"	"T/C"	"69,0/31,0"	"29/13"	42	stress_45	"POPTR_0006s23580.1"	464	"	"T/C"	"58,7/41,3"	"74/52"	126
stress_12bis	"POPTR_0002s05840.1"	582	"	"T/C"	"59,2/40,8"	"29/20"	49	stress_42	"POPTR_0002s05840.1"	582	"	"T/C"	"62,9/36,2"	"66/38"	105
stress_12bis	"POPTR_0002s05840.1"	582	"	"T/C"	"59,2/40,8"	"29/20"	49	stress_45	"POPTR_0002s05840.1"	582	"	"T/C"	"67,7/31,6"	"107/50"	158
stress_12bis	"POPTR_0014s01970.1"	922	"	"T/A"	"58,0/42,0"	"29/21"	50	stress_45	"POPTR_0014s01970.1"	922	"	"A/T"	"53,3/46,7"	"65/57"	122
stress_12bis	"POPTR_0010s07340.1"	1141	"	"C/T"	"58,0/42,0"	"29/21"	50	stress_42	"POPTR_0010s07340.1"	1141	"	"C/T"	"60,5/39,5"	"75/49"	124
stress_12bis	"POPTR_0010s07340.1"	1141	"	"C/T"	"58,0/42,0"	"29/21"	50	stress_45	"POPTR_0010s07340.1"	1141	"	"T/C"	"52,4/47,6"	"66/60"	126
stress_12bis	"POPTR_0004s23490.1"	1023	"	"C/T"	"55,8/44,2"	"29/23"	52	stress_45	"POPTR_0004s23490.1"	1023	"	"T/C"	"60,2/38,0"	"65/41"	108
stress_12bis	"POPTR_0012s09570.1"	126	"	"C/T"	"54,7/45,3"	"29/24"	53	stress_45	"POPTR_0012s09570.1"	126	"	"T/C"	"50,5/49,5"	"52/51"	103
stress_12bis	"POPTR_0001s32770.1"	852	"	"T/C"	"52,7/47,3"	"29/26"	55	stress_45	"POPTR_0001s32770.1"	852	"	"C/T"	"50,4/49,6"	"63/62"	125
stress_12bis	"POPTR_0003s13880.1"	167	"	"G/A"	"50,9/49,1"	"29/28"	57	stress_42	"POPTR_0003s13880.1"	167	"	"G/A"	"61,1/38,9"	"121/77"	198
stress_12bis	"POPTR_0003s13880.1"	167	"	"G/A"	"50,9/49,1"	"29/28"	57	stress_45	"POPTR_0003s13880.1"	167	"	"G/A"	"60,4/39,6"	"154/101"	255
stress_12bis	"POPTR_0006s27170.1"	469	"	"C/T"	"67,7/32,3"	"291/139"	430	stress_42	"POPTR_0006s27170.1"	469	"	"C/T"	"80,6/19,4"	"50/12"	62
stress_12bis	"POPTR_0006s27170.1"	469	"	"C/T"	"67,7/32,3"	"291/139"	430	stress_45	"POPTR_0006s27170.1"	469	"	"C/T"	"71,4/27,3"	"55/21"	77
stress_12bis	"POPTR_0017s06920.1"	1509	"	"C/T"	"66,1/33,9"	"291/149"	440	stress_42	"POPTR_0017s06920.1"	1509	"	"C/T"	"62,5/37,5"	"15/9"	24
stress_12bis	"POPTR_0017s06920.1"	1509	"	"C/T"	"66,1/33,9"	"291/149"	440	stress_45	"POPTR_0017s06920.1"	1509	"	"C/T"	"66,7/33,3"	"8/4"	12
stress_12bis	"POPTR_0014s17070.1"	723	"	"T/C"	"51,8/48,2"	"291/271"	562	stress_42	"POPTR_0014s17070.1"	723	"	"T/C"	"53,4/46,6"	"109/95"	204
stress_12bis	"POPTR_0014s17070.1"	723	"	"T/C"	"51,8/48,2"	"291/271"	562	stress_45	"POPTR_0014s17070.1"	723	"	"C/T"	"50,2/49,8"	"108/107"	215
stress_12bis	"POPTR_0006s13310.1"	672	"	"T/C"	"65,3/34,7"	"293/156"	449	stress_42	"POPTR_0006s13310.1"	672	"	"T/C"	"61,1/38,9"	"176/112"	288
stress_12bis	"POPTR_0006s13310.1"	672	"	"T/C"	"65,3/34,7"	"293/156"	449	stress_45	"POPTR_0006s13310.1"	672	"	"T/C"	"57,7/42,1"	"285/208"	494
stress_12bis	"POPTR_0008s06720.1"	630	"	"T/A"	"59,8/40,2"	"293/197"	490	stress_42	"POPTR_0008s06720.1"	630	"	"A/T"	"50,9/49,1"	"87/84"	171
stress_12bis	"POPTR_0008s06720.1"	630	"	"T/A"	"59,8/40,2"	"293/197"	490	stress_45	"POPTR_0008s06720.1"	630	"	"A/T"	"64,1/35,9"	"91/51"	142
stress_12bis	"POPTR_0004s18190.1"	903	"	"C/T"	"53,7/46,2"	"293/252"	546	stress_42	"POPTR_0004s18190.1"	903	"	"C/T"	"59,4/40,6"	"79/54"	133
stress_12bis	"POPTR_0004s18190.1"	903	"	"C/T"	"53,7/46,2"	"293/252"	546	stress_45	"POPTR_0004s18190.1"	903	"	"C/T"	"56,6/43,4"	"73/56"	129
stress_12bis	"POPTR_0014s17070.1"	255	"	"C/T"	"53,3/46,4"	"293/255"	550	stress_42	"POPTR_0014s17070.1"	255	"	"C/T"	"55,7/44,3"	"93/74"	167
stress_12bis	"POPTR_0014s17070.1"	255	"	"C/T"	"53,3/46,4"	"293/255"	550	stress_45	"POPTR_0014s17070.1"	255	"	"C/T"	"56,7/43,3"	"114/87"	201
stress_12bis	"POPTR_0010s08290.1"	378	"	"A/T"	"77,8/21,9"	"298/84"	383	stress_42	"POPTR_0010s08290.1"	378	"	"A/T"	"74,9/25,0"	"1821/607"	2430
stress_12bis	"POPTR_0010s08290.1"	378	"	"A/T"	"77,8/21,9"	"298/84"	383	stress_45	"POPTR_0010s08290.1"	378	"	"A/T"	"74,8/25,1"	"1824/612"	2437
stress_12bis	"POPTR_0008s15100.1"	210	"	"A/G"	"54,3/45,7"	"299/252"	551	stress_42	"POPTR_0008s15100.1"	210	"	"A/G"	"54,5/45,0"	"109/90"	200
stress_12bis	"POPTR_0008s15100.1"	210	"	"A/G"	"54,3/45,7"	"299/252"	551	stress_45	"POPTR_0008s15100.1"	210	"	"A/G"	"56,2/43,8"	"141/110"	251
stress_12bis	"POPTR_0019s09140.1"	369	"	"C/T"	"52,5/47,5"	"299/271"	570	stress_42	"POPTR_0019s09140.1"	369	"	"C/T"	"50,6/49,4"	"87/85"	172
stress_12bis	"POPTR_0019s09140.1"	369	"	"C/T"	"52,5/47,5"	"299/271"	570	stress_45	"POPTR_0019s09140.1"	369	"	"C/T"	"51,6/48,4"	"97/91"	188
stress_12bis	"POPTR_0009s06690.1"	232	"	"T/G"	"68,2/31,8"	"30/14"	44	stress_45	"POPTR_0009s06690.1"	232	"	"T/G"	"54,4/45,6"	"68/57"	125
stress_12bis	"POPTR_0014s01970.1"	837	"	"A/G"	"66,7/33,3"	"30/15"	45	stress_42	"POPTR_0014s01970.1"	837	"	"A/G"	"53,8/46,2"	"63/54"	117
stress_12bis	"POPTR_0014s01970.1"	837	"	"A/G"	"66,7/33,3"	"30/15"	45	stress_45	"POPTR_0014s01970.1"	837	"	"A/G"	"56,6/43,4"	"69/53"	122
stress_12bis	"POPTR_0018s02230.1"	389	"	"A/C"	"62,5/37,5"	"30/18"	48	stress_42	"POPTR_0018s02230.1"	389	"	"A/C"	"71,2/28,8"	"74/30"	104
stress_12bis	"POPTR_0018s02230.1"	389	"	"A/C"	"62,5/37,5"	"30/18"	48	stress_45	"POPTR_0018s02230.1"	389	"	"A/C"	"70,1/29,9"	"82/35"	117
stress_12bis	"POPTR_0010s12680.1"	1530	"	"T/C"	"62,5/37,5"	"30/18"	48	stress_45	"POPTR_0010s12680.1"	1530	"	"T/C"	"80,1/19,9"	"109/27"	136
stress_12bis	"POPTR_0016s05530.1"	318	"	"C/T"	"62,5/37,5"	"30/18"	48	stress_45	"POPTR_0016s05530.1"	318	"	"C/T"	"54,9/45,1"	"89/73"	162
stress_12bis	"POPTR_0014s02550.1"	312	"	"A/C"	"53,6/46,4"	"30/26"	56	stress_45	"POPTR_0014s02550.1"	312	"	"A/C"	"53,2/45,9"	"58/50"	109
stress_12bis	"POPTR_0013s05790.1"	370	"	"T/G"	"50,8/45,8"	"30/27"	59	stress_42	"POPTR_0013s05790.1"	370	"	"T/G"	"56,0/43,1"	"65/50"	116
stress_12bis	"POPTR_0014s02550.1"	1461	"	"C/G"	"51,7/48,3"	"30/28"	58	stress_45	"POPTR_0014s02550.1"	1461	"	"G/C"	"52,7/47,3"	"78/70"	148
stress_12bis	"POPTR_0014s02550.1"	1911	"	"A/G"	"51,7/48,3"	"30/28"	58	stress_45	"POPTR_0014s02550.1"	1911	"	"A/G"	"54,8/45,2"	"57/47"	104
stress_12bis	"POPTR_0003s13880.1"	342	"	"G/A"	"50,8/49,2"	"30/29"	59	stress_42	"POPTR_0003s13880.1"	342	"	"A/G"	"59,5/40,5"	"100/68"	168
stress_12bis	"POPTR_0003s13880.1"	342	"	"G/A"	"50,8/49,2"	"30/29"	59	stress_45	"POPTR_0003s13880.1"	342	"	"A/G"	"53,3/46,7"	"130/114"	244
stress_12bis	"POPTR_0009s06690.1"	759	"	"C/T"	"50,8/49,2"	"30/29"	59	stress_45	"POPTR_0009s06690.1"	759	"	"T/C"	"59,9/40,1"	"103/69"	172
stress_12bis	"POPTR_0008s16670.1"	676	"	"G/A"	"50,8/49,2"	"30/29"	59	stress_42	"POPTR_0008s16670.1"	676	"	"G/A"	"55,0/45,0"	"61/50"	111
stress_12bis	"POPTR_0008s16670.1"	676	"	"G/A"	"50,8/49,2"	"30/29"	59	stress_45	"POPTR_0008s16670.1"	676	"	"G/A"	"55,3/44,7"	"83/67"	150
stress_12bis	"POPTR_0003s13880.1"	233	"	"C/T"	"50,0/50,0"	"30/30"	60	stress_42	"POPTR_0003s13880.1"	233	"	"C/T"	"63,9/36,1"	"108/61"	169
stress_12bis	"POPTR_0003s13880.1"	233	"	"C/T"	"50,0/50,0"	"30/30"	60	stress_45	"POPTR_0003s13880.1"	233	"	"C/T"	"56,0/44,0"	"121/95"	216
stress_12bis	"POPTR_0013s03320.1"	142	"	"C/A"	"81,1/18,9"	"30/7"	37	stress_45	"POPTR_0013s03320.1"	142	"	"C/A"	"69,3/28,1"	"79/32"	114
stress_12bis	"POPTR_0001s42970.1"	48	"	"G/C"	"64,0/36,0"	"300/169"	469	stress_42	"POPTR_0001s42970.1"	48	"	"G/C"	"63,1/36,9"	"53/31"	84
stress_12bis	"POPTR_0001s42970.1"	48	"	"G/C"	"64,0/36,0"	"300/169"	469	stress_45	"POPTR_0001s42970.1"	48	"	"G/C"	"52,2/47,8"	"36/33"	69
stress_12bis	"POPTR_0008s06720.1"	41	"	"G/C"	"63,0/37,0"	"302/177"	479	stress_42	"POPTR_0008s06720.1"	41	"	"C/G"	"54,7/45,3"	"52/43"	95
stress_12bis	"POPTR_0008s06720.1"	41	"	"G/C"	"63,0/37,0"	"302/177"	479	stress_45	"POPTR_0008s06720.1"	41	"	"C/G"	"64,4/35,6"	"76/42"	118
stress_12bis	"POPTR_0014s17070.1"	576	"	"C/T"	"50,8/49,1"	"302/292"	595	stress_42	"POPTR_0014s17070.1"	576	"	"C/T"	"54,0/46,0"	"107/91"	198
stress_12bis	"POPTR_0014s17070.1"	576	"	"C/T"	"50,8/49,1"	"302/292"	595	stress_45	"POPTR_0014s17070.1"	576	"	"C/T"	"57,6/42,4"	"118/87"	205
stress_12bis	"POPTR_0008s06720.1"	211	"	"T/A"	"60,1/39,9"	"303/201"	504	stress_42	"POPTR_0008s06720.1"	211	"	"A/T"	"61,5/38,5"	"75/47"	122
stress_12bis	"POPTR_0008s06720.1"	211	"	"T/A"	"60,1/39,9"	"303/201"	504	stress_45	"POPTR_0008s06720.1"	211	"	"A/T"	"66,9/33,1"	"89/44"	133
stress_12bis	"POPTR_0006s27170.1"	234	"	"A/G"	"58,4/41,6"	"303/216"	519	stress_42	"POPTR_0006s27170.1"	234	"	"A/G"	"77,9/22,1"	"60/17"	77
stress_12bis	"POPTR_0006s27170.1"	234	"	"A/G"	"58,4/41,6"	"303/216"	519	stress_45	"POPTR_0006s27170.1"	234	"	"A/G"	"80,0/20,0"	"88/22"	110
stress_12bis	"POPTR_0004s16920.1"	627	"	"T/C"	"50,7/49,3"	"304/296"	600	stress_42	"POPTR_0004s16920.1"	627	"	"C/T"	"51,6/48,4"	"32/30"	62
stress_12bis	"POPTR_0004s16920.1"	627	"	"T/C"	"50,7/49,3"	"304/296"	600	stress_45	"POPTR_0004s16920.1"	627	"	"C/T"	"70,8/29,2"	"46/19"	65
stress_12bis	"POPTR_0002s01080.1"	788	"	"C/A"	"57,8/42,2"	"305/223"	528	stress_42	"POPTR_0002s01080.1"	788	"	"C/A"	"52,0/48,0"	"116/107"	223
stress_12bis	"POPTR_0002s01080.1"	788	"	"C/A"	"57,8/42,2"	"305/223"	528	stress_45	"POPTR_0002s01080.1"	788	"	"C/A"	"60,4/39,6"	"165/108"	273
stress_12bis	"POPTR_0011s11390.1"	611	"	"G/C"	"53,5/46,5"	"306/266"	572	stress_42	"POPTR_0011s11390.1"	611	"	"C/G"	"69,0/31,0"	"80/36"	116
stress_12bis	"POPTR_0011s11390.1"	611	"	"G/C"	"53,5/46,5"	"306/266"	572	stress_45	"POPTR_0011s11390.1"	611	"	"C/G"	"71,2/28,8"	"89/36"	125
stress_12bis	"POPTR_0010s16860.1"	387	"	"G/T"	"74,3/25,4"	"307/105"	413	stress_42	"POPTR_0010s16860.1"	387	"	"G/T"	"77,2/22,8"	"44/13"	57
stress_12bis	"POPTR_0010s16860.1"	387	"	"G/T"	"74,3/25,4"	"307/105"	413	stress_45	"POPTR_0010s16860.1"	387	"	"G/T"	"73,5/26,5"	"25/9"	34
stress_12bis	"POPTR_0004s08380.1"	492	"	"A/C"	"53,1/46,4"	"307/268"	578	stress_42	"POPTR_0004s08380.1"	492	"	"C/A"	"59,4/40,6"	"41/28"	69
stress_12bis	"POPTR_0004s08380.1"	492	"	"A/C"	"53,1/46,4"	"307/268"	578	stress_45	"POPTR_0004s08380.1"	492	"	"C/A"	"58,1/41,9"	"36/26"	62
stress_12bis	"POPTR_0006s13310.1"	822	"	"C/T"	"66,0/33,4"	"308/156"	467	stress_42	"POPTR_0006s13310.1"	822	"	"C/T"	"63,3/36,7"	"178/103"	281
stress_12bis	"POPTR_0006s13310.1"	822	"	"C/T"	"66,0/33,4"	"308/156"	467	stress_45	"POPTR_0006s13310.1"	822	"	"C/T"	"59,3/39,7"	"294/197"	496
stress_12bis	"POPTR_0002s22600.1"	882	"	"A/G"	"59,6/40,4"	"308/209"	517	stress_42	"POPTR_0002s22600.1"	882	"	"A/G"	"54,9/45,1"	"90/74"	164
stress_12bis	"POPTR_0002s22600.1"	882	"	"A/G"	"59,6/40,4"	"308/209"	517	stress_45	"POPTR_0002s22600.1"	882	"	"A/G"	"56,8/43,2"	"117/89"	206
stress_12bis	"POPTR_0002s01080.1"	588	"	"G/A"	"50,2/49,6"	"308/304"	613	stress_42	"POPTR_0002s01080.1"	588	"	"G/A"	"56,8/43,2"	"134/102"	236
stress_12bis	"POPTR_0002s01080.1"	588	"	"G/A"	"50,2/49,6"	"308/304"	613	stress_45	"POPTR_0002s01080.1"	588	"	"G/A"	"54,9/45,1"	"173/142"	315
stress_12bis	"POPTR_0010s19860.1"	60	"	"C/A"	"66,0/34,0"	"31/16"	47	stress_45	"POPTR_0010s19860.1"	60	"	"C/A"	"51,5/47,8"	"70/65"	136
stress_12bis	"POPTR_0006s28990.1"	2263	"	"A/G"	"64,6/35,4"	"31/17"	48	stress_42	"POPTR_0006s28990.1"	2263	"	"G/A"	"51,7/48,3"	"75/70"	145
stress_12bis	"POPTR_0006s28990.1"	2263	"	"A/G"	"64,6/35,4"	"31/17"	48	stress_45	"POPTR_0006s28990.1"	2263	"	"A/G"	"54,7/45,3"	"88/73"	161
stress_12bis	"POPTR_0008s16670.1"	219	"	"C/T"	"64,6/35,4"	"31/17"	48	stress_45	"POPTR_0008s16670.1"	219	"	"T/C"	"56,5/43,5"	"65/50"	115
stress_12bis	"POPTR_0010s10140.1"	282	"	"C/T"	"63,3/36,7"	"31/18"	49	stress_45	"POPTR_0010s10140.1"	282	"	"C/T"	"56,4/43,6"	"62/48"	110
stress_12bis	"POPTR_0013s15560.1"	192	"	"C/T"	"62,0/38,0"	"31/19"	50	stress_42	"POPTR_0013s15560.1"	192	"	"T/C"	"54,5/45,5"	"91/76"	167
stress_12bis	"POPTR_0013s15560.1"	192	"	"C/T"	"62,0/38,0"	"31/19"	50	stress_45	"POPTR_0013s15560.1"	192	"	"T/C"	"57,4/42,6"	"105/78"	183
stress_12bis	"POPTR_0013s15560.1"	207	"	"A/T"	"60,8/39,2"	"31/20"	51	stress_42	"POPTR_0013s15560.1"	207	"	"A/T"	"51,7/48,3"	"78/73"	151
stress_12bis	"POPTR_0013s15560.1"	207	"	"A/T"	"60,8/39,2"	"31/20"	51	stress_45	"POPTR_0013s15560.1"	207	"	"T/A"	"54,7/45,3"	"98/81"	179
stress_12bis	"POPTR_0001s30310.1"	84	"	"C/T"	"56,4/43,6"	"31/24"	55	stress_45	"POPTR_0001s30310.1"	84	"	"T/C"	"58,1/41,9"	"61/44"	105
stress_12bis	"POPTR_0012s09570.1"	717	"	"T/C"	"54,4/45,6"	"31/26"	57	stress_45	"POPTR_0012s09570.1"	717	"	"T/C"	"50,9/48,5"	"85/81"	167
stress_12bis	"POPTR_0011s05250.1"	1146	"	"G/A"	"54,4/45,6"	"31/26"	57	stress_45	"POPTR_0011s05250.1"	1146	"	"A/G"	"56,6/42,8"	"94/71"	166
stress_12bis	"POPTR_0001s37480.1"	585	"	"C/T"	"52,5/47,5"	"31/28"	59	stress_45	"POPTR_0001s37480.1"	585	"	"C/T"	"66,9/33,1"	"97/48"	145
stress_12bis	"POPTR_0009s11920.1"	126	"	"T/G"	"51,7/48,3"	"31/29"	60	stress_45	"POPTR_0009s11920.1"	126	"	"G/T"	"53,1/46,9"	"95/84"	179
stress_12bis	"POPTR_0003s13880.1"	225	"	"A/C"	"50,8/49,2"	"31/30"	61	stress_42	"POPTR_0003s13880.1"	225	"	"C/A"	"63,8/36,2"	"111/63"	174
stress_12bis	"POPTR_0003s13880.1"	225	"	"A/C"	"50,8/49,2"	"31/30"	61	stress_45	"POPTR_0003s13880.1"	225	"	"C/A"	"57,0/43,0"	"122/92"	214
stress_12bis	"POPTR_0010s11780.1"	703	"	"C/G"	"79,5/20,5"	"31/8"	39	stress_45	"POPTR_0010s11780.1"	703	"	"C/G"	"54,4/45,6"	"62/52"	114
stress_12bis	"POPTR_0013s03320.1"	134	"	"G/A"	"77,5/22,5"	"31/9"	40	stress_45	"POPTR_0013s03320.1"	134	"	"G/A"	"66,4/33,6"	"87/44"	131
stress_12bis	"POPTR_0004s08500.1"	153	"	"C/T"	"54,3/45,7"	"310/261"	571	stress_42	"POPTR_0004s08500.1"	153	"	"T/C"	"58,5/41,4"	"566/400"	967
stress_12bis	"POPTR_0004s08500.1"	153	"	"C/T"	"54,3/45,7"	"310/261"	571	stress_45	"POPTR_0004s08500.1"	153	"	"T/C"	"55,6/44,3"	"596/475"	1072
stress_12bis	"POPTR_0002s08410.1"	447	"	"C/T"	"51,0/49,0"	"311/299"	610	stress_42	"POPTR_0002s08410.1"	447	"	"C/T"	"59,8/40,2"	"119/80"	199
stress_12bis	"POPTR_0002s08410.1"	447	"	"C/T"	"51,0/49,0"	"311/299"	610	stress_45	"POPTR_0002s08410.1"	447	"	"C/T"	"54,7/45,0"	"163/134"	298
stress_12bis	"POPTR_0019s09140.1"	345	"	"A/C"	"51,2/48,8"	"312/297"	609	stress_42	"POPTR_0019s09140.1"	345	"	"C/A"	"54,7/45,3"	"94/78"	172
stress_12bis	"POPTR_0019s09140.1"	345	"	"A/C"	"51,2/48,8"	"312/297"	609	stress_45	"POPTR_0019s09140.1"	345	"	"C/A"	"55,5/44,5"	"116/93"	209
stress_12bis	"POPTR_0014s17400.1"	582	"	"T/C"	"60,3/39,7"	"316/208"	524	stress_42	"POPTR_0014s17400.1"	582	"	"T/C"	"58,9/41,1"	"123/86"	209
stress_12bis	"POPTR_0014s17400.1"	582	"	"T/C"	"60,3/39,7"	"316/208"	524	stress_45	"POPTR_0014s17400.1"	582	"	"T/C"	"61,5/38,5"	"160/100"	260
stress_12bis	"POPTR_0011s11390.1"	969	"	"G/T"	"61,0/39,0"	"317/203"	520	stress_42	"POPTR_0011s11390.1"	969	"	"T/G"	"56,0/44,0"	"79/62"	141
stress_12bis	"POPTR_0011s11390.1"	969	"	"G/T"	"61,0/39,0"	"317/203"	520	stress_45	"POPTR_0011s11390.1"	969	"	"T/G"	"51,6/48,4"	"66/62"	128
stress_12bis	"POPTR_0014s17070.1"	240	"	"T/C"	"53,5/46,5"	"317/276"	593	stress_42	"POPTR_0014s17070.1"	240	"	"T/C"	"51,4/48,6"	"91/86"	177
stress_12bis	"POPTR_0014s17070.1"	240	"	"T/C"	"53,5/46,5"	"317/276"	593	stress_45	"POPTR_0014s17070.1"	240	"	"T/C"	"54,6/45,4"	"118/98"	216
stress_12bis	"POPTR_0004s08380.1"	642	"	"G/A"	"53,3/46,6"	"318/278"	597	stress_42	"POPTR_0004s08380.1"	642	"	"G/A"	"51,2/48,8"	"43/41"	84
stress_12bis	"POPTR_0004s08380.1"	642	"	"G/A"	"53,3/46,6"	"318/278"	597	stress_45	"POPTR_0004s08380.1"	642	"	"A/G"	"54,7/45,3"	"52/43"	95
stress_12bis	"POPTR_0002s01080.1"	357	"	"G/A"	"56,0/44,0"	"319/251"	570	stress_42	"POPTR_0002s01080.1"	357	"	"A/G"	"50,9/49,1"	"88/85"	173
stress_12bis	"POPTR_0002s01080.1"	357	"	"G/A"	"56,0/44,0"	"319/251"	570	stress_45	"POPTR_0002s01080.1"	357	"	"A/G"	"51,3/48,7"	"157/149"	306
stress_12bis	"POPTR_0015s14510.1"	87	"	"C/T"	"72,7/27,3"	"32/12"	44	stress_45	"POPTR_0015s14510.1"	87	"	"C/T"	"52,9/47,1"	"54/48"	102
stress_12bis	"POPTR_0003s13880.1"	476	"	"T/G"	"61,5/38,5"	"32/20"	52	stress_42	"POPTR_0003s13880.1"	476	"	"T/G"	"57,1/42,9"	"100/75"	175
stress_12bis	"POPTR_0003s13880.1"	476	"	"T/G"	"61,5/38,5"	"32/20"	52	stress_45	"POPTR_0003s13880.1"	476	"	"T/G"	"54,0/46,0"	"108/92"	200
stress_12bis	"POPTR_0010s19860.1"	405	"	"A/C"	"57,1/41,1"	"32/23"	56	stress_45	"POPTR_0010s19860.1"	405	"	"A/C"	"56,3/43,7"	"80/62"	142
stress_12bis	"POPTR_0009s06690.1"	418	"	"G/A"	"56,1/43,9"	"32/25"	57	stress_45	"POPTR_0009s06690.1"	418	"	"G/A"	"59,3/40,7"	"99/68"	167
stress_12bis	"POPTR_0009s06690.1"	420	"	"G/T"	"56,1/43,9"	"32/25"	57	stress_45	"POPTR_0009s06690.1"	420	"	"G/T"	"58,8/41,2"	"100/70"	170
stress_12bis	"POPTR_0011s05250.1"	1350	"	"G/A"	"52,5/47,5"	"32/29"	61	stress_45	"POPTR_0011s05250.1"	1350	"	"G/A"	"61,4/38,6"	"94/59"	153
stress_12bis	"POPTR_0005s27390.1"	237	"	"A/G"	"50,0/50,0"	"32/32"	64	stress_45	"POPTR_0005s27390.1"	237	"	"A/G"	"52,3/47,7"	"68/62"	130
stress_12bis	"POPTR_0001s12630.1"	222	"	"C/T"	"50,0/50,0"	"32/32"	64	stress_42	"POPTR_0001s12630.1"	222	"	"C/T"	"55,9/44,1"	"66/52"	118
stress_12bis	"POPTR_0001s12630.1"	222	"	"C/T"	"50,0/50,0"	"32/32"	64	stress_45	"POPTR_0001s12630.1"	222	"	"T/C"	"53,8/45,5"	"71/60"	132
stress_12bis	"POPTR_0001s13100.1"	253	"	"A/G"	"61,3/38,5"	"325/204"	530	stress_42	"POPTR_0001s13100.1"	253	"	"G/A"	"60,3/38,5"	"47/30"	78
stress_12bis	"POPTR_0001s13100.1"	253	"	"A/G"	"61,3/38,5"	"325/204"	530	stress_45	"POPTR_0001s13100.1"	253	"	"G/A"	"58,9/41,1"	"33/23"	56
stress_12bis	"POPTR_0002s08410.1"	705	"	"A/G"	"49,8/49,8"	"326/326"	654	stress_42	"POPTR_0002s08410.1"	705	"	"G/A"	"61,6/38,0"	"151/93"	245
stress_12bis	"POPTR_0002s08410.1"	705	"	"A/G"	"49,8/49,8"	"326/326"	654	stress_45	"POPTR_0002s08410.1"	705	"	"G/A"	"50,7/49,3"	"138/134"	272
stress_12bis	"POPTR_0006s27170.1"	476	"	"A/C"	"69,9/30,1"	"328/141"	469	stress_42	"POPTR_0006s27170.1"	476	"	"A/C"	"81,2/18,8"	"52/12"	64
stress_12bis	"POPTR_0006s27170.1"	476	"	"A/C"	"69,9/30,1"	"328/141"	469	stress_45	"POPTR_0006s27170.1"	476	"	"A/C"	"76,1/23,9"	"67/21"	88
stress_12bis	"POPTR_0010s11780.1"	495	"	"G/A"	"70,2/29,8"	"33/14"	47	stress_45	"POPTR_0010s11780.1"	495	"	"G/A"	"58,4/41,6"	"73/52"	125
stress_12bis	"POPTR_0002s05840.1"	405	"	"C/T"	"67,3/32,7"	"33/16"	49	stress_42	"POPTR_0002s05840.1"	405	"	"C/T"	"62,3/37,7"	"71/43"	114
stress_12bis	"POPTR_0002s05840.1"	405	"	"C/T"	"67,3/32,7"	"33/16"	49	stress_45	"POPTR_0002s05840.1"	405	"	"C/T"	"61,1/38,9"	"66/42"	108
stress_12bis	"POPTR_0019s15250.1"	87	"	"A/T"	"66,0/34,0"	"33/17"	50	stress_45	"POPTR_0019s15250.1"	87	"	"A/T"	"78,2/21,8"	"97/27"	124
stress_12bis	"POPTR_0010s12680.1"	1536	"	"G/A"	"66,0/34,0"	"33/17"	50	stress_45	"POPTR_0010s12680.1"	1536	"	"G/A"	"58,2/41,8"	"78/56"	134
stress_12bis	"POPTR_0002s21340.1"	980	"	"C/T"	"61,1/38,9"	"33/21"	54	stress_45	"POPTR_0002s21340.1"	980	"	"C/T"	"54,2/45,8"	"64/54"	118
stress_12bis	"POPTR_0001s14280.1"	306	"	"A/G"	"60,0/40,0"	"33/22"	55	stress_42	"POPTR_0001s14280.1"	306	"	"A/G"	"59,1/40,9"	"91/63"	154
stress_12bis	"POPTR_0001s14280.1"	306	"	"A/G"	"60,0/40,0"	"33/22"	55	stress_45	"POPTR_0001s14280.1"	306	"	"A/G"	"53,5/46,5"	"115/100"	215
stress_12bis	"POPTR_0014s02550.1"	1530	"	"C/T"	"58,9/41,1"	"33/23"	56	stress_45	"POPTR_0014s02550.1"	1530	"	"C/T"	"58,8/41,2"	"70/49"	119
stress_12bis	"POPTR_0007s13110.1"	219	"	"C/T"	"56,9/43,1"	"33/25"	58	stress_45	"POPTR_0007s13110.1"	219	"	"T/C"	"51,8/48,2"	"59/55"	114
stress_12bis	"POPTR_0003s13880.1"	496	"	"T/C"	"55,0/45,0"	"33/27"	60	stress_42	"POPTR_0003s13880.1"	496	"	"T/C"	"54,5/45,5"	"78/65"	143
stress_12bis	"POPTR_0003s13880.1"	496	"	"T/C"	"55,0/45,0"	"33/27"	60	stress_45	"POPTR_0003s13880.1"	496	"	"T/C"	"50,3/49,7"	"74/73"	147
stress_12bis	"POPTR_0004s23490.1"	1128	"	"T/C"	"54,1/45,9"	"33/28"	61	stress_45	"POPTR_0004s23490.1"	1128	"	"C/T"	"50,4/49,6"	"57/56"	113
stress_12bis	"POPTR_0009s06690.1"	834	"	"G/A"	"52,4/47,6"	"33/30"	63	stress_42	"POPTR_0009s06690.1"	834	"	"A/G"	"60,0/40,0"	"78/52"	130
stress_12bis	"POPTR_0009s06690.1"	834	"	"G/A"	"52,4/47,6"	"33/30"	63	stress_45	"POPTR_0009s06690.1"	834	"	"G/A"	"54,7/45,3"	"122/101"	223
stress_12bis	"POPTR_0009s06690.1"	903	"	"A/C"	"50,0/50,0"	"33/33"	66	stress_42	"POPTR_0009s06690.1"	903	"	"A/C"	"55,8/44,2"	"67/53"	120
stress_12bis	"POPTR_0009s06690.1"	903	"	"A/C"	"50,0/50,0"	"33/33"	66	stress_45	"POPTR_0009s06690.1"	903	"	"A/C"	"56,7/43,3"	"119/91"	210
stress_12bis	"POPTR_0014s17400.1"	405	"	"C/T"	"57,5/42,3"	"330/243"	574	stress_42	"POPTR_0014s17400.1"	405	"	"C/T"	"63,2/36,8"	"156/91"	247
stress_12bis	"POPTR_0014s17400.1"	405	"	"C/T"	"57,5/42,3"	"330/243"	574	stress_45	"POPTR_0014s17400.1"	405	"	"C/T"	"56,7/43,3"	"164/125"	289
stress_12bis	"POPTR_0002s01080.1"	1428	"	"G/A"	"52,2/47,8"	"336/308"	644	stress_42	"POPTR_0002s01080.1"	1428	"	"G/A"	"50,6/49,4"	"178/174"	352
stress_12bis	"POPTR_0002s01080.1"	1428	"	"G/A"	"52,2/47,8"	"336/308"	644	stress_45	"POPTR_0002s01080.1"	1428	"	"A/G"	"50,7/49,3"	"184/179"	363
stress_12bis	"POPTR_0006s13310.1"	804	"	"T/C"	"65,7/34,3"	"337/176"	513	stress_42	"POPTR_0006s13310.1"	804	"	"T/C"	"58,9/40,4"	"178/122"	302
stress_12bis	"POPTR_0006s13310.1"	804	"	"T/C"	"65,7/34,3"	"337/176"	513	stress_45	"POPTR_0006s13310.1"	804	"	"T/C"	"54,3/45,5"	"321/269"	591
stress_12bis	"POPTR_0002s08410.1"	379	"	"T/C"	"51,8/48,1"	"338/314"	653	stress_42	"POPTR_0002s08410.1"	379	"	"T/C"	"52,4/47,6"	"97/88"	185
stress_12bis	"POPTR_0002s08410.1"	379	"	"T/C"	"51,8/48,1"	"338/314"	653	stress_45	"POPTR_0002s08410.1"	379	"	"T/C"	"50,4/49,6"	"123/121"	244
stress_12bis	"POPTR_0002s18500.1"	942	"	"T/A"	"72,3/27,7"	"34/13"	47	stress_42	"POPTR_0002s18500.1"	942	"	"T/A"	"62,4/37,1"	"138/82"	221
stress_12bis	"POPTR_0002s18500.1"	942	"	"T/A"	"72,3/27,7"	"34/13"	47	stress_45	"POPTR_0002s18500.1"	942	"	"T/A"	"59,0/41,0"	"124/86"	210
stress_12bis	"POPTR_0004s23490.1"	621	"	"G/A"	"70,8/29,2"	"34/14"	48	stress_45	"POPTR_0004s23490.1"	621	"	"G/A"	"51,9/48,1"	"55/51"	106
stress_12bis	"POPTR_0016s11670.1"	561	"	"C/T"	"69,4/30,6"	"34/15"	49	stress_42	"POPTR_0016s11670.1"	561	"	"C/T"	"68,9/30,2"	"73/32"	106
stress_12bis	"POPTR_0001s12960.1"	588	"	"T/C"	"68,0/32,0"	"34/16"	50	stress_42	"POPTR_0001s12960.1"	588	"	"T/C"	"52,0/48,0"	"53/49"	102
stress_12bis	"POPTR_0001s12960.1"	588	"	"T/C"	"68,0/32,0"	"34/16"	50	stress_45	"POPTR_0001s12960.1"	588	"	"T/C"	"60,3/39,7"	"82/54"	136
stress_12bis	"POPTR_0009s12420.1"	882	"	"G/T"	"66,7/33,3"	"34/17"	51	stress_42	"POPTR_0009s12420.1"	882	"	"G/T"	"69,2/30,5"	"227/100"	328
stress_12bis	"POPTR_0009s12420.1"	882	"	"G/T"	"66,7/33,3"	"34/17"	51	stress_45	"POPTR_0009s12420.1"	882	"	"G/T"	"66,2/33,4"	"210/106"	317
stress_12bis	"POPTR_0006s28990.1"	2259	"	"T/A"	"65,4/34,6"	"34/18"	52	stress_42	"POPTR_0006s28990.1"	2259	"	"T/A"	"50,7/49,3"	"74/72"	146
stress_12bis	"POPTR_0006s28990.1"	2259	"	"T/A"	"65,4/34,6"	"34/18"	52	stress_45	"POPTR_0006s28990.1"	2259	"	"T/A"	"56,1/43,9"	"87/68"	155
stress_12bis	"POPTR_0008s16670.1"	531	"	"C/T"	"65,4/34,6"	"34/18"	52	stress_45	"POPTR_0008s16670.1"	531	"	"C/T"	"62,5/37,5"	"85/51"	136
stress_12bis	"POPTR_0011s14150.1"	867	"	"T/G"	"60,7/39,3"	"34/22"	56	stress_45	"POPTR_0011s14150.1"	867	"	"G/T"	"51,9/48,1"	"54/50"	104
stress_12bis	"POPTR_0012s09570.1"	804	"	"C/T"	"57,6/42,4"	"34/25"	59	stress_42	"POPTR_0012s09570.1"	804	"	"T/C"	"53,8/46,2"	"57/49"	106
stress_12bis	"POPTR_0012s09570.1"	804	"	"C/T"	"57,6/42,4"	"34/25"	59	stress_45	"POPTR_0012s09570.1"	804	"	"C/T"	"51,1/48,9"	"95/91"	186
stress_12bis	"POPTR_0001s37480.1"	717	"	"T/C"	"57,6/42,4"	"34/25"	59	stress_45	"POPTR_0001s37480.1"	717	"	"T/C"	"67,8/32,2"	"101/48"	149
stress_12bis	"POPTR_0003s13880.1"	64	"	"T/C"	"56,7/43,3"	"34/26"	60	stress_42	"POPTR_0003s13880.1"	64	"	"C/T"	"61,3/38,7"	"92/58"	150
stress_12bis	"POPTR_0003s13880.1"	64	"	"T/C"	"56,7/43,3"	"34/26"	60	stress_45	"POPTR_0003s13880.1"	64	"	"T/C"	"51,5/48,5"	"103/97"	200
stress_12bis	"POPTR_0006s08980.1"	153	"	"A/C"	"54,8/45,2"	"34/28"	62	stress_45	"POPTR_0006s08980.1"	153	"	"A/C"	"66,0/34,0"	"70/36"	106
stress_12bis	"POPTR_0002s21340.1"	1083	"	"C/T"	"54,8/45,2"	"34/28"	62	stress_45	"POPTR_0002s21340.1"	1083	"	"T/C"	"50,5/49,5"	"54/53"	107
stress_12bis	"POPTR_0012s09570.1"	837	"	"A/T"	"54,0/46,0"	"34/29"	63	stress_42	"POPTR_0012s09570.1"	837	"	"A/T"	"53,1/46,9"	"77/68"	145
stress_12bis	"POPTR_0012s09570.1"	837	"	"A/T"	"54,0/46,0"	"34/29"	63	stress_45	"POPTR_0012s09570.1"	837	"	"T/A"	"54,9/45,1"	"96/79"	175
stress_12bis	"POPTR_0014s11040.1"	168	"	"T/C"	"53,1/46,9"	"34/30"	64	stress_45	"POPTR_0014s11040.1"	168	"	"T/C"	"56,4/43,6"	"57/44"	101
stress_12bis	"POPTR_0009s11920.1"	135	"	"T/A"	"53,1/46,9"	"34/30"	64	stress_45	"POPTR_0009s11920.1"	135	"	"T/A"	"53,4/46,1"	"103/89"	193
stress_12bis	"POPTR_0001s10040.1"	516	"	"A/G"	"53,1/46,9"	"34/30"	64	stress_45	"POPTR_0001s10040.1"	516	"	"A/G"	"59,1/40,9"	"65/45"	110
stress_12bis	"POPTR_0009s06690.1"	837	"	"C/T"	"52,3/47,7"	"34/31"	65	stress_42	"POPTR_0009s06690.1"	837	"	"T/C"	"58,5/41,5"	"79/56"	135
stress_12bis	"POPTR_0009s06690.1"	837	"	"C/T"	"52,3/47,7"	"34/31"	65	stress_45	"POPTR_0009s06690.1"	837	"	"C/T"	"55,6/44,4"	"124/99"	223
stress_12bis	"POPTR_0018s00850.1"	477	"	"A/G"	"51,5/48,5"	"34/32"	66	stress_42	"POPTR_0018s00850.1"	477	"	"G/A"	"69,8/30,2"	"127/55"	182
stress_12bis	"POPTR_0018s00850.1"	477	"	"A/G"	"51,5/48,5"	"34/32"	66	stress_45	"POPTR_0018s00850.1"	477	"	"G/A"	"68,1/31,9"	"139/65"	204
stress_12bis	"POPTR_0012s09570.1"	840	"	"C/T"	"50,7/49,3"	"34/33"	67	stress_42	"POPTR_0012s09570.1"	840	"	"T/C"	"52,6/47,4"	"80/72"	152
stress_12bis	"POPTR_0012s09570.1"	840	"	"C/T"	"50,7/49,3"	"34/33"	67	stress_45	"POPTR_0012s09570.1"	840	"	"C/T"	"55,9/44,1"	"104/82"	186
stress_12bis	"POPTR_0002s25170.1"	247	"	"A/G"	"50,0/50,0"	"34/34"	68	stress_45	"POPTR_0002s25170.1"	247	"	"A/G"	"53,4/46,6"	"55/48"	103
stress_12bis	"POPTR_0019s09140.1"	109	"	"T/A"	"55,6/44,4"	"340/271"	611	stress_42	"POPTR_0019s09140.1"	109	"	"T/A"	"59,4/40,6"	"98/67"	165
stress_12bis	"POPTR_0019s09140.1"	109	"	"T/A"	"55,6/44,4"	"340/271"	611	stress_45	"POPTR_0019s09140.1"	109	"	"A/T"	"53,8/46,2"	"120/103"	223
stress_12bis	"POPTR_0002s01080.1"	1299	"	"G/A"	"51,9/48,1"	"340/315"	655	stress_42	"POPTR_0002s01080.1"	1299	"	"A/G"	"50,1/49,9"	"178/177"	355
stress_12bis	"POPTR_0002s01080.1"	1299	"	"G/A"	"51,9/48,1"	"340/315"	655	stress_45	"POPTR_0002s01080.1"	1299	"	"A/G"	"51,9/48,1"	"200/185"	385
stress_12bis	"POPTR_0006s24570.1"	2403	"	"T/C"	"50,0/49,7"	"340/338"	680	stress_42	"POPTR_0006s24570.1"	2403	"	"C/T"	"54,0/46,0"	"27/23"	50
stress_12bis	"POPTR_0006s24570.1"	2403	"	"T/C"	"50,0/49,7"	"340/338"	680	stress_45	"POPTR_0006s24570.1"	2403	"	"C/T"	"53,5/45,3"	"46/39"	86
stress_12bis	"POPTR_0019s09140.1"	512	"	"G/A"	"53,7/46,3"	"341/294"	635	stress_42	"POPTR_0019s09140.1"	512	"	"A/G"	"52,8/47,2"	"114/102"	216
stress_12bis	"POPTR_0019s09140.1"	512	"	"G/A"	"53,7/46,3"	"341/294"	635	stress_45	"POPTR_0019s09140.1"	512	"	"A/G"	"51,4/48,6"	"112/106"	218
stress_12bis	"POPTR_0011s11390.1"	714	"	"A/G"	"52,5/47,5"	"341/309"	650	stress_42	"POPTR_0011s11390.1"	714	"	"G/A"	"70,1/29,9"	"94/40"	134
stress_12bis	"POPTR_0011s11390.1"	714	"	"A/G"	"52,5/47,5"	"341/309"	650	stress_45	"POPTR_0011s11390.1"	714	"	"G/A"	"62,2/37,8"	"97/59"	156
stress_12bis	"POPTR_0006s13310.1"	654	"	"T/A"	"64,8/35,2"	"342/186"	528	stress_42	"POPTR_0006s13310.1"	654	"	"T/A"	"62,1/37,9"	"200/122"	322
stress_12bis	"POPTR_0006s13310.1"	654	"	"T/A"	"64,8/35,2"	"342/186"	528	stress_45	"POPTR_0006s13310.1"	654	"	"T/A"	"56,7/43,1"	"314/239"	554
stress_12bis	"POPTR_0008s06720.1"	51	"	"G/T"	"61,1/38,9"	"343/218"	561	stress_42	"POPTR_0008s06720.1"	51	"	"T/G"	"55,0/45,0"	"61/50"	111
stress_12bis	"POPTR_0008s06720.1"	51	"	"G/T"	"61,1/38,9"	"343/218"	561	stress_45	"POPTR_0008s06720.1"	51	"	"T/G"	"63,2/36,8"	"86/50"	136
stress_12bis	"POPTR_0004s16920.1"	633	"	"C/T"	"52,1/47,9"	"344/316"	660	stress_42	"POPTR_0004s16920.1"	633	"	"C/T"	"50,0/50,0"	"37/37"	74
stress_12bis	"POPTR_0004s16920.1"	633	"	"C/T"	"52,1/47,9"	"344/316"	660	stress_45	"POPTR_0004s16920.1"	633	"	"T/C"	"66,7/33,3"	"50/25"	75
stress_12bis	"POPTR_0005s00390.1"	71	"	"G/A"	"77,8/22,2"	"35/10"	45	stress_42	"POPTR_0005s00390.1"	71	"	"A/G"	"73,6/26,4"	"106/38"	144
stress_12bis	"POPTR_0007s08400.1"	1824	"	"T/C"	"76,1/23,9"	"35/11"	46	stress_45	"POPTR_0007s08400.1"	1824	"	"T/C"	"71,0/29,0"	"98/40"	138
stress_12bis	"POPTR_0012s09570.1"	753	"	"T/C"	"68,6/31,4"	"35/16"	51	stress_45	"POPTR_0012s09570.1"	753	"	"T/C"	"60,2/39,8"	"71/47"	118
stress_12bis	"POPTR_0014s01970.1"	400	"	"G/T"	"67,3/32,7"	"35/17"	52	stress_42	"POPTR_0014s01970.1"	400	"	"G/T"	"51,8/48,2"	"59/55"	114
stress_12bis	"POPTR_0014s01970.1"	400	"	"G/T"	"67,3/32,7"	"35/17"	52	stress_45	"POPTR_0014s01970.1"	400	"	"G/T"	"61,0/39,0"	"86/55"	141
stress_12bis	"POPTR_0014s05640.1"	477	"	"A/G"	"64,8/35,2"	"35/19"	54	stress_45	"POPTR_0014s05640.1"	477	"	"G/A"	"55,3/44,7"	"78/63"	141
stress_12bis	"POPTR_0011s05250.1"	837	"	"C/T"	"63,6/36,4"	"35/20"	55	stress_45	"POPTR_0011s05250.1"	837	"	"C/T"	"56,6/43,4"	"73/56"	129
stress_12bis	"POPTR_0001s14280.1"	891	"	"G/A"	"63,6/36,4"	"35/20"	55	stress_42	"POPTR_0001s14280.1"	891	"	"G/A"	"51,3/48,7"	"101/96"	197
stress_12bis	"POPTR_0001s14280.1"	891	"	"G/A"	"63,6/36,4"	"35/20"	55	stress_45	"POPTR_0001s14280.1"	891	"	"G/A"	"55,6/44,4"	"114/91"	205
stress_12bis	"POPTR_0005s26610.1"	480	"	"G/C"	"56,5/43,5"	"35/27"	62	stress_42	"POPTR_0005s26610.1"	480	"	"C/G"	"54,8/45,2"	"57/47"	104
stress_12bis	"POPTR_0005s26610.1"	480	"	"G/C"	"56,5/43,5"	"35/27"	62	stress_45	"POPTR_0005s26610.1"	480	"	"C/G"	"50,5/49,5"	"53/52"	105
stress_12bis	"POPTR_0001s37480.1"	328	"	"G/A"	"56,5/43,5"	"35/27"	62	stress_45	"POPTR_0001s37480.1"	328	"	"A/G"	"50,5/49,5"	"56/55"	111
stress_12bis	"POPTR_0014s02550.1"	1482	"	"C/T"	"55,6/44,4"	"35/28"	63	stress_45	"POPTR_0014s02550.1"	1482	"	"C/T"	"54,0/46,0"	"75/64"	139
stress_12bis	"POPTR_0014s02550.1"	1515	"	"G/T"	"55,6/44,4"	"35/28"	63	stress_45	"POPTR_0014s02550.1"	1515	"	"G/T"	"62,0/38,0"	"75/46"	121
stress_12bis	"POPTR_0010s07020.1"	346	"	"A/T"	"55,6/44,4"	"35/28"	63	stress_45	"POPTR_0010s07020.1"	346	"	"A/T"	"61,3/38,7"	"73/46"	119
stress_12bis	"POPTR_0002s05840.1"	600	"	"G/A"	"55,6/44,4"	"35/28"	63	stress_42	"POPTR_0002s05840.1"	600	"	"G/A"	"65,6/34,4"	"82/43"	125
stress_12bis	"POPTR_0002s05840.1"	600	"	"G/A"	"55,6/44,4"	"35/28"	63	stress_45	"POPTR_0002s05840.1"	600	"	"G/A"	"66,0/33,3"	"107/54"	162
stress_12bis	"POPTR_0009s11920.1"	165	"	"T/C"	"51,5/48,5"	"35/33"	68	stress_45	"POPTR_0009s11920.1"	165	"	"C/T"	"52,6/47,4"	"100/90"	190
stress_12bis	"POPTR_0003s10720.1"	370	"	"A/G"	"50,0/50,0"	"35/35"	70	stress_45	"POPTR_0003s10720.1"	370	"	"G/A"	"52,4/47,6"	"66/60"	126
stress_12bis	"POPTR_0015s04140.1"	2390	"	"T/G"	"83,3/16,7"	"35/7"	42	stress_42	"POPTR_0015s04140.1"	2390	"	"T/G"	"80,9/19,1"	"89/21"	110
stress_12bis	"POPTR_0019s09140.1"	264	"	"A/G"	"53,8/46,1"	"350/300"	651	stress_42	"POPTR_0019s09140.1"	264	"	"A/G"	"56,2/43,8"	"118/92"	210
stress_12bis	"POPTR_0019s09140.1"	264	"	"A/G"	"53,8/46,1"	"350/300"	651	stress_45	"POPTR_0019s09140.1"	264	"	"A/G"	"54,7/45,3"	"133/110"	243
stress_12bis	"POPTR_0002s19710.1"	69	"	"G/A"	"61,5/38,5"	"351/220"	571	stress_42	"POPTR_0002s19710.1"	69	"	"G/A"	"54,4/45,6"	"124/104"	228
stress_12bis	"POPTR_0002s19710.1"	69	"	"G/A"	"61,5/38,5"	"351/220"	571	stress_45	"POPTR_0002s19710.1"	69	"	"G/A"	"54,7/45,3"	"105/87"	192
stress_12bis	"POPTR_0004s08500.1"	192	"	"G/A"	"57,5/42,5"	"352/260"	612	stress_42	"POPTR_0004s08500.1"	192	"	"G/A"	"50,7/49,3"	"496/482"	978
stress_12bis	"POPTR_0004s08500.1"	192	"	"G/A"	"57,5/42,5"	"352/260"	612	stress_45	"POPTR_0004s08500.1"	192	"	"A/G"	"50,0/49,9"	"511/510"	1022
stress_12bis	"POPTR_0014s17400.1"	375	"	"C/A"	"57,7/42,3"	"354/259"	613	stress_42	"POPTR_0014s17400.1"	375	"	"C/A"	"59,6/40,4"	"158/107"	265
stress_12bis	"POPTR_0014s17400.1"	375	"	"C/A"	"57,7/42,3"	"354/259"	613	stress_45	"POPTR_0014s17400.1"	375	"	"C/A"	"59,6/40,4"	"208/141"	349
stress_12bis	"POPTR_0014s17070.1"	513	"	"A/G"	"56,1/43,9"	"355/278"	633	stress_42	"POPTR_0014s17070.1"	513	"	"A/G"	"64,8/35,2"	"129/70"	199
stress_12bis	"POPTR_0014s17070.1"	513	"	"A/G"	"56,1/43,9"	"355/278"	633	stress_45	"POPTR_0014s17070.1"	513	"	"A/G"	"54,3/45,7"	"132/111"	243
stress_12bis	"POPTR_0001s37480.1"	507	"	"T/G"	"73,5/26,5"	"36/13"	49	stress_45	"POPTR_0001s37480.1"	507	"	"T/G"	"80,6/18,7"	"112/26"	139
stress_12bis	"POPTR_0011s05250.1"	846	"	"T/C"	"62,1/37,9"	"36/22"	58	stress_45	"POPTR_0011s05250.1"	846	"	"T/C"	"57,5/42,5"	"73/54"	127
stress_12bis	"POPTR_0006s10080.1"	542	"	"A/G"	"60,0/40,0"	"36/24"	60	stress_45	"POPTR_0006s10080.1"	542	"	"G/A"	"53,1/46,9"	"85/75"	160
stress_12bis	"POPTR_0001s07520.1"	1161	"	"A/T"	"60,0/40,0"	"36/24"	60	stress_45	"POPTR_0001s07520.1"	1161	"	"A/T"	"63,6/35,6"	"75/42"	118
stress_12bis	"POPTR_0001s14280.1"	159	"	"A/T"	"58,1/41,9"	"36/26"	62	stress_42	"POPTR_0001s14280.1"	159	"	"A/T"	"51,8/47,6"	"85/78"	164
stress_12bis	"POPTR_0001s14280.1"	159	"	"A/T"	"58,1/41,9"	"36/26"	62	stress_45	"POPTR_0001s14280.1"	159	"	"A/T"	"51,2/48,8"	"123/117"	240
stress_12bis	"POPTR_0006s11570.1"	690	"	"C/G"	"55,4/44,6"	"36/29"	65	stress_45	"POPTR_0006s11570.1"	690	"	"G/C"	"55,4/44,6"	"56/45"	101
stress_12bis	"POPTR_0014s02550.1"	1077	"	"T/C"	"54,5/45,5"	"36/30"	66	stress_45	"POPTR_0014s02550.1"	1077	"	"C/T"	"55,3/44,7"	"57/46"	103
stress_12bis	"POPTR_0014s02550.1"	1125	"	"C/A"	"52,9/47,1"	"36/32"	68	stress_45	"POPTR_0014s02550.1"	1125	"	"C/A"	"50,5/49,5"	"54/53"	107
stress_12bis	"POPTR_0004s17020.1"	1419	"	"T/A"	"52,2/47,8"	"36/33"	69	stress_42	"POPTR_0004s17020.1"	1419	"	"A/T"	"67,5/32,5"	"79/38"	117
stress_12bis	"POPTR_0004s17020.1"	1419	"	"T/A"	"52,2/47,8"	"36/33"	69	stress_45	"POPTR_0004s17020.1"	1419	"	"A/T"	"63,5/36,5"	"101/58"	159
stress_12bis	"POPTR_0001s18210.1"	165	"	"T/A"	"52,2/47,8"	"36/33"	69	stress_42	"POPTR_0001s18210.1"	165	"	"T/A"	"61,0/39,0"	"64/41"	105
stress_12bis	"POPTR_0001s18210.1"	165	"	"T/A"	"52,2/47,8"	"36/33"	69	stress_45	"POPTR_0001s18210.1"	165	"	"T/A"	"61,5/38,5"	"72/45"	117
stress_12bis	"POPTR_0003s13880.1"	129	"	"A/G"	"51,4/48,6"	"36/34"	70	stress_42	"POPTR_0003s13880.1"	129	"	"A/G"	"54,0/46,0"	"116/99"	215
stress_12bis	"POPTR_0003s13880.1"	129	"	"A/G"	"51,4/48,6"	"36/34"	70	stress_45	"POPTR_0003s13880.1"	129	"	"A/G"	"56,4/43,6"	"146/113"	259
stress_12bis	"POPTR_0002s25170.1"	279	"	"C/T"	"50,7/49,3"	"36/35"	71	stress_45	"POPTR_0002s25170.1"	279	"	"T/C"	"58,5/41,5"	"62/44"	106
stress_12bis	"POPTR_0002s18500.1"	444	"	"T/C"	"80,0/20,0"	"36/9"	45	stress_42	"POPTR_0002s18500.1"	444	"	"T/C"	"58,7/41,3"	"108/76"	184
stress_12bis	"POPTR_0002s18500.1"	444	"	"T/C"	"80,0/20,0"	"36/9"	45	stress_45	"POPTR_0002s18500.1"	444	"	"T/C"	"62,5/36,9"	"110/65"	176
stress_12bis	"POPTR_0014s17400.1"	466	"	"A/G"	"59,5/40,4"	"361/245"	607	stress_42	"POPTR_0014s17400.1"	466	"	"A/G"	"62,9/37,1"	"176/104"	280
stress_12bis	"POPTR_0014s17400.1"	466	"	"A/G"	"59,5/40,4"	"361/245"	607	stress_45	"POPTR_0014s17400.1"	466	"	"A/G"	"60,3/39,7"	"182/120"	302
stress_12bis	"POPTR_0001s42970.1"	138	"	"C/T"	"72,7/27,3"	"364/137"	501	stress_42	"POPTR_0001s42970.1"	138	"	"C/T"	"79,8/20,2"	"83/21"	104
stress_12bis	"POPTR_0001s42970.1"	138	"	"C/T"	"72,7/27,3"	"364/137"	501	stress_45	"POPTR_0001s42970.1"	138	"	"C/T"	"63,2/36,8"	"36/21"	57
stress_12bis	"POPTR_0004s08380.1"	928	"	"A/G"	"52,4/47,6"	"365/331"	696	stress_42	"POPTR_0004s08380.1"	928	"	"A/G"	"52,6/46,4"	"51/45"	97
stress_12bis	"POPTR_0004s08380.1"	928	"	"A/G"	"52,4/47,6"	"365/331"	696	stress_45	"POPTR_0004s08380.1"	928	"	"G/A"	"51,4/48,6"	"54/51"	105
stress_12bis	"POPTR_0001s37490.1"	909	"	"A/C"	"74,0/26,0"	"37/13"	50	stress_45	"POPTR_0001s37490.1"	909	"	"A/C"	"83,5/16,5"	"111/22"	133
stress_12bis	"POPTR_0006s23580.1"	470	"	"G/C"	"71,2/28,8"	"37/15"	52	stress_42	"POPTR_0006s23580.1"	470	"	"G/C"	"55,7/44,3"	"68/54"	122
stress_12bis	"POPTR_0006s23580.1"	470	"	"G/C"	"71,2/28,8"	"37/15"	52	stress_45	"POPTR_0006s23580.1"	470	"	"G/C"	"58,9/41,1"	"86/60"	146
stress_12bis	"POPTR_0008s04270.1"	900	"	"T/G"	"69,8/30,2"	"37/16"	53	stress_42	"POPTR_0008s04270.1"	900	"	"T/G"	"60,6/39,4"	"63/41"	104
stress_12bis	"POPTR_0008s04270.1"	900	"	"T/G"	"69,8/30,2"	"37/16"	53	stress_45	"POPTR_0008s04270.1"	900	"	"T/G"	"70,1/29,9"	"138/59"	197
stress_12bis	"POPTR_0014s02550.1"	1368	"	"G/T"	"60,7/39,3"	"37/24"	61	stress_45	"POPTR_0014s02550.1"	1368	"	"G/T"	"59,2/40,8"	"74/51"	125
stress_12bis	"POPTR_0005s26610.1"	465	"	"G/A"	"56,9/43,1"	"37/28"	65	stress_42	"POPTR_0005s26610.1"	465	"	"G/A"	"51,6/48,4"	"64/60"	124
stress_12bis	"POPTR_0005s26610.1"	465	"	"G/A"	"56,9/43,1"	"37/28"	65	stress_45	"POPTR_0005s26610.1"	465	"	"G/A"	"50,9/49,1"	"59/57"	116
stress_12bis	"POPTR_0018s02230.1"	119	"	"A/C"	"53,6/46,4"	"37/32"	69	stress_45	"POPTR_0018s02230.1"	119	"	"A/C"	"61,1/38,9"	"99/63"	162
stress_12bis	"POPTR_0014s06370.1"	165	"	"C/A"	"50,7/49,3"	"37/36"	73	stress_45	"POPTR_0014s06370.1"	165	"	"C/A"	"62,0/38,0"	"67/41"	108
stress_12bis	"POPTR_0001s47020.1"	1908	"	"C/T"	"50,7/49,3"	"37/36"	73	stress_45	"POPTR_0001s47020.1"	1908	"	"T/C"	"53,6/46,4"	"74/64"	138
stress_12bis	"POPTR_0006s27170.1"	100	"	"C/T"	"63,8/36,2"	"372/211"	583	stress_42	"POPTR_0006s27170.1"	100	"	"C/T"	"72,7/27,3"	"64/24"	88
stress_12bis	"POPTR_0006s27170.1"	100	"	"C/T"	"63,8/36,2"	"372/211"	583	stress_45	"POPTR_0006s27170.1"	100	"	"C/T"	"68,8/31,2"	"75/34"	109
stress_12bis	"POPTR_0001s41080.1"	198	"	"T/C"	"66,7/33,3"	"375/187"	562	stress_42	"POPTR_0001s41080.1"	198	"	"T/C"	"52,9/47,1"	"347/309"	656
stress_12bis	"POPTR_0001s41080.1"	198	"	"T/C"	"66,7/33,3"	"375/187"	562	stress_45	"POPTR_0001s41080.1"	198	"	"T/C"	"53,7/46,3"	"316/272"	588
stress_12bis	"POPTR_0001s42970.1"	69	"	"A/G"	"76,3/23,5"	"376/116"	493	stress_42	"POPTR_0001s42970.1"	69	"	"A/G"	"80,5/18,4"	"70/16"	87
stress_12bis	"POPTR_0001s42970.1"	69	"	"A/G"	"76,3/23,5"	"376/116"	493	stress_45	"POPTR_0001s42970.1"	69	"	"A/G"	"66,7/33,3"	"42/21"	63
stress_12bis	"POPTR_0006s24570.1"	2601	"	"A/G"	"50,6/49,4"	"379/370"	749	stress_42	"POPTR_0006s24570.1"	2601	"	"A/G"	"67,3/32,7"	"37/18"	55
stress_12bis	"POPTR_0006s24570.1"	2601	"	"A/G"	"50,6/49,4"	"379/370"	749	stress_45	"POPTR_0006s24570.1"	2601	"	"A/G"	"60,8/39,2"	"59/38"	97
stress_12bis	"POPTR_0013s03320.1"	333	"	"A/T"	"76,0/24,0"	"38/12"	50	stress_42	"POPTR_0013s03320.1"	333	"	"A/T"	"84,8/15,2"	"89/16"	105
stress_12bis	"POPTR_0013s03320.1"	333	"	"A/T"	"76,0/24,0"	"38/12"	50	stress_45	"POPTR_0013s03320.1"	333	"	"A/T"	"77,1/22,9"	"91/27"	118
stress_12bis	"POPTR_0010s07340.1"	1674	"	"C/T"	"66,7/33,3"	"38/19"	57	stress_42	"POPTR_0010s07340.1"	1674	"	"C/T"	"52,7/47,3"	"88/79"	167
stress_12bis	"POPTR_0010s07340.1"	1674	"	"C/T"	"66,7/33,3"	"38/19"	57	stress_45	"POPTR_0010s07340.1"	1674	"	"C/T"	"57,8/42,2"	"63/46"	109
stress_12bis	"POPTR_0006s23580.1"	297	"	"C/T"	"64,4/35,6"	"38/21"	59	stress_45	"POPTR_0006s23580.1"	297	"	"C/T"	"51,9/48,1"	"54/50"	104
stress_12bis	"POPTR_0001s14280.1"	1336	"	"A/G"	"63,3/36,7"	"38/22"	60	stress_42	"POPTR_0001s14280.1"	1336	"	"G/A"	"50,4/49,6"	"126/124"	250
stress_12bis	"POPTR_0001s14280.1"	1336	"	"A/G"	"63,3/36,7"	"38/22"	60	stress_45	"POPTR_0001s14280.1"	1336	"	"A/G"	"50,2/49,8"	"126/125"	251
stress_12bis	"POPTR_0001s47020.1"	1273	"	"A/T"	"61,3/38,7"	"38/24"	62	stress_45	"POPTR_0001s47020.1"	1273	"	"T/A"	"53,1/46,9"	"60/53"	113
stress_12bis	"POPTR_0006s23580.1"	315	"	"T/G"	"58,5/41,5"	"38/27"	65	stress_42	"POPTR_0006s23580.1"	315	"	"T/G"	"51,9/46,3"	"56/50"	108
stress_12bis	"POPTR_0006s23580.1"	315	"	"T/G"	"58,5/41,5"	"38/27"	65	stress_45	"POPTR_0006s23580.1"	315	"	"T/G"	"51,9/48,1"	"69/64"	133
stress_12bis	"POPTR_0018s01420.1"	156	"	"G/C"	"56,7/43,3"	"38/29"	67	stress_45	"POPTR_0018s01420.1"	156	"	"G/C"	"52,4/47,6"	"54/49"	103
stress_12bis	"POPTR_0009s06690.1"	687	"	"T/A"	"55,9/44,1"	"38/30"	68	stress_42	"POPTR_0009s06690.1"	687	"	"T/A"	"54,1/44,4"	"72/59"	133
stress_12bis	"POPTR_0009s06690.1"	687	"	"T/A"	"55,9/44,1"	"38/30"	68	stress_45	"POPTR_0009s06690.1"	687	"	"T/A"	"54,7/44,8"	"111/91"	203
stress_12bis	"POPTR_0007s13110.1"	372	"	"C/T"	"55,1/44,9"	"38/31"	69	stress_45	"POPTR_0007s13110.1"	372	"	"C/T"	"55,7/44,3"	"59/47"	106
stress_12bis	"POPTR_0004s17020.1"	1431	"	"G/A"	"54,3/45,7"	"38/32"	70	stress_42	"POPTR_0004s17020.1"	1431	"	"G/A"	"66,7/33,3"	"72/36"	108
stress_12bis	"POPTR_0004s17020.1"	1431	"	"G/A"	"54,3/45,7"	"38/32"	70	stress_45	"POPTR_0004s17020.1"	1431	"	"G/A"	"60,0/40,0"	"90/60"	150
stress_12bis	"POPTR_0008s06580.1"	27	"	"G/A"	"53,5/46,5"	"38/33"	71	stress_42	"POPTR_0008s06580.1"	27	"	"A/G"	"61,9/38,1"	"198/122"	320
stress_12bis	"POPTR_0008s06580.1"	27	"	"G/A"	"53,5/46,5"	"38/33"	71	stress_45	"POPTR_0008s06580.1"	27	"	"A/G"	"60,3/39,5"	"292/191"	484
stress_12bis	"POPTR_0014s02550.1"	1647	"	"A/G"	"51,4/48,6"	"38/36"	74	stress_45	"POPTR_0014s02550.1"	1647	"	"A/G"	"52,4/47,6"	"65/59"	124
stress_12bis	"POPTR_0006s24570.1"	2700	"	"C/T"	"59,5/40,5"	"382/260"	642	stress_42	"POPTR_0006s24570.1"	2700	"	"C/T"	"57,5/42,5"	"42/31"	73
stress_12bis	"POPTR_0006s24570.1"	2700	"	"C/T"	"59,5/40,5"	"382/260"	642	stress_45	"POPTR_0006s24570.1"	2700	"	"C/T"	"65,8/34,2"	"48/25"	73
stress_12bis	"POPTR_0019s09140.1"	157	"	"C/G"	"57,3/42,7"	"388/289"	677	stress_42	"POPTR_0019s09140.1"	157	"	"C/G"	"61,2/38,8"	"109/69"	178
stress_12bis	"POPTR_0019s09140.1"	157	"	"C/G"	"57,3/42,7"	"388/289"	677	stress_45	"POPTR_0019s09140.1"	157	"	"C/G"	"50,8/49,2"	"129/125"	254
stress_12bis	"POPTR_0014s17400.1"	175	"	"G/A"	"61,8/38,2"	"389/240"	629	stress_42	"POPTR_0014s17400.1"	175	"	"G/A"	"63,5/36,5"	"158/91"	249
stress_12bis	"POPTR_0014s17400.1"	175	"	"G/A"	"61,8/38,2"	"389/240"	629	stress_45	"POPTR_0014s17400.1"	175	"	"G/A"	"60,3/39,7"	"196/129"	325
stress_12bis	"POPTR_0010s19930.1"	133	"	"A/G"	"75,0/25,0"	"39/13"	52	stress_42	"POPTR_0010s19930.1"	133	"	"A/G"	"66,0/34,0"	"159/82"	241
stress_12bis	"POPTR_0010s19930.1"	133	"	"A/G"	"75,0/25,0"	"39/13"	52	stress_45	"POPTR_0010s19930.1"	133	"	"A/G"	"68,3/31,7"	"164/76"	240
stress_12bis	"POPTR_0012s09570.1"	963	"	"A/C"	"68,4/31,6"	"39/18"	57	stress_42	"POPTR_0012s09570.1"	963	"	"A/C"	"63,0/37,0"	"75/44"	119
stress_12bis	"POPTR_0012s09570.1"	963	"	"A/C"	"68,4/31,6"	"39/18"	57	stress_45	"POPTR_0012s09570.1"	963	"	"A/C"	"71,2/28,8"	"94/38"	132
stress_12bis	"POPTR_0009s12420.1"	825	"	"C/T"	"66,1/33,9"	"39/20"	59	stress_42	"POPTR_0009s12420.1"	825	"	"C/T"	"68,7/31,3"	"178/81"	259
stress_12bis	"POPTR_0009s12420.1"	825	"	"C/T"	"66,1/33,9"	"39/20"	59	stress_45	"POPTR_0009s12420.1"	825	"	"C/T"	"63,1/36,9"	"149/87"	236
stress_12bis	"POPTR_0002s18500.1"	597	"	"T/C"	"62,9/37,1"	"39/23"	62	stress_42	"POPTR_0002s18500.1"	597	"	"T/C"	"56,8/43,2"	"147/112"	259
stress_12bis	"POPTR_0002s18500.1"	597	"	"T/C"	"62,9/37,1"	"39/23"	62	stress_45	"POPTR_0002s18500.1"	597	"	"T/C"	"57,6/42,4"	"151/111"	262
stress_12bis	"POPTR_0014s11040.1"	138	"	"C/T"	"60,9/39,1"	"39/25"	64	stress_45	"POPTR_0014s11040.1"	138	"	"C/T"	"50,0/50,0"	"59/59"	118
stress_12bis	"POPTR_0001s14280.1"	1101	"	"T/A"	"59,1/40,9"	"39/27"	66	stress_42	"POPTR_0001s14280.1"	1101	"	"A/T"	"51,3/48,7"	"100/95"	195
stress_12bis	"POPTR_0001s14280.1"	1101	"	"T/A"	"59,1/40,9"	"39/27"	66	stress_45	"POPTR_0001s14280.1"	1101	"	"A/T"	"50,9/49,1"	"140/135"	275
stress_12bis	"POPTR_0005s26610.1"	783	"	"C/T"	"58,2/41,8"	"39/28"	67	stress_42	"POPTR_0005s26610.1"	783	"	"C/T"	"62,5/37,5"	"75/45"	120
stress_12bis	"POPTR_0006s28990.1"	2478	"	"A/C"	"58,2/41,8"	"39/28"	67	stress_42	"POPTR_0006s28990.1"	2478	"	"A/C"	"60,8/39,2"	"96/62"	158
stress_12bis	"POPTR_0006s28990.1"	2478	"	"A/C"	"58,2/41,8"	"39/28"	67	stress_45	"POPTR_0006s28990.1"	2478	"	"A/C"	"61,2/38,8"	"98/62"	160
stress_12bis	"POPTR_0010s16860.1"	201	"	"A/G"	"70,3/29,7"	"392/166"	558	stress_42	"POPTR_0010s16860.1"	201	"	"A/G"	"74,0/26,0"	"37/13"	50
stress_12bis	"POPTR_0010s16860.1"	201	"	"A/G"	"70,3/29,7"	"392/166"	558	stress_45	"POPTR_0010s16860.1"	201	"	"A/G"	"72,4/27,6"	"42/16"	58
stress_12bis	"POPTR_0003s05110.1"	111	"	"C/A"	"59,9/40,1"	"396/265"	661	stress_42	"POPTR_0003s05110.1"	111	"	"C/A"	"62,7/37,3"	"133/79"	212
stress_12bis	"POPTR_0003s05110.1"	111	"	"C/A"	"59,9/40,1"	"396/265"	661	stress_45	"POPTR_0003s05110.1"	111	"	"C/A"	"51,1/48,9"	"90/86"	176
stress_12bis	"POPTR_0014s17400.1"	164	"	"C/A"	"60,2/39,8"	"397/263"	660	stress_42	"POPTR_0014s17400.1"	164	"	"C/A"	"63,0/37,0"	"170/100"	270
stress_12bis	"POPTR_0014s17400.1"	164	"	"C/A"	"60,2/39,8"	"397/263"	660	stress_45	"POPTR_0014s17400.1"	164	"	"C/A"	"57,9/42,1"	"208/151"	359
stress_12bis	"POPTR_0017s14470.1"	1299	"	"A/T/	"40,0/40,0/20,0"	"4/4/2"	10	stress_45	"POPTR_0017s14470.1"	1299	"	"T/A"	"82,6/16,5"	"100/20"	121
stress_12bis	"POPTR_0009s12420.1"	297	"	"T/C"	"75,5/24,5"	"40/13"	53	stress_42	"POPTR_0009s12420.1"	297	"	"T/C"	"60,6/39,4"	"106/69"	175
stress_12bis	"POPTR_0009s12420.1"	297	"	"T/C"	"75,5/24,5"	"40/13"	53	stress_45	"POPTR_0009s12420.1"	297	"	"T/C"	"62,0/38,0"	"119/73"	192
stress_12bis	"POPTR_0002s05840.1"	995	"	"C/T"	"70,2/29,8"	"40/17"	57	stress_42	"POPTR_0002s05840.1"	995	"	"C/T"	"58,4/41,6"	"101/72"	173
stress_12bis	"POPTR_0002s05840.1"	995	"	"C/T"	"70,2/29,8"	"40/17"	57	stress_45	"POPTR_0002s05840.1"	995	"	"C/T"	"54,1/45,9"	"93/79"	172
stress_12bis	"POPTR_0006s10080.1"	601	"	"C/T"	"62,5/37,5"	"40/24"	64	stress_45	"POPTR_0006s10080.1"	601	"	"T/C"	"60,9/39,1"	"84/54"	138
stress_12bis	"POPTR_0005s26220.1"	77	"	"G/A"	"58,0/42,0"	"40/29"	69	stress_42	"POPTR_0005s26220.1"	77	"	"G/A"	"63,9/36,1"	"92/52"	144
stress_12bis	"POPTR_0005s26220.1"	77	"	"G/A"	"58,0/42,0"	"40/29"	69	stress_45	"POPTR_0005s26220.1"	77	"	"G/A"	"60,6/39,4"	"66/43"	109
stress_12bis	"POPTR_0013s00850.1"	282	"	"T/C"	"57,1/42,9"	"40/30"	70	stress_42	"POPTR_0013s00850.1"	282	"	"T/C"	"53,2/46,8"	"140/123"	263
stress_12bis	"POPTR_0013s00850.1"	282	"	"T/C"	"57,1/42,9"	"40/30"	70	stress_45	"POPTR_0013s00850.1"	282	"	"T/C"	"57,8/42,2"	"107/78"	185
stress_12bis	"POPTR_0002s05840.1"	1278	"	"C/T"	"54,1/45,9"	"40/34"	74	stress_42	"POPTR_0002s05840.1"	1278	"	"T/C"	"55,1/44,3"	"92/74"	167
stress_12bis	"POPTR_0002s05840.1"	1278	"	"C/T"	"54,1/45,9"	"40/34"	74	stress_45	"POPTR_0002s05840.1"	1278	"	"T/C"	"57,6/42,4"	"91/67"	158
stress_12bis	"POPTR_0013s13220.1"	288	"	"T/C"	"53,3/46,7"	"40/35"	75	stress_45	"POPTR_0013s13220.1"	288	"	"T/C"	"50,7/49,3"	"73/71"	144
stress_12bis	"POPTR_0001s14280.1"	1119	"	"G/A"	"52,6/47,4"	"40/36"	76	stress_42	"POPTR_0001s14280.1"	1119	"	"A/G"	"50,4/49,6"	"134/132"	266
stress_12bis	"POPTR_0001s14280.1"	1119	"	"G/A"	"52,6/47,4"	"40/36"	76	stress_45	"POPTR_0001s14280.1"	1119	"	"A/G"	"53,9/46,1"	"173/148"	321
stress_12bis	"POPTR_0001s42970.1"	150	"	"T/C"	"66,9/33,1"	"400/198"	598	stress_42	"POPTR_0001s42970.1"	150	"	"T/C"	"69,6/30,4"	"87/38"	125
stress_12bis	"POPTR_0001s42970.1"	150	"	"T/C"	"66,9/33,1"	"400/198"	598	stress_45	"POPTR_0001s42970.1"	150	"	"T/C"	"60,5/39,5"	"46/30"	76
stress_12bis	"POPTR_0010s16860.1"	286	"	"G/A"	"70,6/29,3"	"405/168"	574	stress_42	"POPTR_0010s16860.1"	286	"	"G/A"	"77,6/22,4"	"45/13"	58
stress_12bis	"POPTR_0010s16860.1"	286	"	"G/A"	"70,6/29,3"	"405/168"	574	stress_45	"POPTR_0010s16860.1"	286	"	"G/A"	"72,7/27,3"	"48/18"	66
stress_12bis	"POPTR_0006s24570.1"	2512	"	"C/T"	"54,9/45,1"	"406/333"	739	stress_42	"POPTR_0006s24570.1"	2512	"	"C/T"	"51,4/48,6"	"36/34"	70
stress_12bis	"POPTR_0006s24570.1"	2512	"	"C/T"	"54,9/45,1"	"406/333"	739	stress_45	"POPTR_0006s24570.1"	2512	"	"C/T"	"52,2/47,8"	"35/32"	67
stress_12bis	"POPTR_0001s37480.1"	652	"	"G/A"	"70,7/29,3"	"41/17"	58	stress_45	"POPTR_0001s37480.1"	652	"	"G/A"	"69,2/30,8"	"74/33"	107
stress_12bis	"POPTR_0009s13890.1"	264	"	"T/C"	"69,5/30,5"	"41/18"	59	stress_45	"POPTR_0009s13890.1"	264	"	"T/C"	"53,7/46,3"	"58/50"	108
stress_12bis	"POPTR_0001s32770.1"	894	"	"C/T"	"65,1/34,9"	"41/22"	63	stress_45	"POPTR_0001s32770.1"	894	"	"C/T"	"52,4/47,6"	"54/49"	103
stress_12bis	"POPTR_0007s13110.1"	498	"	"T/C"	"56,2/43,8"	"41/32"	73	stress_42	"POPTR_0007s13110.1"	498	"	"C/T"	"58,1/41,9"	"68/49"	117
stress_12bis	"POPTR_0007s13110.1"	498	"	"T/C"	"56,2/43,8"	"41/32"	73	stress_45	"POPTR_0007s13110.1"	498	"	"C/T"	"61,0/39,0"	"83/53"	136
stress_12bis	"POPTR_0016s11670.1"	163	"	"C/T"	"56,2/43,8"	"41/32"	73	stress_45	"POPTR_0016s11670.1"	163	"	"C/T"	"54,9/45,1"	"62/51"	113
stress_12bis	"POPTR_0013s00850.1"	354	"	"A/G"	"53,9/46,1"	"41/35"	76	stress_42	"POPTR_0013s00850.1"	354	"	"A/G"	"60,2/39,8"	"198/131"	329
stress_12bis	"POPTR_0013s00850.1"	354	"	"A/G"	"53,9/46,1"	"41/35"	76	stress_45	"POPTR_0013s00850.1"	354	"	"A/G"	"61,1/38,4"	"124/78"	203
stress_12bis	"POPTR_0001s47020.1"	1353	"	"C/T"	"53,9/46,1"	"41/35"	76	stress_45	"POPTR_0001s47020.1"	1353	"	"T/C"	"56,0/44,0"	"61/48"	109
stress_12bis	"POPTR_0005s26610.1"	924	"	"T/C"	"51,9/48,1"	"41/38"	79	stress_42	"POPTR_0005s26610.1"	924	"	"T/C"	"55,8/44,2"	"82/65"	147
stress_12bis	"POPTR_0005s26610.1"	924	"	"T/C"	"51,9/48,1"	"41/38"	79	stress_45	"POPTR_0005s26610.1"	924	"	"T/C"	"57,7/42,3"	"71/52"	123
stress_12bis	"POPTR_0002s08410.1"	146	"	"T/C"	"52,8/47,2"	"412/369"	781	stress_42	"POPTR_0002s08410.1"	146	"	"C/T"	"51,7/48,3"	"109/102"	211
stress_12bis	"POPTR_0002s08410.1"	146	"	"T/C"	"52,8/47,2"	"412/369"	781	stress_45	"POPTR_0002s08410.1"	146	"	"C/T"	"50,4/49,6"	"140/138"	278
stress_12bis	"POPTR_0006s24570.1"	2988	"	"G/A"	"53,9/46,1"	"417/357"	774	stress_42	"POPTR_0006s24570.1"	2988	"	"A/G"	"53,5/46,5"	"54/47"	101
stress_12bis	"POPTR_0006s24570.1"	2988	"	"G/A"	"53,9/46,1"	"417/357"	774	stress_45	"POPTR_0006s24570.1"	2988	"	"A/G"	"50,6/49,4"	"45/44"	89
stress_12bis	"POPTR_0010s09960.1"	201	"	"G/A"	"81,8/18,2"	"418/93"	511	stress_42	"POPTR_0010s09960.1"	201	"	"G/A"	"77,7/22,3"	"171/49"	220
stress_12bis	"POPTR_0010s09960.1"	201	"	"G/A"	"81,8/18,2"	"418/93"	511	stress_45	"POPTR_0010s09960.1"	201	"	"G/A"	"80,0/20,0"	"192/48"	240
stress_12bis	"POPTR_0008s20370.1"	576	"	"A/G"	"80,8/19,2"	"42/10"	52	stress_42	"POPTR_0008s20370.1"	576	"	"A/G"	"66,7/33,3"	"68/34"	102
stress_12bis	"POPTR_0005s11780.1"	165	"	"A/G"	"72,4/27,6"	"42/16"	58	stress_45	"POPTR_0005s11780.1"	165	"	"G/A"	"55,4/44,6"	"72/58"	130
stress_12bis	"POPTR_0011s05250.1"	1602	"	"G/T"	"68,9/31,1"	"42/19"	61	stress_45	"POPTR_0011s05250.1"	1602	"	"G/T"	"53,4/46,6"	"79/69"	148
stress_12bis	"POPTR_0019s15250.1"	216	"	"C/T"	"64,6/35,4"	"42/23"	65	stress_45	"POPTR_0019s15250.1"	216	"	"C/T"	"63,4/36,6"	"64/37"	101
stress_12bis	"POPTR_0002s05840.1"	210	"	"A/T"	"60,0/40,0"	"42/28"	70	stress_45	"POPTR_0002s05840.1"	210	"	"A/T"	"56,4/43,6"	"62/48"	110
stress_12bis	"POPTR_0001s14280.1"	936	"	"A/G"	"59,2/40,8"	"42/29"	71	stress_42	"POPTR_0001s14280.1"	936	"	"G/A"	"50,5/49,5"	"103/101"	204
stress_12bis	"POPTR_0001s14280.1"	936	"	"A/G"	"59,2/40,8"	"42/29"	71	stress_45	"POPTR_0001s14280.1"	936	"	"G/A"	"51,0/49,0"	"124/119"	243
stress_12bis	"POPTR_0004s16740.1"	681	"	"T/C"	"57,5/42,5"	"42/31"	73	stress_45	"POPTR_0004s16740.1"	681	"	"T/C"	"58,3/41,7"	"60/43"	103
stress_12bis	"POPTR_0013s05790.1"	442	"	"T/C"	"56,8/43,2"	"42/32"	74	stress_42	"POPTR_0013s05790.1"	442	"	"T/C"	"52,9/47,1"	"63/56"	119
stress_12bis	"POPTR_0013s05790.1"	699	"	"A/G"	"56,0/44,0"	"42/33"	75	stress_42	"POPTR_0013s05790.1"	699	"	"G/A"	"53,1/46,9"	"60/53"	113
stress_12bis	"POPTR_0018s02230.1"	132	"	"A/C"	"54,5/45,5"	"42/35"	77	stress_45	"POPTR_0018s02230.1"	132	"	"A/C"	"59,4/40,6"	"98/67"	165
stress_12bis	"POPTR_0013s05790.1"	460	"	"A/T"	"53,2/46,8"	"42/37"	79	stress_42	"POPTR_0013s05790.1"	460	"	"T/A"	"52,7/47,3"	"69/62"	131
stress_12bis	"POPTR_0010s01590.1"	222	"	"C/T"	"84,0/16,0"	"42/8"	50	stress_42	"POPTR_0010s01590.1"	222	"	"C/T"	"60,4/39,6"	"348/228"	576
stress_12bis	"POPTR_0010s01590.1"	222	"	"C/T"	"84,0/16,0"	"42/8"	50	stress_45	"POPTR_0010s01590.1"	222	"	"C/T"	"55,5/44,5"	"206/165"	371
stress_12bis	"POPTR_0002s08410.1"	519	"	"A/T"	"51,9/48,0"	"425/393"	819	stress_42	"POPTR_0002s08410.1"	519	"	"A/T"	"56,5/43,2"	"157/120"	278
stress_12bis	"POPTR_0002s08410.1"	519	"	"A/T"	"51,9/48,0"	"425/393"	819	stress_45	"POPTR_0002s08410.1"	519	"	"T/A"	"50,0/49,7"	"156/155"	312
stress_12bis	"POPTR_0014s17400.1"	264	"	"C/G"	"58,6/41,4"	"427/302"	729	stress_42	"POPTR_0014s17400.1"	264	"	"C/G"	"61,7/37,9"	"163/100"	264
stress_12bis	"POPTR_0014s17400.1"	264	"	"C/G"	"58,6/41,4"	"427/302"	729	stress_45	"POPTR_0014s17400.1"	264	"	"C/G"	"57,7/42,3"	"206/151"	357
stress_12bis	"POPTR_0002s18500.1"	660	"	"C/T"	"71,7/28,3"	"43/17"	60	stress_42	"POPTR_0002s18500.1"	660	"	"C/T"	"65,3/34,7"	"164/87"	251
stress_12bis	"POPTR_0002s18500.1"	660	"	"C/T"	"71,7/28,3"	"43/17"	60	stress_45	"POPTR_0002s18500.1"	660	"	"C/T"	"65,5/34,5"	"163/86"	249
stress_12bis	"POPTR_0002s18500.1"	930	"	"T/C"	"71,7/28,3"	"43/17"	60	stress_42	"POPTR_0002s18500.1"	930	"	"T/C"	"62,8/37,2"	"179/106"	285
stress_12bis	"POPTR_0002s18500.1"	930	"	"T/C"	"71,7/28,3"	"43/17"	60	stress_45	"POPTR_0002s18500.1"	930	"	"T/C"	"61,8/38,2"	"175/108"	283
stress_12bis	"POPTR_0007s08390.1"	72	"	"T/C"	"70,5/29,5"	"43/18"	61	stress_45	"POPTR_0007s08390.1"	72	"	"T/C"	"59,4/39,6"	"63/42"	106
stress_12bis	"POPTR_0001s37480.1"	569	"	"C/T"	"67,2/32,8"	"43/21"	64	stress_45	"POPTR_0001s37480.1"	569	"	"C/T"	"67,1/32,9"	"110/54"	164
stress_12bis	"POPTR_0019s15250.1"	108	"	"C/T"	"59,7/40,3"	"43/29"	72	stress_45	"POPTR_0019s15250.1"	108	"	"C/T"	"72,5/27,5"	"100/38"	138
stress_12bis	"POPTR_0014s02550.1"	1761	"	"G/A"	"58,9/41,1"	"43/30"	73	stress_42	"POPTR_0014s02550.1"	1761	"	"G/A"	"56,5/43,5"	"74/57"	131
stress_12bis	"POPTR_0014s02550.1"	1761	"	"G/A"	"58,9/41,1"	"43/30"	73	stress_45	"POPTR_0014s02550.1"	1761	"	"G/A"	"52,2/47,2"	"94/85"	180
stress_12bis	"POPTR_0007s08400.1"	1566	"	"T/C"	"58,1/41,9"	"43/31"	74	stress_45	"POPTR_0007s08400.1"	1566	"	"T/C"	"63,3/36,7"	"152/88"	240
stress_12bis	"POPTR_0013s00850.1"	432	"	"G/A"	"54,4/45,6"	"43/36"	79	stress_42	"POPTR_0013s00850.1"	432	"	"G/A"	"52,9/47,1"	"185/165"	350
stress_12bis	"POPTR_0013s00850.1"	432	"	"G/A"	"54,4/45,6"	"43/36"	79	stress_45	"POPTR_0013s00850.1"	432	"	"G/A"	"52,8/47,2"	"124/111"	235
stress_12bis	"POPTR_0006s11570.1"	1116	"	"T/C"	"51,2/48,8"	"43/41"	84	stress_42	"POPTR_0006s11570.1"	1116	"	"T/C"	"51,4/48,6"	"57/54"	111
stress_12bis	"POPTR_0006s11570.1"	1116	"	"T/C"	"51,2/48,8"	"43/41"	84	stress_45	"POPTR_0006s11570.1"	1116	"	"C/T"	"50,6/49,4"	"79/77"	156
stress_12bis	"POPTR_0002s08410.1"	327	"	"C/T"	"55,6/44,4"	"433/346"	779	stress_42	"POPTR_0002s08410.1"	327	"	"C/T"	"59,8/40,2"	"134/90"	224
stress_12bis	"POPTR_0002s08410.1"	327	"	"C/T"	"55,6/44,4"	"433/346"	779	stress_45	"POPTR_0002s08410.1"	327	"	"T/C"	"50,8/49,2"	"167/162"	329
stress_12bis	"POPTR_0001s37480.1"	645	"	"A/T"	"77,2/22,8"	"44/13"	57	stress_45	"POPTR_0001s37480.1"	645	"	"A/T"	"73,6/26,4"	"81/29"	110
stress_12bis	"POPTR_0010s01590.1"	270	"	"C/T"	"77,2/22,8"	"44/13"	57	stress_42	"POPTR_0010s01590.1"	270	"	"C/T"	"59,0/41,0"	"319/222"	541
stress_12bis	"POPTR_0010s01590.1"	270	"	"C/T"	"77,2/22,8"	"44/13"	57	stress_45	"POPTR_0010s01590.1"	270	"	"T/C"	"51,2/48,8"	"192/183"	375
stress_12bis	"POPTR_0015s09000.1"	231	"	"T/G"	"75,9/24,1"	"44/14"	58	stress_42	"POPTR_0015s09000.1"	231	"	"T/G"	"72,7/27,3"	"88/33"	121
stress_12bis	"POPTR_0006s19870.1"	84	"	"T/C"	"72,1/27,9"	"44/17"	61	stress_42	"POPTR_0006s19870.1"	84	"	"T/C"	"79,0/21,0"	"83/22"	105
stress_12bis	"POPTR_0006s19870.1"	84	"	"T/C"	"72,1/27,9"	"44/17"	61	stress_45	"POPTR_0006s19870.1"	84	"	"T/C"	"76,1/23,9"	"83/26"	109
stress_12bis	"POPTR_0004s17610.1"	225	"	"C/T"	"62,9/37,1"	"44/26"	70	stress_42	"POPTR_0004s17610.1"	225	"	"C/T"	"66,2/33,8"	"139/71"	210
stress_12bis	"POPTR_0004s17610.1"	225	"	"C/T"	"62,9/37,1"	"44/26"	70	stress_45	"POPTR_0004s17610.1"	225	"	"C/T"	"68,2/31,8"	"217/101"	318
stress_12bis	"POPTR_0018s02230.1"	153	"	"A/C"	"56,4/43,6"	"44/34"	78	stress_45	"POPTR_0018s02230.1"	153	"	"A/C"	"50,0/50,0"	"74/74"	148
stress_12bis	"POPTR_0002s05840.1"	610	"	"T/G"	"56,4/43,6"	"44/34"	78	stress_42	"POPTR_0002s05840.1"	610	"	"T/G"	"67,7/32,3"	"88/42"	130
stress_12bis	"POPTR_0002s05840.1"	610	"	"T/G"	"56,4/43,6"	"44/34"	78	stress_45	"POPTR_0002s05840.1"	610	"	"T/G"	"65,5/34,5"	"110/58"	168
stress_12bis	"POPTR_0006s10080.1"	1158	"	"C/T"	"55,7/44,3"	"44/35"	79	stress_42	"POPTR_0006s10080.1"	1158	"	"T/C"	"51,4/48,6"	"57/54"	111
stress_12bis	"POPTR_0006s10080.1"	1158	"	"C/T"	"55,7/44,3"	"44/35"	79	stress_45	"POPTR_0006s10080.1"	1158	"	"T/C"	"53,4/46,6"	"103/90"	193
stress_12bis	"POPTR_0006s10080.1"	1182	"	"G/A"	"53,7/46,3"	"44/38"	82	stress_45	"POPTR_0006s10080.1"	1182	"	"A/G"	"58,2/41,8"	"110/79"	189
stress_12bis	"POPTR_0004s17020.1"	231	"	"G/T"	"53,0/47,0"	"44/39"	83	stress_45	"POPTR_0004s17020.1"	231	"	"G/T"	"77,1/22,9"	"101/30"	131
stress_12bis	"POPTR_0006s10080.1"	1024	"	"C/T"	"51,8/48,2"	"44/41"	85	stress_45	"POPTR_0006s10080.1"	1024	"	"C/T"	"58,7/41,3"	"111/78"	189
stress_12bis	"POPTR_0006s12910.1"	379	"	"G/A"	"51,2/47,7"	"44/41"	86	stress_45	"POPTR_0006s12910.1"	379	"	"G/A"	"59,9/40,1"	"82/55"	137
stress_12bis	"POPTR_0009s12710.1"	511	"	"T/A"	"56,5/43,1"	"440/336"	779	stress_42	"POPTR_0009s12710.1"	511	"	"T/A"	"54,7/45,3"	"47/39"	86
stress_12bis	"POPTR_0009s12710.1"	511	"	"T/A"	"56,5/43,1"	"440/336"	779	stress_45	"POPTR_0009s12710.1"	511	"	"T/A"	"62,4/37,6"	"83/50"	133
stress_12bis	"POPTR_0002s01080.1"	1368	"	"T/C"	"57,6/42,3"	"447/328"	776	stress_42	"POPTR_0002s01080.1"	1368	"	"T/C"	"54,8/45,2"	"213/176"	389
stress_12bis	"POPTR_0002s01080.1"	1368	"	"T/C"	"57,6/42,3"	"447/328"	776	stress_45	"POPTR_0002s01080.1"	1368	"	"T/C"	"59,4/40,4"	"262/178"	441
stress_12bis	"POPTR_0002s08410.1"	207	"	"T/C"	"55,4/44,4"	"448/359"	808	stress_42	"POPTR_0002s08410.1"	207	"	"C/T"	"51,5/48,5"	"123/116"	239
stress_12bis	"POPTR_0002s08410.1"	207	"	"T/C"	"55,4/44,4"	"448/359"	808	stress_45	"POPTR_0002s08410.1"	207	"	"C/T"	"54,1/45,9"	"177/150"	327
stress_12bis	"POPTR_0010s24290.1"	39	"	"C/T"	"59,4/40,6"	"449/307"	756	stress_42	"POPTR_0010s24290.1"	39	"	"T/C"	"55,2/44,7"	"843/682"	1526
stress_12bis	"POPTR_0010s24290.1"	39	"	"C/T"	"59,4/40,6"	"449/307"	756	stress_45	"POPTR_0010s24290.1"	39	"	"T/C"	"58,8/41,2"	"700/491"	1191
stress_12bis	"POPTR_0011s05250.1"	1611	"	"C/G"	"76,3/23,7"	"45/14"	59	stress_45	"POPTR_0011s05250.1"	1611	"	"C/G"	"60,4/39,6"	"81/53"	134
stress_12bis	"POPTR_0005s11780.1"	390	"	"G/T"	"66,2/32,4"	"45/22"	68	stress_45	"POPTR_0005s11780.1"	390	"	"G/T"	"51,5/46,9"	"67/61"	130
stress_12bis	"POPTR_0001s10040.1"	325	"	"T/C"	"64,3/34,3"	"45/24"	70	stress_45	"POPTR_0001s10040.1"	325	"	"T/C"	"50,4/49,6"	"63/62"	125
stress_12bis	"POPTR_0002s05840.1"	657	"	"G/A"	"65,2/34,8"	"45/24"	69	stress_42	"POPTR_0002s05840.1"	657	"	"G/A"	"56,8/43,2"	"92/70"	162
stress_12bis	"POPTR_0002s05840.1"	657	"	"G/A"	"65,2/34,8"	"45/24"	69	stress_45	"POPTR_0002s05840.1"	657	"	"G/A"	"60,8/39,2"	"107/69"	176
stress_12bis	"POPTR_0006s19870.1"	45	"	"A/C"	"58,4/41,6"	"45/32"	77	stress_42	"POPTR_0006s19870.1"	45	"	"A/C"	"57,7/42,3"	"71/52"	123
stress_12bis	"POPTR_0006s19870.1"	45	"	"A/C"	"58,4/41,6"	"45/32"	77	stress_45	"POPTR_0006s19870.1"	45	"	"A/C"	"62,2/37,8"	"74/45"	119
stress_12bis	"POPTR_0006s10080.1"	430	"	"G/T"	"57,7/42,3"	"45/33"	78	stress_45	"POPTR_0006s10080.1"	430	"	"G/T"	"51,9/48,1"	"80/74"	154
stress_12bis	"POPTR_0011s05250.1"	510	"	"A/G"	"54,2/45,8"	"45/38"	83	stress_45	"POPTR_0011s05250.1"	510	"	"G/A"	"64,7/35,3"	"110/60"	170
stress_12bis	"POPTR_0009s02070.1"	705	"	"T/C"	"53,6/46,4"	"45/39"	84	stress_42	"POPTR_0009s02070.1"	705	"	"C/T"	"52,1/47,9"	"73/67"	140
stress_12bis	"POPTR_0009s02070.1"	705	"	"T/C"	"53,6/46,4"	"45/39"	84	stress_45	"POPTR_0009s02070.1"	705	"	"C/T"	"58,4/41,6"	"97/69"	166
stress_12bis	"POPTR_0002s03020.1"	24	"	"A/T"	"52,9/47,1"	"45/40"	85	stress_42	"POPTR_0002s03020.1"	24	"	"A/T"	"74,1/25,9"	"86/30"	116
stress_12bis	"POPTR_0002s03020.1"	24	"	"A/T"	"52,9/47,1"	"45/40"	85	stress_45	"POPTR_0002s03020.1"	24	"	"A/T"	"74,0/26,0"	"216/76"	292
stress_12bis	"POPTR_0014s15910.1"	219	"	"C/G"	"51,1/48,9"	"45/43"	88	stress_42	"POPTR_0014s15910.1"	219	"	"C/G"	"55,9/44,1"	"57/45"	102
stress_12bis	"POPTR_0010s01700.1"	243	"	"G/A"	"58,0/41,9"	"451/326"	778	stress_42	"POPTR_0010s01700.1"	243	"	"G/A"	"58,3/41,7"	"410/293"	703
stress_12bis	"POPTR_0010s01700.1"	243	"	"G/A"	"58,0/41,9"	"451/326"	778	stress_45	"POPTR_0010s01700.1"	243	"	"G/A"	"55,6/44,4"	"439/351"	790
stress_12bis	"POPTR_0001s42970.1"	346	"	"G/A"	"64,6/35,4"	"455/249"	704	stress_42	"POPTR_0001s42970.1"	346	"	"G/A"	"60,5/39,5"	"95/62"	157
stress_12bis	"POPTR_0001s42970.1"	346	"	"G/A"	"64,6/35,4"	"455/249"	704	stress_45	"POPTR_0001s42970.1"	346	"	"G/A"	"57,0/43,0"	"45/34"	79
stress_12bis	"POPTR_0008s19370.1"	912	"	"T/C"	"59,9/40,1"	"455/304"	759	stress_42	"POPTR_0008s19370.1"	912	"	"T/C"	"74,2/25,8"	"46/16"	62
stress_12bis	"POPTR_0008s19370.1"	912	"	"T/C"	"59,9/40,1"	"455/304"	759	stress_45	"POPTR_0008s19370.1"	912	"	"T/C"	"83,3/16,7"	"30/6"	36
stress_12bis	"POPTR_0001s42970.1"	198	"	"T/A"	"59,2/40,4"	"459/313"	775	stress_42	"POPTR_0001s42970.1"	198	"	"T/A"	"57,2/42,8"	"83/62"	145
stress_12bis	"POPTR_0001s42970.1"	198	"	"T/A"	"59,2/40,4"	"459/313"	775	stress_45	"POPTR_0001s42970.1"	198	"	"A/T"	"52,3/46,5"	"45/40"	86
stress_12bis	"POPTR_0005s11780.1"	184	"	"A/T"	"75,4/24,6"	"46/15"	61	stress_45	"POPTR_0005s11780.1"	184	"	"T/A"	"56,9/43,1"	"74/56"	130
stress_12bis	"POPTR_0001s47020.1"	1972	"	"C/A"	"64,8/33,8"	"46/24"	71	stress_45	"POPTR_0001s47020.1"	1972	"	"C/A"	"53,9/46,1"	"83/71"	154
stress_12bis	"POPTR_0004s23490.1"	794	"	"C/T"	"63,9/36,1"	"46/26"	72	stress_45	"POPTR_0004s23490.1"	794	"	"C/T"	"65,3/34,7"	"66/35"	101
stress_12bis	"POPTR_0015s06060.1"	369	"	"A/T"	"63,9/36,1"	"46/26"	72	stress_42	"POPTR_0015s06060.1"	369	"	"A/T"	"57,6/42,4"	"72/53"	125
stress_12bis	"POPTR_0015s06060.1"	369	"	"A/T"	"63,9/36,1"	"46/26"	72	stress_45	"POPTR_0015s06060.1"	369	"	"A/T"	"56,2/43,8"	"68/53"	121
stress_12bis	"POPTR_0008s09150.1"	291	"	"G/T"	"63,9/36,1"	"46/26"	72	stress_42	"POPTR_0008s09150.1"	291	"	"G/T"	"52,1/47,9"	"110/101"	211
stress_12bis	"POPTR_0008s09150.1"	291	"	"G/T"	"63,9/36,1"	"46/26"	72	stress_45	"POPTR_0008s09150.1"	291	"	"G/T"	"50,5/49,5"	"151/148"	299
stress_12bis	"POPTR_0013s13220.1"	696	"	"A/G"	"63,0/37,0"	"46/27"	73	stress_45	"POPTR_0013s13220.1"	696	"	"G/A"	"50,5/48,6"	"53/51"	105
stress_12bis	"POPTR_0008s20590.1"	525	"	"A/T"	"60,5/39,5"	"46/30"	76	stress_45	"POPTR_0008s20590.1"	525	"	"A/T"	"64,3/35,7"	"72/40"	112
stress_12bis	"POPTR_0012s07270.1"	663	"	"G/A"	"59,7/40,3"	"46/31"	77	stress_42	"POPTR_0012s07270.1"	663	"	"G/A"	"58,1/41,9"	"61/44"	105
stress_12bis	"POPTR_0012s07270.1"	663	"	"G/A"	"59,7/40,3"	"46/31"	77	stress_45	"POPTR_0012s07270.1"	663	"	"A/G"	"51,3/48,7"	"58/55"	113
stress_12bis	"POPTR_0012s07270.1"	683	"	"T/C"	"57,5/42,5"	"46/34"	80	stress_45	"POPTR_0012s07270.1"	683	"	"C/T"	"56,7/43,3"	"59/45"	104
stress_12bis	"POPTR_0012s07270.1"	501	"	"T/C"	"54,8/45,2"	"46/38"	84	stress_45	"POPTR_0012s07270.1"	501	"	"T/C"	"50,5/48,6"	"53/51"	105
stress_12bis	"POPTR_0007s08390.1"	1380	"	"C/T"	"54,8/45,2"	"46/38"	84	stress_45	"POPTR_0007s08390.1"	1380	"	"T/C"	"56,6/43,4"	"116/89"	205
stress_12bis	"POPTR_0001s47020.1"	2022	"	"T/C"	"74,6/25,4"	"47/16"	63	stress_45	"POPTR_0001s47020.1"	2022	"	"T/C"	"51,3/48,7"	"58/55"	113
stress_12bis	"POPTR_0001s10040.1"	327	"	"A/G"	"65,3/34,7"	"47/25"	72	stress_45	"POPTR_0001s10040.1"	327	"	"A/G"	"50,8/49,2"	"63/61"	124
stress_12bis	"POPTR_0005s11780.1"	615	"	"T/C"	"64,4/35,6"	"47/26"	73	stress_42	"POPTR_0005s11780.1"	615	"	"T/C"	"52,8/47,2"	"57/51"	108
stress_12bis	"POPTR_0005s11780.1"	615	"	"T/C"	"64,4/35,6"	"47/26"	73	stress_45	"POPTR_0005s11780.1"	615	"	"T/C"	"53,6/46,4"	"75/65"	140
stress_12bis	"POPTR_0003s18530.1"	936	"	"A/G"	"54,7/45,3"	"47/39"	86	stress_45	"POPTR_0003s18530.1"	936	"	"A/G"	"51,9/48,1"	"54/50"	104
stress_12bis	"POPTR_0014s02550.1"	1810	"	"C/T"	"54,0/46,0"	"47/40"	87	stress_42	"POPTR_0014s02550.1"	1810	"	"C/T"	"54,4/45,6"	"80/67"	147
stress_12bis	"POPTR_0014s02550.1"	1810	"	"C/T"	"54,0/46,0"	"47/40"	87	stress_45	"POPTR_0014s02550.1"	1810	"	"C/T"	"50,6/49,4"	"85/83"	168
stress_12bis	"POPTR_0015s06060.1"	288	"	"A/T"	"53,4/45,5"	"47/40"	88	stress_42	"POPTR_0015s06060.1"	288	"	"A/T"	"50,5/48,6"	"56/54"	111
stress_12bis	"POPTR_0015s06060.1"	288	"	"A/T"	"53,4/45,5"	"47/40"	88	stress_45	"POPTR_0015s06060.1"	288	"	"T/A"	"52,3/46,8"	"58/52"	111
stress_12bis	"POPTR_0004s17020.1"	1710	"	"T/A"	"50,5/49,5"	"47/46"	93	stress_42	"POPTR_0004s17020.1"	1710	"	"T/A"	"62,1/37,9"	"82/50"	132
stress_12bis	"POPTR_0004s17020.1"	1710	"	"T/A"	"50,5/49,5"	"47/46"	93	stress_45	"POPTR_0004s17020.1"	1710	"	"T/A"	"61,5/38,5"	"99/62"	161
stress_12bis	"POPTR_0013s03320.1"	209	"	"A/G"	"83,9/16,1"	"47/9"	56	stress_42	"POPTR_0013s03320.1"	209	"	"A/G"	"80,2/19,8"	"97/24"	121
stress_12bis	"POPTR_0013s03320.1"	209	"	"A/G"	"83,9/16,1"	"47/9"	56	stress_45	"POPTR_0013s03320.1"	209	"	"A/G"	"72,4/27,6"	"76/29"	105
stress_12bis	"POPTR_0008s15780.1"	428	"	"C/T"	"58,7/41,3"	"477/336"	813	stress_42	"POPTR_0008s15780.1"	428	"	"C/T"	"53,7/46,3"	"498/429"	927
stress_12bis	"POPTR_0008s15780.1"	428	"	"C/T"	"58,7/41,3"	"477/336"	813	stress_45	"POPTR_0008s15780.1"	428	"	"C/T"	"52,6/47,4"	"543/490"	1033
stress_12bis	"POPTR_0001s47020.1"	2043	"	"A/C"	"73,8/26,2"	"48/17"	65	stress_45	"POPTR_0001s47020.1"	2043	"	"A/C"	"50,4/48,9"	"67/65"	133
stress_12bis	"POPTR_0004s16740.1"	974	"	"T/A"	"68,6/31,4"	"48/22"	70	stress_42	"POPTR_0004s16740.1"	974	"	"T/A"	"58,5/41,5"	"69/49"	118
stress_12bis	"POPTR_0004s16740.1"	974	"	"T/A"	"68,6/31,4"	"48/22"	70	stress_45	"POPTR_0004s16740.1"	974	"	"T/A"	"64,9/34,2"	"72/38"	111
stress_12bis	"POPTR_0004s16740.1"	783	"	"T/C"	"67,6/32,4"	"48/23"	71	stress_42	"POPTR_0004s16740.1"	783	"	"T/C"	"60,0/40,0"	"63/42"	105
stress_12bis	"POPTR_0004s16740.1"	783	"	"T/C"	"67,6/32,4"	"48/23"	71	stress_45	"POPTR_0004s16740.1"	783	"	"T/C"	"72,7/27,3"	"88/33"	121
stress_12bis	"POPTR_0004s02080.1"	219	"	"C/T"	"65,8/34,2"	"48/25"	73	stress_42	"POPTR_0004s02080.1"	219	"	"C/T"	"60,2/39,8"	"71/47"	118
stress_12bis	"POPTR_0004s02080.1"	219	"	"C/T"	"65,8/34,2"	"48/25"	73	stress_45	"POPTR_0004s02080.1"	219	"	"C/T"	"55,3/44,7"	"120/97"	217
stress_12bis	"POPTR_0009s13890.1"	609	"	"T/C"	"64,0/36,0"	"48/27"	75	stress_45	"POPTR_0009s13890.1"	609	"	"T/C"	"69,3/30,7"	"95/42"	137
stress_12bis	"POPTR_0005s26220.1"	429	"	"T/A"	"63,2/36,8"	"48/28"	76	stress_42	"POPTR_0005s26220.1"	429	"	"T/A"	"61,4/38,6"	"108/68"	176
stress_12bis	"POPTR_0018s01420.1"	444	"	"G/A"	"60,8/39,2"	"48/31"	79	stress_45	"POPTR_0018s01420.1"	444	"	"G/A"	"52,3/47,7"	"56/51"	107
stress_12bis	"POPTR_0003s10720.1"	597	"	"C/T"	"60,0/40,0"	"48/32"	80	stress_45	"POPTR_0003s10720.1"	597	"	"T/C"	"52,9/47,1"	"55/49"	104
stress_12bis	"POPTR_0012s09570.1"	877	"	"C/A"	"56,5/43,5"	"48/37"	85	stress_42	"POPTR_0012s09570.1"	877	"	"C/A"	"52,6/47,4"	"80/72"	152
stress_12bis	"POPTR_0012s09570.1"	877	"	"C/A"	"56,5/43,5"	"48/37"	85	stress_45	"POPTR_0012s09570.1"	877	"	"A/C"	"51,8/47,6"	"88/81"	170
stress_12bis	"POPTR_0003s18530.1"	932	"	"A/C"	"53,9/46,1"	"48/41"	89	stress_45	"POPTR_0003s18530.1"	932	"	"A/C"	"50,9/49,1"	"54/52"	106
stress_12bis	"POPTR_0009s02070.1"	624	"	"A/G"	"51,6/48,4"	"48/45"	93	stress_42	"POPTR_0009s02070.1"	624	"	"A/G"	"59,3/40,7"	"73/50"	123
stress_12bis	"POPTR_0009s02070.1"	624	"	"A/G"	"51,6/48,4"	"48/45"	93	stress_45	"POPTR_0009s02070.1"	624	"	"A/G"	"54,9/45,1"	"101/83"	184
stress_12bis	"POPTR_0004s16740.1"	786	"	"A/G"	"68,1/31,9"	"49/23"	72	stress_45	"POPTR_0004s16740.1"	786	"	"A/G"	"74,4/25,6"	"90/31"	121
stress_12bis	"POPTR_0001s31700.1"	174	"	"T/C"	"68,1/31,9"	"49/23"	72	stress_45	"POPTR_0001s31700.1"	174	"	"T/C"	"64,3/35,0"	"90/49"	140
stress_12bis	"POPTR_0012s04550.1"	370	"	"T/C"	"67,1/32,9"	"49/24"	73	stress_45	"POPTR_0012s04550.1"	370	"	"T/C"	"62,5/36,5"	"65/38"	104
stress_12bis	"POPTR_0001s28970.1"	61	"	"T/C"	"56,3/42,5"	"49/37"	87	stress_45	"POPTR_0001s28970.1"	61	"	"T/C"	"52,7/47,3"	"78/70"	148
stress_12bis	"POPTR_0006s10080.1"	347	"	"T/A"	"55,1/44,9"	"49/40"	89	stress_45	"POPTR_0006s10080.1"	347	"	"A/T"	"51,7/48,3"	"106/99"	205
stress_12bis	"POPTR_0004s10660.1"	330	"	"C/T"	"52,7/47,3"	"49/44"	93	stress_42	"POPTR_0004s10660.1"	330	"	"T/C"	"64,9/35,1"	"96/52"	148
stress_12bis	"POPTR_0004s10660.1"	330	"	"C/T"	"52,7/47,3"	"49/44"	93	stress_45	"POPTR_0004s10660.1"	330	"	"T/C"	"62,3/37,7"	"104/63"	167
stress_12bis	"POPTR_0008s05870.1"	1353	"	"T/C"	"55,0/45,0"	"493/404"	897	stress_42	"POPTR_0008s05870.1"	1353	"	"C/T"	"52,8/47,2"	"151/135"	286
stress_12bis	"POPTR_0008s05870.1"	1353	"	"T/C"	"55,0/45,0"	"493/404"	897	stress_45	"POPTR_0008s05870.1"	1353	"	"C/T"	"57,6/42,4"	"174/128"	302
stress_12bis	"POPTR_0002s19060.1"	1143	"	"A/C"	"50,0/50,0"	"5/5"	10	stress_45	"POPTR_0002s19060.1"	1143	"	"C/A"	"51,4/48,6"	"56/53"	109
stress_12bis	"POPTR_0001s47020.1"	2032	"	"G/T"	"72,5/27,5"	"50/19"	69	stress_45	"POPTR_0001s47020.1"	2032	"	"G/T"	"55,8/44,2"	"63/50"	113
stress_12bis	"POPTR_0005s26220.1"	124	"	"C/T"	"68,5/31,5"	"50/23"	73	stress_42	"POPTR_0005s26220.1"	124	"	"C/T"	"66,8/33,2"	"125/62"	187
stress_12bis	"POPTR_0005s26220.1"	124	"	"C/T"	"68,5/31,5"	"50/23"	73	stress_45	"POPTR_0005s26220.1"	124	"	"C/T"	"68,0/32,0"	"102/48"	150
stress_12bis	"POPTR_0013s13220.1"	570	"	"A/G"	"63,3/36,7"	"50/29"	79	stress_45	"POPTR_0013s13220.1"	570	"	"G/A"	"51,5/48,5"	"69/65"	134
stress_12bis	"POPTR_0004s17610.1"	240	"	"C/T"	"61,0/39,0"	"50/32"	82	stress_42	"POPTR_0004s17610.1"	240	"	"C/T"	"64,3/35,7"	"164/91"	255
stress_12bis	"POPTR_0004s17610.1"	240	"	"C/T"	"61,0/39,0"	"50/32"	82	stress_45	"POPTR_0004s17610.1"	240	"	"C/T"	"66,9/33,1"	"251/124"	375
stress_12bis	"POPTR_0014s06370.1"	693	"	"G/A"	"56,8/43,2"	"50/38"	88	stress_45	"POPTR_0014s06370.1"	693	"	"A/G"	"59,5/40,5"	"66/45"	111
stress_12bis	"POPTR_0014s06370.1"	86	"	"A/G"	"53,2/46,8"	"50/44"	94	stress_45	"POPTR_0014s06370.1"	86	"	"G/A"	"53,4/46,6"	"62/54"	116
stress_12bis	"POPTR_0004s10660.1"	350	"	"C/G"	"53,2/46,8"	"50/44"	94	stress_42	"POPTR_0004s10660.1"	350	"	"G/C"	"63,0/37,0"	"87/51"	138
stress_12bis	"POPTR_0004s10660.1"	350	"	"C/G"	"53,2/46,8"	"50/44"	94	stress_45	"POPTR_0004s10660.1"	350	"	"G/C"	"57,8/42,2"	"100/73"	173
stress_12bis	"POPTR_0001s07520.1"	1110	"	"C/G"	"71,8/28,2"	"51/20"	71	stress_45	"POPTR_0001s07520.1"	1110	"	"C/G"	"69,7/30,3"	"85/37"	122
stress_12bis	"POPTR_0009s13890.1"	669	"	"G/A"	"68,0/32,0"	"51/24"	75	stress_45	"POPTR_0009s13890.1"	669	"	"G/A"	"65,2/34,8"	"86/46"	132
stress_12bis	"POPTR_0012s11630.1"	669	"	"A/G"	"57,3/42,7"	"51/38"	89	stress_42	"POPTR_0012s11630.1"	669	"	"A/G"	"62,1/37,9"	"64/39"	103
stress_12bis	"POPTR_0001s47020.1"	1719	"	"T/C"	"56,7/43,3"	"51/39"	90	stress_45	"POPTR_0001s47020.1"	1719	"	"C/T"	"55,9/44,1"	"81/64"	145
stress_12bis	"POPTR_0002s03020.1"	201	"	"A/G"	"56,0/44,0"	"51/40"	91	stress_42	"POPTR_0002s03020.1"	201	"	"G/A"	"77,7/22,3"	"143/41"	184
stress_12bis	"POPTR_0002s03020.1"	201	"	"A/G"	"56,0/44,0"	"51/40"	91	stress_45	"POPTR_0002s03020.1"	201	"	"G/A"	"78,3/21,7"	"260/72"	332
stress_12bis	"POPTR_0018s01420.1"	108	"	"C/A"	"54,3/45,7"	"51/43"	94	stress_45	"POPTR_0018s01420.1"	108	"	"C/A"	"53,4/46,6"	"62/54"	116
stress_12bis	"POPTR_0004s17020.1"	2085	"	"G/T"	"51,5/48,5"	"51/48"	99	stress_42	"POPTR_0004s17020.1"	2085	"	"G/T"	"59,7/40,3"	"114/77"	191
stress_12bis	"POPTR_0004s17020.1"	2085	"	"G/T"	"51,5/48,5"	"51/48"	99	stress_45	"POPTR_0004s17020.1"	2085	"	"G/T"	"66,0/33,5"	"138/70"	209
stress_12bis	"POPTR_0006s10080.1"	1234	"	"A/T"	"50,5/49,5"	"51/50"	101	stress_42	"POPTR_0006s10080.1"	1234	"	"A/T"	"55,6/44,4"	"60/48"	108
stress_12bis	"POPTR_0006s10080.1"	1234	"	"A/T"	"50,5/49,5"	"51/50"	101	stress_45	"POPTR_0006s10080.1"	1234	"	"A/T"	"51,7/48,3"	"119/111"	230
stress_12bis	"POPTR_0014s15710.1"	106	"	"C/T"	"50,5/49,5"	"51/50"	101	stress_42	"POPTR_0014s15710.1"	106	"	"T/C"	"63,1/36,9"	"41/24"	65
stress_12bis	"POPTR_0014s15710.1"	106	"	"C/T"	"50,5/49,5"	"51/50"	101	stress_45	"POPTR_0014s15710.1"	106	"	"T/C"	"59,7/40,3"	"43/29"	72
stress_12bis	"POPTR_0006s23580.1"	356	"	"A/T"	"50,0/50,0"	"51/51"	102	stress_42	"POPTR_0006s23580.1"	356	"	"T/A"	"55,8/44,2"	"111/88"	199
stress_12bis	"POPTR_0006s23580.1"	356	"	"A/T"	"50,0/50,0"	"51/51"	102	stress_45	"POPTR_0006s23580.1"	356	"	"A/T"	"54,6/45,0"	"136/112"	249
stress_12bis	"POPTR_0004s18190.1"	21	"	"A/T"	"50,0/50,0"	"51/51"	102	stress_42	"POPTR_0004s18190.1"	21	"	"T/A"	"52,6/47,4"	"10/9"	19
stress_12bis	"POPTR_0004s18190.1"	21	"	"A/T"	"50,0/50,0"	"51/51"	102	stress_45	"POPTR_0004s18190.1"	21	"	"T/A"	"52,4/47,6"	"11/10"	21
stress_12bis	"POPTR_0018s02230.1"	487	"	"A/G"	"75,4/23,2"	"52/16"	69	stress_42	"POPTR_0018s02230.1"	487	"	"A/G"	"61,7/38,3"	"71/44"	115
stress_12bis	"POPTR_0018s02230.1"	487	"	"A/G"	"75,4/23,2"	"52/16"	69	stress_45	"POPTR_0018s02230.1"	487	"	"A/G"	"62,5/37,5"	"65/39"	104
stress_12bis	"POPTR_0001s07520.1"	1111	"	"A/G"	"71,2/28,8"	"52/21"	73	stress_45	"POPTR_0001s07520.1"	1111	"	"A/G"	"69,9/30,1"	"86/37"	123
stress_12bis	"POPTR_0004s16740.1"	966	"	"A/T"	"68,4/31,6"	"52/24"	76	stress_42	"POPTR_0004s16740.1"	966	"	"A/T"	"60,2/39,8"	"74/49"	123
stress_12bis	"POPTR_0004s16740.1"	966	"	"A/T"	"68,4/31,6"	"52/24"	76	stress_45	"POPTR_0004s16740.1"	966	"	"A/T"	"65,3/34,7"	"77/41"	118
stress_12bis	"POPTR_0015s06060.1"	345	"	"C/T"	"61,2/38,8"	"52/33"	85	stress_42	"POPTR_0015s06060.1"	345	"	"C/T"	"52,1/47,9"	"76/70"	146
stress_12bis	"POPTR_0015s06060.1"	345	"	"C/T"	"61,2/38,8"	"52/33"	85	stress_45	"POPTR_0015s06060.1"	345	"	"C/T"	"61,3/38,7"	"68/43"	111
stress_12bis	"POPTR_0001s47020.1"	1869	"	"T/G"	"56,5/43,5"	"52/40"	92	stress_45	"POPTR_0001s47020.1"	1869	"	"G/T"	"50,0/50,0"	"81/81"	162
stress_12bis	"POPTR_0008s05480.1"	111	"	"C/T"	"52,0/48,0"	"52/48"	100	stress_45	"POPTR_0008s05480.1"	111	"	"T/C"	"53,1/46,9"	"78/69"	147
stress_12bis	"POPTR_0008s06580.1"	232	"	"T/G"	"51,5/48,5"	"52/49"	101	stress_42	"POPTR_0008s06580.1"	232	"	"G/T"	"60,7/39,3"	"324/210"	534
stress_12bis	"POPTR_0008s06580.1"	232	"	"T/G"	"51,5/48,5"	"52/49"	101	stress_45	"POPTR_0008s06580.1"	232	"	"G/T"	"57,8/42,2"	"413/302"	715
stress_12bis	"POPTR_0003s09830.1"	894	"	"C/T"	"51,0/49,0"	"52/50"	102	stress_42	"POPTR_0003s09830.1"	894	"	"T/C"	"61,5/38,5"	"16/10"	26
stress_12bis	"POPTR_0003s09830.1"	894	"	"C/T"	"51,0/49,0"	"52/50"	102	stress_45	"POPTR_0003s09830.1"	894	"	"C/T"	"50,0/50,0"	"10/10"	20
stress_12bis	"POPTR_0006s04960.1"	3732	"	"A/G"	"49,5/49,5"	"52/52"	105	stress_42	"POPTR_0006s04960.1"	3732	"	"G/A"	"55,9/44,1"	"19/15"	34
stress_12bis	"POPTR_0006s04960.1"	3732	"	"A/G"	"49,5/49,5"	"52/52"	105	stress_45	"POPTR_0006s04960.1"	3732	"	"A/G"	"53,0/47,0"	"35/31"	66
stress_12bis	"POPTR_0004s14780.1"	507	"	"C/T"	"50,0/50,0"	"52/52"	104	stress_42	"POPTR_0004s14780.1"	507	"	"C/T"	"54,9/45,1"	"28/23"	51
stress_12bis	"POPTR_0004s14780.1"	507	"	"C/T"	"50,0/50,0"	"52/52"	104	stress_45	"POPTR_0004s14780.1"	507	"	"C/T"	"50,9/49,1"	"29/28"	57
stress_12bis	"POPTR_0010s24290.1"	225	"	"A/C"	"53,9/46,1"	"521/445"	966	stress_42	"POPTR_0010s24290.1"	225	"	"C/A"	"57,5/42,5"	"1055/780"	1836
stress_12bis	"POPTR_0010s24290.1"	225	"	"A/C"	"53,9/46,1"	"521/445"	966	stress_45	"POPTR_0010s24290.1"	225	"	"C/A"	"62,7/37,1"	"864/511"	1377
stress_12bis	"POPTR_0018s00850.1"	285	"	"A/T"	"71,6/28,4"	"53/21"	74	stress_42	"POPTR_0018s00850.1"	285	"	"A/T"	"83,5/16,2"	"222/43"	266
stress_12bis	"POPTR_0018s00850.1"	285	"	"A/T"	"71,6/28,4"	"53/21"	74	stress_45	"POPTR_0018s00850.1"	285	"	"A/T"	"79,9/19,5"	"263/64"	329
stress_12bis	"POPTR_0018s02230.1"	483	"	"A/G"	"70,7/29,3"	"53/22"	75	stress_42	"POPTR_0018s02230.1"	483	"	"A/G"	"64,1/35,9"	"75/42"	117
stress_12bis	"POPTR_0018s02230.1"	483	"	"A/G"	"70,7/29,3"	"53/22"	75	stress_45	"POPTR_0018s02230.1"	483	"	"A/G"	"59,6/40,4"	"68/46"	114
stress_12bis	"POPTR_0012s09570.1"	279	"	"C/A"	"59,6/38,2"	"53/34"	89	stress_42	"POPTR_0012s09570.1"	279	"	"A/C"	"52,2/47,0"	"60/54"	115
stress_12bis	"POPTR_0012s09570.1"	279	"	"C/A"	"59,6/38,2"	"53/34"	89	stress_45	"POPTR_0012s09570.1"	279	"	"A/C"	"50,8/49,2"	"101/98"	199
stress_12bis	"POPTR_0004s16740.1"	882	"	"A/G"	"59,6/39,3"	"53/35"	89	stress_42	"POPTR_0004s16740.1"	882	"	"A/G"	"62,2/37,0"	"84/50"	135
stress_12bis	"POPTR_0004s16740.1"	882	"	"A/G"	"59,6/39,3"	"53/35"	89	stress_45	"POPTR_0004s16740.1"	882	"	"A/G"	"61,6/38,4"	"90/56"	146
stress_12bis	"POPTR_0013s13220.1"	471	"	"T/C"	"59,6/40,4"	"53/36"	89	stress_45	"POPTR_0013s13220.1"	471	"	"T/C"	"58,0/42,0"	"65/47"	112
stress_12bis	"POPTR_0016s02540.1"	399	"	"T/C"	"55,2/43,8"	"53/42"	96	stress_45	"POPTR_0016s02540.1"	399	"	"T/C"	"55,9/43,2"	"62/48"	111
stress_12bis	"POPTR_0006s24770.1"	655	"	"G/A"	"51,0/49,0"	"53/51"	104	stress_42	"POPTR_0006s24770.1"	655	"	"G/A"	"62,0/38,0"	"57/35"	92
stress_12bis	"POPTR_0006s24770.1"	655	"	"G/A"	"51,0/49,0"	"53/51"	104	stress_45	"POPTR_0006s24770.1"	655	"	"G/A"	"61,5/38,5"	"64/40"	104
stress_12bis	"POPTR_0018s11820.1"	990	"	"C/G"	"51,0/49,0"	"53/51"	104	stress_42	"POPTR_0018s11820.1"	990	"	"C/G"	"51,6/48,4"	"16/15"	31
stress_12bis	"POPTR_0018s11820.1"	990	"	"C/G"	"51,0/49,0"	"53/51"	104	stress_45	"POPTR_0018s11820.1"	990	"	"G/C"	"54,5/45,5"	"18/15"	33
stress_12bis	"POPTR_0004s01660.1"	537	"	"T/C"	"51,0/49,0"	"53/51"	104	stress_42	"POPTR_0004s01660.1"	537	"	"C/T"	"50,0/50,0"	"10/10"	20
stress_12bis	"POPTR_0004s01660.1"	537	"	"T/C"	"51,0/49,0"	"53/51"	104	stress_45	"POPTR_0004s01660.1"	537	"	"T/C"	"55,3/44,7"	"21/17"	38
stress_12bis	"POPTR_0009s11480.1"	675	"	"T/C"	"51,0/49,0"	"53/51"	104	stress_42	"POPTR_0009s11480.1"	675	"	"T/C"	"63,2/36,8"	"12/7"	19
stress_12bis	"POPTR_0009s11480.1"	675	"	"T/C"	"51,0/49,0"	"53/51"	104	stress_45	"POPTR_0009s11480.1"	675	"	"T/C"	"58,1/41,9"	"18/13"	31
stress_12bis	"POPTR_0015s06410.1"	435	"	"C/T"	"50,5/49,5"	"53/52"	105	stress_42	"POPTR_0015s06410.1"	435	"	"C/T"	"65,6/34,4"	"21/11"	32
stress_12bis	"POPTR_0015s06410.1"	435	"	"C/T"	"50,5/49,5"	"53/52"	105	stress_45	"POPTR_0015s06410.1"	435	"	"C/T"	"55,6/44,4"	"20/16"	36
stress_12bis	"POPTR_0010s12050.1"	181	"	"C/T"	"50,5/49,5"	"53/52"	105	stress_42	"POPTR_0010s12050.1"	181	"	"C/T"	"73,9/26,1"	"17/6"	23
stress_12bis	"POPTR_0010s12050.1"	181	"	"C/T"	"50,5/49,5"	"53/52"	105	stress_45	"POPTR_0010s12050.1"	181	"	"C/T"	"64,3/28,6"	"9/4"	14
stress_12bis	"POPTR_0012s09200.1"	539	"	"C/T"	"50,0/50,0"	"53/53"	106	stress_42	"POPTR_0012s09200.1"	539	"	"C/T"	"60,0/40,0"	"18/12"	30
stress_12bis	"POPTR_0012s09200.1"	539	"	"C/T"	"50,0/50,0"	"53/53"	106	stress_45	"POPTR_0012s09200.1"	539	"	"T/C"	"55,4/44,6"	"36/29"	65
stress_12bis	"POPTR_0008s15770.1"	93	"	"T/C"	"54,5/45,4"	"532/444"	977	stress_42	"POPTR_0008s15770.1"	93	"	"T/C"	"79,0/21,0"	"588/156"	744
stress_12bis	"POPTR_0008s15770.1"	93	"	"T/C"	"54,5/45,4"	"532/444"	977	stress_45	"POPTR_0008s15770.1"	93	"	"T/C"	"70,6/29,4"	"660/275"	935
stress_12bis	"POPTR_0004s16920.1"	42	"	"C/T"	"51,7/48,3"	"536/500"	1036	stress_42	"POPTR_0004s16920.1"	42	"	"C/T"	"66,7/33,3"	"54/27"	81
stress_12bis	"POPTR_0004s16920.1"	42	"	"C/T"	"51,7/48,3"	"536/500"	1036	stress_45	"POPTR_0004s16920.1"	42	"	"C/T"	"68,5/31,5"	"98/45"	143
stress_12bis	"POPTR_0006s14400.1"	1068	"	"G/T"	"71,1/28,9"	"54/22"	76	stress_42	"POPTR_0006s14400.1"	1068	"	"G/T"	"50,0/49,3"	"69/68"	138
stress_12bis	"POPTR_0006s14400.1"	1068	"	"G/T"	"71,1/28,9"	"54/22"	76	stress_45	"POPTR_0006s14400.1"	1068	"	"T/G"	"54,5/44,7"	"67/55"	123
stress_12bis	"POPTR_0001s47020.1"	1257	"	"C/T"	"67,5/32,5"	"54/26"	80	stress_45	"POPTR_0001s47020.1"	1257	"	"C/T"	"50,4/49,6"	"62/61"	123
stress_12bis	"POPTR_0004s02080.1"	411	"	"A/T"	"65,1/34,9"	"54/29"	83	stress_42	"POPTR_0004s02080.1"	411	"	"A/T"	"51,4/48,6"	"55/52"	107
stress_12bis	"POPTR_0004s02080.1"	411	"	"A/T"	"65,1/34,9"	"54/29"	83	stress_45	"POPTR_0004s02080.1"	411	"	"T/A"	"56,3/43,7"	"107/83"	190
stress_12bis	"POPTR_0002s05840.1"	627	"	"T/G"	"64,3/35,7"	"54/30"	84	stress_42	"POPTR_0002s05840.1"	627	"	"T/G"	"59,8/40,2"	"98/66"	164
stress_12bis	"POPTR_0002s05840.1"	627	"	"T/G"	"64,3/35,7"	"54/30"	84	stress_45	"POPTR_0002s05840.1"	627	"	"T/G"	"65,4/34,6"	"117/62"	179
stress_12bis	"POPTR_0006s10080.1"	487	"	"C/T"	"62,1/37,9"	"54/33"	87	stress_45	"POPTR_0006s10080.1"	487	"	"T/C"	"56,5/43,5"	"96/74"	170
stress_12bis	"POPTR_0014s02410.1"	929	"	"T/A"	"60,7/39,3"	"54/35"	89	stress_42	"POPTR_0014s02410.1"	929	"	"T/A"	"54,9/45,1"	"79/65"	144
stress_12bis	"POPTR_0014s02410.1"	929	"	"T/A"	"60,7/39,3"	"54/35"	89	stress_45	"POPTR_0014s02410.1"	929	"	"A/T"	"54,9/45,1"	"145/119"	264
stress_12bis	"POPTR_0001s12630.1"	144	"	"T/C"	"60,7/39,3"	"54/35"	89	stress_42	"POPTR_0001s12630.1"	144	"	"T/C"	"52,2/47,8"	"72/66"	138
stress_12bis	"POPTR_0001s12630.1"	144	"	"T/C"	"60,7/39,3"	"54/35"	89	stress_45	"POPTR_0001s12630.1"	144	"	"T/C"	"54,9/45,1"	"101/83"	184
stress_12bis	"POPTR_0005s21750.1"	367	"	"A/G"	"58,1/41,9"	"54/39"	93	stress_45	"POPTR_0005s21750.1"	367	"	"A/G"	"55,6/44,4"	"60/48"	108
stress_12bis	"POPTR_0001s12630.1"	141	"	"T/C"	"58,1/41,9"	"54/39"	93	stress_42	"POPTR_0001s12630.1"	141	"	"C/T"	"50,7/48,6"	"70/67"	138
stress_12bis	"POPTR_0001s12630.1"	141	"	"T/C"	"58,1/41,9"	"54/39"	93	stress_45	"POPTR_0001s12630.1"	141	"	"T/C"	"54,3/45,7"	"101/85"	186
stress_12bis	"POPTR_0001s12630.1"	423	"	"G/T"	"57,4/42,6"	"54/40"	94	stress_42	"POPTR_0001s12630.1"	423	"	"G/T"	"59,7/40,3"	"80/54"	134
stress_12bis	"POPTR_0001s12630.1"	423	"	"G/T"	"57,4/42,6"	"54/40"	94	stress_45	"POPTR_0001s12630.1"	423	"	"G/T"	"64,4/35,6"	"76/42"	118
stress_12bis	"POPTR_0003s18530.1"	903	"	"A/T"	"56,2/43,8"	"54/42"	96	stress_45	"POPTR_0003s18530.1"	903	"	"A/T"	"52,1/47,9"	"63/58"	121
stress_12bis	"POPTR_0008s15050.1"	1314	"	"T/A"	"53,5/46,5"	"54/47"	101	stress_42	"POPTR_0008s15050.1"	1314	"	"T/A"	"57,7/42,3"	"41/30"	71
stress_12bis	"POPTR_0008s15050.1"	1314	"	"T/A"	"53,5/46,5"	"54/47"	101	stress_45	"POPTR_0008s15050.1"	1314	"	"T/A"	"63,1/36,9"	"53/31"	84
stress_12bis	"POPTR_0006s10080.1"	1206	"	"C/T"	"52,9/47,1"	"54/48"	102	stress_42	"POPTR_0006s10080.1"	1206	"	"C/T"	"52,1/47,9"	"61/56"	117
stress_12bis	"POPTR_0006s10080.1"	1206	"	"C/T"	"52,9/47,1"	"54/48"	102	stress_45	"POPTR_0006s10080.1"	1206	"	"C/T"	"51,4/48,6"	"107/101"	208
stress_12bis	"POPTR_0006s04960.1"	2832	"	"A/C"	"51,9/48,1"	"54/50"	104	stress_42	"POPTR_0006s04960.1"	2832	"	"C/A"	"54,3/45,7"	"19/16"	35
stress_12bis	"POPTR_0006s04960.1"	2832	"	"A/C"	"51,9/48,1"	"54/50"	104	stress_45	"POPTR_0006s04960.1"	2832	"	"A/C"	"56,9/43,1"	"29/22"	51
stress_12bis	"POPTR_0016s14310.1"	111	"	"C/T"	"51,9/48,1"	"54/50"	104	stress_45	"POPTR_0016s14310.1"	111	"	"T/C"	"84,6/15,4"	"11/2"	13
stress_12bis	"POPTR_0005s04090.1"	135	"	"T/C"	"51,4/48,6"	"54/51"	105	stress_42	"POPTR_0005s04090.1"	135	"	"T/C"	"54,1/45,9"	"20/17"	37
stress_12bis	"POPTR_0005s04090.1"	135	"	"T/C"	"51,4/48,6"	"54/51"	105	stress_45	"POPTR_0005s04090.1"	135	"	"T/C"	"54,8/45,2"	"23/19"	42
stress_12bis	"POPTR_0012s07060.1"	1380	"	"G/A"	"50,9/49,1"	"54/52"	106	stress_42	"POPTR_0012s07060.1"	1380	"	"G/A"	"52,6/47,4"	"40/36"	76
stress_12bis	"POPTR_0012s07060.1"	1380	"	"G/A"	"50,9/49,1"	"54/52"	106	stress_45	"POPTR_0012s07060.1"	1380	"	"A/G"	"58,3/41,7"	"67/48"	115
stress_12bis	"POPTR_0006s12910.1"	658	"	"T/A"	"50,5/49,5"	"54/53"	107	stress_42	"POPTR_0006s12910.1"	658	"	"T/A"	"54,6/45,4"	"53/44"	97
stress_12bis	"POPTR_0006s12910.1"	658	"	"T/A"	"50,5/49,5"	"54/53"	107	stress_45	"POPTR_0006s12910.1"	658	"	"A/T"	"56,5/43,5"	"78/60"	138
stress_12bis	"POPTR_0004s16920.1"	561	"	"C/T"	"54,9/45,0"	"546/447"	994	stress_42	"POPTR_0004s16920.1"	561	"	"C/T"	"61,0/39,0"	"64/41"	105
stress_12bis	"POPTR_0004s16920.1"	561	"	"C/T"	"54,9/45,0"	"546/447"	994	stress_45	"POPTR_0004s16920.1"	561	"	"C/T"	"63,4/36,6"	"90/52"	142
stress_12bis	"POPTR_0001s31700.1"	972	"	"T/A"	"54,5/45,5"	"55/46"	101	stress_42	"POPTR_0001s31700.1"	972	"	"T/A"	"53,1/46,2"	"76/66"	143
stress_12bis	"POPTR_0001s31700.1"	972	"	"T/A"	"54,5/45,5"	"55/46"	101	stress_45	"POPTR_0001s31700.1"	972	"	"T/A"	"52,3/47,2"	"101/91"	193
stress_12bis	"POPTR_0014s06380.1"	130	"	"G/A"	"53,9/46,1"	"55/47"	102	stress_42	"POPTR_0014s06380.1"	130	"	"G/A"	"60,0/40,0"	"63/42"	105
stress_12bis	"POPTR_0014s06380.1"	130	"	"G/A"	"53,9/46,1"	"55/47"	102	stress_45	"POPTR_0014s06380.1"	130	"	"G/A"	"60,0/40,0"	"72/48"	120
stress_12bis	"POPTR_0008s06580.1"	675	"	"G/C"	"53,4/46,6"	"55/48"	103	stress_42	"POPTR_0008s06580.1"	675	"	"C/G"	"58,6/41,4"	"320/226"	546
stress_12bis	"POPTR_0008s06580.1"	675	"	"G/C"	"53,4/46,6"	"55/48"	103	stress_45	"POPTR_0008s06580.1"	675	"	"C/G"	"59,3/40,7"	"399/274"	673
stress_12bis	"POPTR_0009s13650.1"	543	"	"A/G"	"52,4/47,6"	"55/50"	105	stress_42	"POPTR_0009s13650.1"	543	"	"G/A"	"67,3/32,7"	"35/17"	52
stress_12bis	"POPTR_0009s13650.1"	543	"	"A/G"	"52,4/47,6"	"55/50"	105	stress_45	"POPTR_0009s13650.1"	543	"	"A/G"	"64,3/35,7"	"27/15"	42
stress_12bis	"POPTR_0006s14630.1"	104	"	"C/A"	"51,9/48,1"	"55/51"	106	stress_42	"POPTR_0006s14630.1"	104	"	"C/A"	"60,4/39,6"	"29/19"	48
stress_12bis	"POPTR_0006s14630.1"	104	"	"C/A"	"51,9/48,1"	"55/51"	106	stress_45	"POPTR_0006s14630.1"	104	"	"C/A"	"53,8/46,2"	"21/18"	39
stress_12bis	"POPTR_0016s02540.1"	339	"	"T/C"	"51,9/48,1"	"55/51"	106	stress_42	"POPTR_0016s02540.1"	339	"	"T/C"	"52,9/47,1"	"46/41"	87
stress_12bis	"POPTR_0016s02540.1"	339	"	"T/C"	"51,9/48,1"	"55/51"	106	stress_45	"POPTR_0016s02540.1"	339	"	"T/C"	"50,8/49,2"	"64/62"	126
stress_12bis	"POPTR_0010s01700.1"	135	"	"T/C"	"58,3/41,5"	"550/392"	944	stress_42	"POPTR_0010s01700.1"	135	"	"T/C"	"58,7/41,2"	"559/393"	953
stress_12bis	"POPTR_0010s01700.1"	135	"	"T/C"	"58,3/41,5"	"550/392"	944	stress_45	"POPTR_0010s01700.1"	135	"	"T/C"	"58,6/41,4"	"587/414"	1001
stress_12bis	"POPTR_0018s01420.1"	576	"	"C/T"	"64,4/35,6"	"56/31"	87	stress_45	"POPTR_0018s01420.1"	576	"	"C/T"	"58,2/41,8"	"85/61"	146
stress_12bis	"POPTR_0001s47020.1"	1500	"	"C/T"	"57,1/42,9"	"56/42"	98	stress_45	"POPTR_0001s47020.1"	1500	"	"C/T"	"57,4/42,6"	"74/55"	129
stress_12bis	"POPTR_0002s03020.1"	30	"	"C/T"	"56,6/43,4"	"56/43"	99	stress_42	"POPTR_0002s03020.1"	30	"	"C/T"	"74,5/25,5"	"102/35"	137
stress_12bis	"POPTR_0002s03020.1"	30	"	"C/T"	"56,6/43,4"	"56/43"	99	stress_45	"POPTR_0002s03020.1"	30	"	"C/T"	"74,9/25,1"	"251/84"	335
stress_12bis	"POPTR_0010s21270.1"	918	"	"A/T"	"55,4/44,6"	"56/45"	101	stress_42	"POPTR_0010s21270.1"	918	"	"A/T"	"69,4/30,6"	"25/11"	36
stress_12bis	"POPTR_0010s21270.1"	918	"	"A/T"	"55,4/44,6"	"56/45"	101	stress_45	"POPTR_0010s21270.1"	918	"	"A/T"	"58,4/40,4"	"52/36"	89
stress_12bis	"POPTR_0003s11300.1"	1209	"	"T/C"	"54,4/45,6"	"56/47"	103	stress_42	"POPTR_0003s11300.1"	1209	"	"T/C"	"63,6/36,4"	"7/4"	11
stress_12bis	"POPTR_0003s11300.1"	1209	"	"T/C"	"54,4/45,6"	"56/47"	103	stress_45	"POPTR_0003s11300.1"	1209	"	"T/C"	"58,3/41,7"	"14/10"	24
stress_12bis	"POPTR_0001s47020.1"	1757	"	"A/G"	"51,9/48,1"	"56/52"	108	stress_42	"POPTR_0001s47020.1"	1757	"	"G/A"	"56,4/43,6"	"53/41"	94
stress_12bis	"POPTR_0001s47020.1"	1757	"	"A/G"	"51,9/48,1"	"56/52"	108	stress_45	"POPTR_0001s47020.1"	1757	"	"G/A"	"54,6/45,4"	"95/79"	174
stress_12bis	"POPTR_0003s20840.1"	1488	"	"A/G"	"50,5/49,5"	"56/55"	111	stress_42	"POPTR_0003s20840.1"	1488	"	"A/G"	"53,3/46,7"	"16/14"	30
stress_12bis	"POPTR_0003s20840.1"	1488	"	"A/G"	"50,5/49,5"	"56/55"	111	stress_45	"POPTR_0003s20840.1"	1488	"	"A/G"	"56,8/43,2"	"21/16"	37
stress_12bis	"POPTR_0014s02410.1"	53	"	"T/A"	"63,3/36,7"	"57/33"	90	stress_45	"POPTR_0014s02410.1"	53	"	"T/A"	"54,6/45,4"	"106/88"	194
stress_12bis	"POPTR_0004s17020.1"	702	"	"G/A"	"57,6/42,4"	"57/42"	99	stress_45	"POPTR_0004s17020.1"	702	"	"G/A"	"66,2/33,8"	"102/52"	154
stress_12bis	"POPTR_0002s03020.1"	36	"	"A/C"	"56,4/43,6"	"57/44"	101	stress_42	"POPTR_0002s03020.1"	36	"	"A/C"	"74,5/25,5"	"111/38"	149
stress_12bis	"POPTR_0002s03020.1"	36	"	"A/C"	"56,4/43,6"	"57/44"	101	stress_45	"POPTR_0002s03020.1"	36	"	"A/C"	"75,7/24,3"	"268/86"	354
stress_12bis	"POPTR_0012s07060.1"	720	"	"A/T"	"55,3/44,7"	"57/46"	103	stress_42	"POPTR_0012s07060.1"	720	"	"A/T"	"68,5/31,5"	"37/17"	54
stress_12bis	"POPTR_0012s07060.1"	720	"	"A/T"	"55,3/44,7"	"57/46"	103	stress_45	"POPTR_0012s07060.1"	720	"	"A/T"	"51,3/48,7"	"40/38"	78
stress_12bis	"POPTR_0001s40700.1"	288	"	"C/T"	"55,3/44,7"	"57/46"	103	stress_42	"POPTR_0001s40700.1"	288	"	"C/T"	"60,5/39,5"	"26/17"	43
stress_12bis	"POPTR_0001s40700.1"	288	"	"C/T"	"55,3/44,7"	"57/46"	103	stress_45	"POPTR_0001s40700.1"	288	"	"C/T"	"71,8/28,2"	"51/20"	71
stress_12bis	"POPTR_0006s04960.1"	3651	"	"A/G"	"54,8/45,2"	"57/47"	104	stress_42	"POPTR_0006s04960.1"	3651	"	"G/A"	"59,3/40,7"	"35/24"	59
stress_12bis	"POPTR_0006s04960.1"	3651	"	"A/G"	"54,8/45,2"	"57/47"	104	stress_45	"POPTR_0006s04960.1"	3651	"	"G/A"	"53,2/46,8"	"33/29"	62
stress_12bis	"POPTR_0009s11480.1"	666	"	"G/A"	"54,8/45,2"	"57/47"	104	stress_42	"POPTR_0009s11480.1"	666	"	"G/A"	"55,6/44,4"	"10/8"	18
stress_12bis	"POPTR_0009s11480.1"	666	"	"G/A"	"54,8/45,2"	"57/47"	104	stress_45	"POPTR_0009s11480.1"	666	"	"G/A"	"51,5/48,5"	"17/16"	33
stress_12bis	"POPTR_0019s11720.1"	42	"	"C/G"	"54,3/45,7"	"57/48"	105	stress_42	"POPTR_0019s11720.1"	42	"	"G/C"	"64,0/36,0"	"16/9"	25
stress_12bis	"POPTR_0019s11720.1"	42	"	"C/G"	"54,3/45,7"	"57/48"	105	stress_45	"POPTR_0019s11720.1"	42	"	"C/G"	"53,5/46,5"	"23/20"	43
stress_12bis	"POPTR_0016s11610.1"	1110	"	"C/G"	"53,8/46,2"	"57/49"	106	stress_42	"POPTR_0016s11610.1"	1110	"	"C/G"	"59,3/40,7"	"35/24"	59
stress_12bis	"POPTR_0016s11610.1"	1110	"	"C/G"	"53,8/46,2"	"57/49"	106	stress_45	"POPTR_0016s11610.1"	1110	"	"C/G"	"50,8/49,2"	"33/32"	65
stress_12bis	"POPTR_0008s03160.1"	1094	"	"A/G"	"53,3/46,7"	"57/50"	107	stress_42	"POPTR_0008s03160.1"	1094	"	"G/A"	"56,2/43,8"	"27/21"	48
stress_12bis	"POPTR_0008s03160.1"	1094	"	"A/G"	"53,3/46,7"	"57/50"	107	stress_45	"POPTR_0008s03160.1"	1094	"	"A/G"	"50,0/50,0"	"23/23"	46
stress_12bis	"POPTR_0008s03160.1"	537	"	"T/C"	"52,3/46,8"	"57/51"	109	stress_42	"POPTR_0008s03160.1"	537	"	"T/C"	"64,0/36,0"	"16/9"	25
stress_12bis	"POPTR_0008s03160.1"	537	"	"T/C"	"52,3/46,8"	"57/51"	109	stress_45	"POPTR_0008s03160.1"	537	"	"T/C"	"53,2/43,5"	"33/27"	62
stress_12bis	"POPTR_0014s06370.1"	668	"	"C/T"	"52,3/47,7"	"57/52"	109	stress_42	"POPTR_0014s06370.1"	668	"	"T/C"	"52,1/47,9"	"37/34"	71
stress_12bis	"POPTR_0014s06370.1"	668	"	"C/T"	"52,3/47,7"	"57/52"	109	stress_45	"POPTR_0014s06370.1"	668	"	"T/C"	"58,5/41,5"	"83/59"	142
stress_12bis	"POPTR_0014s06370.1"	132	"	"C/G"	"51,8/48,2"	"57/53"	110	stress_42	"POPTR_0014s06370.1"	132	"	"G/C"	"69,8/30,2"	"30/13"	43
stress_12bis	"POPTR_0014s06370.1"	132	"	"C/G"	"51,8/48,2"	"57/53"	110	stress_45	"POPTR_0014s06370.1"	132	"	"G/C"	"58,3/41,7"	"63/45"	108
stress_12bis	"POPTR_0010s14080.1"	1967	"	"C/T"	"51,4/47,7"	"57/53"	111	stress_42	"POPTR_0010s14080.1"	1967	"	"C/T"	"65,4/34,6"	"17/9"	26
stress_12bis	"POPTR_0010s14080.1"	1967	"	"C/T"	"51,4/47,7"	"57/53"	111	stress_45	"POPTR_0010s14080.1"	1967	"	"C/T"	"65,4/34,6"	"34/18"	52
stress_12bis	"POPTR_0014s06380.1"	274	"	"T/A"	"50,9/49,1"	"57/55"	112	stress_42	"POPTR_0014s06380.1"	274	"	"A/T"	"62,2/37,8"	"61/37"	98
stress_12bis	"POPTR_0014s06380.1"	274	"	"T/A"	"50,9/49,1"	"57/55"	112	stress_45	"POPTR_0014s06380.1"	274	"	"A/T"	"61,6/38,4"	"77/48"	125
stress_12bis	"POPTR_0001s37480.1"	480	"	"A/G"	"81,7/18,3"	"58/13"	71	stress_45	"POPTR_0001s37480.1"	480	"	"A/G"	"83,2/16,8"	"104/21"	125
stress_12bis	"POPTR_0009s13890.1"	735	"	"T/C"	"67,4/32,6"	"58/28"	86	stress_45	"POPTR_0009s13890.1"	735	"	"T/C"	"67,8/32,2"	"82/39"	121
stress_12bis	"POPTR_0009s13890.1"	346	"	"A/C"	"63,0/37,0"	"58/34"	92	stress_42	"POPTR_0009s13890.1"	346	"	"A/C"	"66,7/33,3"	"72/36"	108
stress_12bis	"POPTR_0009s13890.1"	346	"	"A/C"	"63,0/37,0"	"58/34"	92	stress_45	"POPTR_0009s13890.1"	346	"	"A/C"	"69,3/29,9"	"95/41"	137
stress_12bis	"POPTR_0001s47020.1"	1545	"	"C/T"	"57,4/42,6"	"58/43"	101	stress_42	"POPTR_0001s47020.1"	1545	"	"T/C"	"51,6/48,4"	"47/44"	91
stress_12bis	"POPTR_0001s47020.1"	1545	"	"C/T"	"57,4/42,6"	"58/43"	101	stress_45	"POPTR_0001s47020.1"	1545	"	"T/C"	"50,6/49,4"	"89/87"	176
stress_12bis	"POPTR_0006s10130.1"	681	"	"G/T"	"56,9/43,1"	"58/44"	102	stress_42	"POPTR_0006s10130.1"	681	"	"T/G"	"54,8/45,2"	"34/28"	62
stress_12bis	"POPTR_0006s10130.1"	681	"	"G/T"	"56,9/43,1"	"58/44"	102	stress_45	"POPTR_0006s10130.1"	681	"	"G/T"	"59,4/36,6"	"60/37"	101
stress_12bis	"POPTR_0013s00850.1"	252	"	"T/C"	"56,9/43,1"	"58/44"	102	stress_42	"POPTR_0013s00850.1"	252	"	"T/C"	"55,7/44,3"	"187/149"	336
stress_12bis	"POPTR_0013s00850.1"	252	"	"T/C"	"56,9/43,1"	"58/44"	102	stress_45	"POPTR_0013s00850.1"	252	"	"T/C"	"60,0/40,0"	"129/86"	215
stress_12bis	"POPTR_0003s20840.1"	448	"	"G/A"	"56,3/43,7"	"58/45"	103	stress_42	"POPTR_0003s20840.1"	448	"	"A/G"	"53,3/46,7"	"8/7"	15
stress_12bis	"POPTR_0003s20840.1"	448	"	"G/A"	"56,3/43,7"	"58/45"	103	stress_45	"POPTR_0003s20840.1"	448	"	"A/G"	"64,0/36,0"	"16/9"	25
stress_12bis	"POPTR_0008s06580.1"	687	"	"A/G"	"56,3/43,7"	"58/45"	103	stress_42	"POPTR_0008s06580.1"	687	"	"G/A"	"55,3/44,7"	"291/235"	526
stress_12bis	"POPTR_0008s06580.1"	687	"	"A/G"	"56,3/43,7"	"58/45"	103	stress_45	"POPTR_0008s06580.1"	687	"	"G/A"	"56,3/43,7"	"374/290"	664
stress_12bis	"POPTR_0019s05950.1"	778	"	"G/T"	"53,7/45,4"	"58/49"	108	stress_42	"POPTR_0019s05950.1"	778	"	"T/G"	"63,0/37,0"	"17/10"	27
stress_12bis	"POPTR_0019s05950.1"	778	"	"G/T"	"53,7/45,4"	"58/49"	108	stress_45	"POPTR_0019s05950.1"	778	"	"G/T"	"50,0/41,7"	"6/5"	12
stress_12bis	"POPTR_0014s13560.1"	354	"	"C/T"	"53,2/45,9"	"58/50"	109	stress_42	"POPTR_0014s13560.1"	354	"	"C/T"	"85,0/15,0"	"34/6"	40
stress_12bis	"POPTR_0014s13560.1"	354	"	"C/T"	"53,2/45,9"	"58/50"	109	stress_45	"POPTR_0014s13560.1"	354	"	"C/T"	"66,2/33,8"	"53/27"	80
stress_12bis	"POPTR_0004s10660.1"	447	"	"A/T"	"50,9/49,1"	"58/56"	114	stress_42	"POPTR_0004s10660.1"	447	"	"T/A"	"60,3/38,2"	"82/52"	136
stress_12bis	"POPTR_0004s10660.1"	447	"	"A/T"	"50,9/49,1"	"58/56"	114	stress_45	"POPTR_0004s10660.1"	447	"	"T/A"	"56,7/43,3"	"106/81"	187
stress_12bis	"POPTR_0004s16920.1"	328	"	"A/G"	"54,4/45,6"	"587/492"	1079	stress_42	"POPTR_0004s16920.1"	328	"	"G/A"	"57,8/42,2"	"59/43"	102
stress_12bis	"POPTR_0004s16920.1"	328	"	"A/G"	"54,4/45,6"	"587/492"	1079	stress_45	"POPTR_0004s16920.1"	328	"	"G/A"	"64,5/34,9"	"98/53"	152
stress_12bis	"POPTR_0011s05250.1"	1644	"	"C/T"	"74,7/25,3"	"59/20"	79	stress_45	"POPTR_0011s05250.1"	1644	"	"C/T"	"57,1/42,9"	"80/60"	140
stress_12bis	"POPTR_0009s13890.1"	697	"	"G/A"	"72,8/27,2"	"59/22"	81	stress_45	"POPTR_0009s13890.1"	697	"	"G/A"	"66,7/33,3"	"84/42"	126
stress_12bis	"POPTR_0002s03020.1"	573	"	"T/C"	"59,0/41,0"	"59/41"	100	stress_42	"POPTR_0002s03020.1"	573	"	"T/C"	"82,1/17,9"	"170/37"	207
stress_12bis	"POPTR_0002s03020.1"	573	"	"T/C"	"59,0/41,0"	"59/41"	100	stress_45	"POPTR_0002s03020.1"	573	"	"T/C"	"84,6/15,4"	"318/58"	376
stress_12bis	"POPTR_0007s09630.1"	126	"	"G/C"	"56,2/43,8"	"59/46"	105	stress_42	"POPTR_0007s09630.1"	126	"	"G/C"	"66,7/33,3"	"8/4"	12
stress_12bis	"POPTR_0007s09630.1"	126	"	"G/C"	"56,2/43,8"	"59/46"	105	stress_45	"POPTR_0007s09630.1"	126	"	"G/C"	"58,3/41,7"	"14/10"	24
stress_12bis	"POPTR_0016s08580.1"	616	"	"A/T"	"56,2/43,8"	"59/46"	105	stress_42	"POPTR_0016s08580.1"	616	"	"A/T"	"59,8/40,2"	"52/35"	87
stress_12bis	"POPTR_0016s08580.1"	616	"	"A/T"	"56,2/43,8"	"59/46"	105	stress_45	"POPTR_0016s08580.1"	616	"	"A/T"	"59,2/40,8"	"74/51"	125
stress_12bis	"POPTR_0004s14780.1"	498	"	"A/G"	"54,6/45,4"	"59/49"	108	stress_42	"POPTR_0004s14780.1"	498	"	"G/A"	"51,1/48,9"	"24/23"	47
stress_12bis	"POPTR_0004s14780.1"	498	"	"A/G"	"54,6/45,4"	"59/49"	108	stress_45	"POPTR_0004s14780.1"	498	"	"A/G"	"51,7/48,3"	"30/28"	58
stress_12bis	"POPTR_0006s04960.1"	3976	"	"G/T"	"53,2/46,8"	"59/52"	111	stress_42	"POPTR_0006s04960.1"	3976	"	"T/G"	"55,3/44,7"	"26/21"	47
stress_12bis	"POPTR_0006s04960.1"	3976	"	"G/T"	"53,2/46,8"	"59/52"	111	stress_45	"POPTR_0006s04960.1"	3976	"	"G/T"	"56,2/43,8"	"36/28"	64
stress_12bis	"POPTR_0001s31700.1"	960	"	"C/T"	"52,7/47,3"	"59/53"	112	stress_42	"POPTR_0001s31700.1"	960	"	"C/T"	"59,4/40,6"	"85/58"	143
stress_12bis	"POPTR_0001s31700.1"	960	"	"C/T"	"52,7/47,3"	"59/53"	112	stress_45	"POPTR_0001s31700.1"	960	"	"C/T"	"56,4/43,6"	"115/89"	204
stress_12bis	"POPTR_0006s05160.1"	852	"	"C/T"	"52,2/47,8"	"59/54"	113	stress_42	"POPTR_0006s05160.1"	852	"	"C/T"	"50,0/50,0"	"22/22"	44
stress_12bis	"POPTR_0006s05160.1"	852	"	"C/T"	"52,2/47,8"	"59/54"	113	stress_45	"POPTR_0006s05160.1"	852	"	"T/C"	"60,0/40,0"	"36/24"	60
stress_12bis	"POPTR_0008s05480.1"	24	"	"G/T"	"50,9/49,1"	"59/57"	116	stress_42	"POPTR_0008s05480.1"	24	"	"T/G"	"66,0/34,0"	"35/18"	53
stress_12bis	"POPTR_0008s05480.1"	24	"	"G/T"	"50,9/49,1"	"59/57"	116	stress_45	"POPTR_0008s05480.1"	24	"	"T/G"	"68,8/31,2"	"88/40"	128
stress_12bis	"POPTR_0016s07280.1"	672	"	"T/C"	"50,0/49,2"	"59/58"	118	stress_42	"POPTR_0016s07280.1"	672	"	"C/T"	"55,0/45,0"	"22/18"	40
stress_12bis	"POPTR_0016s07280.1"	672	"	"T/C"	"50,0/49,2"	"59/58"	118	stress_45	"POPTR_0016s07280.1"	672	"	"C/T"	"61,8/38,2"	"34/21"	55
stress_12bis	"POPTR_0005s22780.1"	240	"	"A/G"	"50,0/50,0"	"59/59"	118	stress_42	"POPTR_0005s22780.1"	240	"	"A/G"	"55,8/44,2"	"24/19"	43
stress_12bis	"POPTR_0005s22780.1"	240	"	"A/G"	"50,0/50,0"	"59/59"	118	stress_45	"POPTR_0005s22780.1"	240	"	"A/G"	"63,4/36,6"	"26/15"	41
stress_12bis	"POPTR_0008s19370.1"	866	"	"A/C"	"63,8/36,2"	"593/337"	930	stress_42	"POPTR_0008s19370.1"	866	"	"A/C"	"73,3/26,7"	"55/20"	75
stress_12bis	"POPTR_0008s19370.1"	866	"	"A/C"	"63,8/36,2"	"593/337"	930	stress_45	"POPTR_0008s19370.1"	866	"	"A/C"	"69,4/30,6"	"34/15"	49
stress_12bis	"POPTR_0017s08610.1"	1095	"	"C/T"	"60,0/40,0"	"6/4"	10	stress_42	"POPTR_0017s08610.1"	1095	"	"T/C"	"65,7/34,3"	"94/49"	143
stress_12bis	"POPTR_0017s08610.1"	1095	"	"C/T"	"60,0/40,0"	"6/4"	10	stress_45	"POPTR_0017s08610.1"	1095	"	"T/C"	"60,1/39,9"	"161/107"	268
stress_12bis	"POPTR_0017s14470.1"	1371	"	"G/A"	"60,0/40,0"	"6/4"	10	stress_45	"POPTR_0017s14470.1"	1371	"	"G/A"	"57,8/42,2"	"59/43"	102
stress_12bis	"POPTR_0017s14470.1"	1372	"	"C/A"	"60,0/40,0"	"6/4"	10	stress_45	"POPTR_0017s14470.1"	1372	"	"C/A"	"59,8/40,2"	"61/41"	102
stress_12bis	"POPTR_0017s14470.1"	1377	"	"T/C"	"60,0/40,0"	"6/4"	10	stress_45	"POPTR_0017s14470.1"	1377	"	"T/C"	"66,0/34,0"	"70/36"	106
stress_12bis	"POPTR_0003s16030.1"	942	"	"G/A"	"60,0/40,0"	"6/4"	10	stress_45	"POPTR_0003s16030.1"	942	"	"G/A"	"52,5/47,5"	"53/48"	101
stress_12bis	"POPTR_0013s10350.1"	206	"	"G/A"	"60,0/40,0"	"6/4"	10	stress_42	"POPTR_0013s10350.1"	206	"	"A/G"	"81,7/18,3"	"165/37"	202
stress_12bis	"POPTR_0013s10350.1"	206	"	"G/A"	"60,0/40,0"	"6/4"	10	stress_45	"POPTR_0013s10350.1"	206	"	"A/G"	"83,0/17,0"	"254/52"	306
stress_12bis	"POPTR_0011s12400.1"	135	"	"C/A"	"60,0/40,0"	"6/4"	10	stress_45	"POPTR_0011s12400.1"	135	"	"A/C"	"52,0/48,0"	"64/59"	123
stress_12bis	"POPTR_0001s40250.1"	390	"	"C/T"	"60,0/40,0"	"6/4"	10	stress_45	"POPTR_0001s40250.1"	390	"	"C/T"	"75,7/24,3"	"84/27"	111
stress_12bis	"POPTR_0013s10350.1"	471	"	"A/G"	"50,0/50,0"	"6/6"	12	stress_42	"POPTR_0013s10350.1"	471	"	"A/G"	"69,8/30,2"	"208/90"	298
stress_12bis	"POPTR_0013s10350.1"	471	"	"A/G"	"50,0/50,0"	"6/6"	12	stress_45	"POPTR_0013s10350.1"	471	"	"A/G"	"81,9/18,1"	"298/66"	364
stress_12bis	"POPTR_0012s04550.1"	184	"	"C/T"	"83,3/16,7"	"60/12"	72	stress_45	"POPTR_0012s04550.1"	184	"	"C/T"	"70,1/29,9"	"75/32"	107
stress_12bis	"POPTR_0012s04550.1"	435	"	"T/C"	"75,9/22,8"	"60/18"	79	stress_42	"POPTR_0012s04550.1"	435	"	"T/C"	"66,7/33,3"	"72/36"	108
stress_12bis	"POPTR_0012s04550.1"	435	"	"T/C"	"75,9/22,8"	"60/18"	79	stress_45	"POPTR_0012s04550.1"	435	"	"T/C"	"71,2/28,8"	"79/32"	111
stress_12bis	"POPTR_0004s16740.1"	843	"	"C/T"	"69,0/31,0"	"60/27"	87	stress_45	"POPTR_0004s16740.1"	843	"	"C/T"	"72,1/27,9"	"93/36"	129
stress_12bis	"POPTR_0014s02410.1"	70	"	"C/T"	"62,5/35,4"	"60/34"	96	stress_45	"POPTR_0014s02410.1"	70	"	"C/T"	"50,5/49,5"	"104/102"	206
stress_12bis	"POPTR_0013s13220.1"	258	"	"C/T"	"59,4/40,6"	"60/41"	101	stress_42	"POPTR_0013s13220.1"	258	"	"C/T"	"65,3/34,7"	"47/25"	72
stress_12bis	"POPTR_0013s13220.1"	258	"	"C/T"	"59,4/40,6"	"60/41"	101	stress_45	"POPTR_0013s13220.1"	258	"	"C/T"	"59,7/40,3"	"92/62"	154
stress_12bis	"POPTR_0001s36330.1"	1011	"	"G/A"	"59,4/40,6"	"60/41"	101	stress_42	"POPTR_0001s36330.1"	1011	"	"G/A"	"66,7/33,3"	"12/6"	18
stress_12bis	"POPTR_0001s36330.1"	1011	"	"G/A"	"59,4/40,6"	"60/41"	101	stress_45	"POPTR_0001s36330.1"	1011	"	"G/A"	"62,5/37,5"	"25/15"	40
stress_12bis	"POPTR_0003s20840.1"	675	"	"C/T"	"58,8/41,2"	"60/42"	102	stress_45	"POPTR_0003s20840.1"	675	"	"C/T"	"60,7/39,3"	"17/11"	28
stress_12bis	"POPTR_0009s02070.1"	516	"	"C/T"	"57,7/42,3"	"60/44"	104	stress_42	"POPTR_0009s02070.1"	516	"	"C/T"	"51,4/48,6"	"38/36"	74
stress_12bis	"POPTR_0009s02070.1"	516	"	"C/T"	"57,7/42,3"	"60/44"	104	stress_45	"POPTR_0009s02070.1"	516	"	"T/C"	"61,6/38,4"	"77/48"	125
stress_12bis	"POPTR_0016s08580.1"	615	"	"T/G"	"57,7/42,3"	"60/44"	104	stress_42	"POPTR_0016s08580.1"	615	"	"T/G"	"58,1/41,9"	"50/36"	86
stress_12bis	"POPTR_0016s08580.1"	615	"	"T/G"	"57,7/42,3"	"60/44"	104	stress_45	"POPTR_0016s08580.1"	615	"	"T/G"	"59,2/40,8"	"74/51"	125
stress_12bis	"POPTR_0006s11570.1"	1218	"	"G/A"	"56,1/43,9"	"60/47"	107	stress_42	"POPTR_0006s11570.1"	1218	"	"G/A"	"53,3/46,7"	"64/56"	120
stress_12bis	"POPTR_0006s11570.1"	1218	"	"G/A"	"56,1/43,9"	"60/47"	107	stress_45	"POPTR_0006s11570.1"	1218	"	"G/A"	"59,2/40,8"	"74/51"	125
stress_12bis	"POPTR_0003s20840.1"	1392	"	"G/A"	"55,6/44,4"	"60/48"	108	stress_42	"POPTR_0003s20840.1"	1392	"	"A/G"	"50,0/50,0"	"12/12"	24
stress_12bis	"POPTR_0003s20840.1"	1392	"	"G/A"	"55,6/44,4"	"60/48"	108	stress_45	"POPTR_0003s20840.1"	1392	"	"A/G"	"50,0/50,0"	"16/16"	32
stress_12bis	"POPTR_0016s12260.1"	405	"	"C/T"	"55,6/44,4"	"60/48"	108	stress_42	"POPTR_0016s12260.1"	405	"	"C/T"	"79,4/20,6"	"27/7"	34
stress_12bis	"POPTR_0016s12260.1"	405	"	"C/T"	"55,6/44,4"	"60/48"	108	stress_45	"POPTR_0016s12260.1"	405	"	"C/T"	"56,1/43,9"	"23/18"	41
stress_12bis	"POPTR_0012s09570.1"	510	"	"C/T"	"55,0/45,0"	"60/49"	109	stress_42	"POPTR_0012s09570.1"	510	"	"C/T"	"58,4/41,6"	"87/62"	149
stress_12bis	"POPTR_0012s09570.1"	510	"	"C/T"	"55,0/45,0"	"60/49"	109	stress_45	"POPTR_0012s09570.1"	510	"	"C/T"	"58,6/41,4"	"126/89"	215
stress_12bis	"POPTR_0001s21740.1"	324	"	"C/T"	"55,0/45,0"	"60/49"	109	stress_42	"POPTR_0001s21740.1"	324	"	"C/T"	"64,0/34,0"	"32/17"	50
stress_12bis	"POPTR_0001s21740.1"	324	"	"C/T"	"55,0/45,0"	"60/49"	109	stress_45	"POPTR_0001s21740.1"	324	"	"C/T"	"55,3/43,5"	"47/37"	85
stress_12bis	"POPTR_0005s08610.1"	213	"	"T/C"	"54,5/45,5"	"60/50"	110	stress_42	"POPTR_0005s08610.1"	213	"	"T/C"	"54,5/45,5"	"24/20"	44
stress_12bis	"POPTR_0005s08610.1"	213	"	"T/C"	"54,5/45,5"	"60/50"	110	stress_45	"POPTR_0005s08610.1"	213	"	"C/T"	"54,7/45,3"	"35/29"	64
stress_12bis	"POPTR_0006s12910.1"	106	"	"A/T"	"50,8/48,3"	"60/57"	118	stress_42	"POPTR_0006s12910.1"	106	"	"A/T"	"55,7/44,3"	"39/31"	70
stress_12bis	"POPTR_0006s12910.1"	106	"	"A/T"	"50,8/48,3"	"60/57"	118	stress_45	"POPTR_0006s12910.1"	106	"	"T/A"	"56,9/42,2"	"62/46"	109
stress_12bis	"POPTR_0006s04230.1"	243	"	"A/C"	"50,4/49,6"	"60/59"	119	stress_42	"POPTR_0006s04230.1"	243	"	"A/C"	"69,7/30,3"	"23/10"	33
stress_12bis	"POPTR_0006s04230.1"	243	"	"A/C"	"50,4/49,6"	"60/59"	119	stress_45	"POPTR_0006s04230.1"	243	"	"A/C"	"56,8/43,2"	"42/32"	74
stress_12bis	"POPTR_0004s10660.1"	459	"	"T/G"	"50,4/49,6"	"60/59"	119	stress_42	"POPTR_0004s10660.1"	459	"	"T/G"	"58,5/41,5"	"79/56"	135
stress_12bis	"POPTR_0004s10660.1"	459	"	"T/G"	"50,4/49,6"	"60/59"	119	stress_45	"POPTR_0004s10660.1"	459	"	"T/G"	"57,1/42,9"	"101/76"	177
stress_12bis	"POPTR_0002s25260.1"	481	"	"A/G"	"69,3/30,7"	"61/27"	88	stress_45	"POPTR_0002s25260.1"	481	"	"A/G"	"51,8/48,2"	"57/53"	110
stress_12bis	"POPTR_0001s01630.1"	666	"	"C/T"	"59,8/40,2"	"61/41"	102	stress_42	"POPTR_0001s01630.1"	666	"	"C/T"	"63,6/36,4"	"7/4"	11
stress_12bis	"POPTR_0010s12050.1"	56	"	"G/A"	"59,8/40,2"	"61/41"	102	stress_42	"POPTR_0010s12050.1"	56	"	"G/A"	"74,2/25,8"	"23/8"	31
stress_12bis	"POPTR_0010s12050.1"	56	"	"G/A"	"59,8/40,2"	"61/41"	102	stress_45	"POPTR_0010s12050.1"	56	"	"G/A"	"66,7/33,3"	"20/10"	30
stress_12bis	"POPTR_0002s03470.1"	84	"	"G/A"	"59,2/40,8"	"61/42"	103	stress_42	"POPTR_0002s03470.1"	84	"	"G/A"	"59,6/40,4"	"34/23"	57
stress_12bis	"POPTR_0002s03470.1"	84	"	"G/A"	"59,2/40,8"	"61/42"	103	stress_45	"POPTR_0002s03470.1"	84	"	"G/A"	"65,9/34,1"	"27/14"	41
stress_12bis	"POPTR_0014s13560.1"	543	"	"A/G"	"58,7/41,3"	"61/43"	104	stress_42	"POPTR_0014s13560.1"	543	"	"A/G"	"67,4/32,6"	"29/14"	43
stress_12bis	"POPTR_0014s13560.1"	543	"	"A/G"	"58,7/41,3"	"61/43"	104	stress_45	"POPTR_0014s13560.1"	543	"	"A/G"	"65,3/34,7"	"47/25"	72
stress_12bis	"POPTR_0003s18530.1"	549	"	"A/G"	"57,5/42,5"	"61/45"	106	stress_42	"POPTR_0003s18530.1"	549	"	"G/A"	"57,6/42,4"	"34/25"	59
stress_12bis	"POPTR_0003s18530.1"	549	"	"A/G"	"57,5/42,5"	"61/45"	106	stress_45	"POPTR_0003s18530.1"	549	"	"A/G"	"61,3/38,7"	"65/41"	106
stress_12bis	"POPTR_0004s04860.1"	489	"	"T/C"	"57,0/43,0"	"61/46"	107	stress_42	"POPTR_0004s04860.1"	489	"	"T/C"	"75,0/25,0"	"27/9"	36
stress_12bis	"POPTR_0004s04860.1"	489	"	"T/C"	"57,0/43,0"	"61/46"	107	stress_45	"POPTR_0004s04860.1"	489	"	"T/C"	"72,5/27,5"	"37/14"	51
stress_12bis	"POPTR_0008s20590.1"	462	"	"C/T"	"57,0/43,0"	"61/46"	107	stress_42	"POPTR_0008s20590.1"	462	"	"C/T"	"65,5/34,5"	"72/38"	110
stress_12bis	"POPTR_0008s20590.1"	462	"	"C/T"	"57,0/43,0"	"61/46"	107	stress_45	"POPTR_0008s20590.1"	462	"	"C/T"	"59,7/40,3"	"77/52"	129
stress_12bis	"POPTR_0005s26700.1"	160	"	"A/G"	"56,5/43,5"	"61/47"	108	stress_42	"POPTR_0005s26700.1"	160	"	"A/G"	"68,4/31,6"	"13/6"	19
stress_12bis	"POPTR_0005s26700.1"	160	"	"A/G"	"56,5/43,5"	"61/47"	108	stress_45	"POPTR_0005s26700.1"	160	"	"A/G"	"51,5/48,5"	"17/16"	33
stress_12bis	"POPTR_0011s14410.1"	233	"	"C/T"	"53,5/46,5"	"61/53"	114	stress_42	"POPTR_0011s14410.1"	233	"	"T/C"	"66,7/33,3"	"12/6"	18
stress_12bis	"POPTR_0011s14410.1"	233	"	"C/T"	"53,5/46,5"	"61/53"	114	stress_45	"POPTR_0011s14410.1"	233	"	"C/T"	"56,5/43,5"	"13/10"	23
stress_12bis	"POPTR_0001s21740.1"	194	"	"G/A"	"53,5/46,5"	"61/53"	114	stress_42	"POPTR_0001s21740.1"	194	"	"A/G"	"50,0/50,0"	"19/19"	38
stress_12bis	"POPTR_0001s21740.1"	194	"	"G/A"	"53,5/46,5"	"61/53"	114	stress_45	"POPTR_0001s21740.1"	194	"	"G/A"	"55,8/44,2"	"43/34"	77
stress_12bis	"POPTR_0005s20920.1"	273	"	"A/C"	"51,3/47,9"	"61/57"	119	stress_45	"POPTR_0005s20920.1"	273	"	"A/C"	"54,5/36,4"	"6/4"	11
stress_12bis	"POPTR_0003s20840.1"	1015	"	"C/G"	"51,7/48,3"	"61/57"	118	stress_42	"POPTR_0003s20840.1"	1015	"	"C/G"	"56,2/43,8"	"9/7"	16
stress_12bis	"POPTR_0003s20840.1"	1015	"	"C/G"	"51,7/48,3"	"61/57"	118	stress_45	"POPTR_0003s20840.1"	1015	"	"C/G"	"55,8/44,2"	"24/19"	43
stress_12bis	"POPTR_0008s15100.1"	591	"	"T/C"	"50,8/49,2"	"61/59"	120	stress_42	"POPTR_0008s15100.1"	591	"	"T/C"	"58,1/39,5"	"25/17"	43
stress_12bis	"POPTR_0008s15100.1"	591	"	"T/C"	"50,8/49,2"	"61/59"	120	stress_45	"POPTR_0008s15100.1"	591	"	"C/T"	"48,5/48,5"	"16/16"	33
stress_12bis	"POPTR_0002s03020.1"	246	"	"C/G"	"50,0/50,0"	"61/61"	122	stress_42	"POPTR_0002s03020.1"	246	"	"G/C"	"77,5/22,5"	"158/46"	204
stress_12bis	"POPTR_0002s03020.1"	246	"	"C/G"	"50,0/50,0"	"61/61"	122	stress_45	"POPTR_0002s03020.1"	246	"	"G/C"	"75,1/24,9"	"335/111"	446
stress_12bis	"POPTR_0009s12710.1"	1131	"	"T/C"	"54,4/45,6"	"613/514"	1127	stress_42	"POPTR_0009s12710.1"	1131	"	"T/C"	"53,1/46,9"	"111/98"	209
stress_12bis	"POPTR_0009s12710.1"	1131	"	"T/C"	"54,4/45,6"	"613/514"	1127	stress_45	"POPTR_0009s12710.1"	1131	"	"T/C"	"51,5/48,5"	"121/114"	235
stress_12bis	"POPTR_0009s12710.1"	754	"	"T/A"	"64,6/35,3"	"616/337"	954	stress_42	"POPTR_0009s12710.1"	754	"	"T/A"	"63,5/36,5"	"94/54"	148
stress_12bis	"POPTR_0009s12710.1"	754	"	"T/A"	"64,6/35,3"	"616/337"	954	stress_45	"POPTR_0009s12710.1"	754	"	"T/A"	"61,3/38,7"	"111/70"	181
stress_12bis	"POPTR_0008s19370.1"	36	"	"G/T"	"74,5/25,5"	"618/211"	829	stress_42	"POPTR_0008s19370.1"	36	"	"G/T"	"79,1/20,9"	"34/9"	43
stress_12bis	"POPTR_0014s02410.1"	55	"	"G/A"	"66,7/33,3"	"62/31"	93	stress_45	"POPTR_0014s02410.1"	55	"	"G/A"	"53,8/46,2"	"107/92"	199
stress_12bis	"POPTR_0008s20590.1"	492	"	"T/A"	"63,3/36,7"	"62/36"	98	stress_45	"POPTR_0008s20590.1"	492	"	"T/A"	"51,7/48,3"	"74/69"	143
stress_12bis	"POPTR_0008s06580.1"	241	"	"C/A"	"61,4/38,6"	"62/39"	101	stress_42	"POPTR_0008s06580.1"	241	"	"A/C"	"58,5/40,9"	"283/198"	484
stress_12bis	"POPTR_0008s06580.1"	241	"	"C/A"	"61,4/38,6"	"62/39"	101	stress_45	"POPTR_0008s06580.1"	241	"	"A/C"	"54,0/46,0"	"354/302"	656
stress_12bis	"POPTR_0011s14410.1"	120	"	"G/C"	"58,5/41,5"	"62/44"	106	stress_42	"POPTR_0011s14410.1"	120	"	"G/C"	"72,2/27,8"	"13/5"	18
stress_12bis	"POPTR_0011s14410.1"	120	"	"G/C"	"58,5/41,5"	"62/44"	106	stress_45	"POPTR_0011s14410.1"	120	"	"G/C"	"66,7/33,3"	"12/6"	18
stress_12bis	"POPTR_0010s20060.1"	112	"	"A/G"	"58,5/41,5"	"62/44"	106	stress_42	"POPTR_0010s20060.1"	112	"	"G/A"	"56,2/43,8"	"9/7"	16
stress_12bis	"POPTR_0010s20060.1"	112	"	"A/G"	"58,5/41,5"	"62/44"	106	stress_45	"POPTR_0010s20060.1"	112	"	"G/A"	"60,0/40,0"	"21/14"	35
stress_12bis	"POPTR_0012s08330.1"	411	"	"C/T"	"57,4/41,7"	"62/45"	108	stress_42	"POPTR_0012s08330.1"	411	"	"T/C"	"58,3/40,8"	"60/42"	103
stress_12bis	"POPTR_0012s08330.1"	411	"	"C/T"	"57,4/41,7"	"62/45"	108	stress_45	"POPTR_0012s08330.1"	411	"	"T/C"	"69,2/29,0"	"74/31"	107
stress_12bis	"POPTR_0005s26700.1"	159	"	"T/G"	"57,4/42,6"	"62/46"	108	stress_42	"POPTR_0005s26700.1"	159	"	"T/G"	"68,4/31,6"	"13/6"	19
stress_12bis	"POPTR_0005s26700.1"	159	"	"T/G"	"57,4/42,6"	"62/46"	108	stress_45	"POPTR_0005s26700.1"	159	"	"G/T"	"51,4/48,6"	"18/17"	35
stress_12bis	"POPTR_0011s14410.1"	119	"	"A/G"	"56,9/43,1"	"62/47"	109	stress_42	"POPTR_0011s14410.1"	119	"	"A/G"	"66,7/33,3"	"12/6"	18
stress_12bis	"POPTR_0011s14410.1"	119	"	"A/G"	"56,9/43,1"	"62/47"	109	stress_45	"POPTR_0011s14410.1"	119	"	"A/G"	"65,0/35,0"	"13/7"	20
stress_12bis	"POPTR_0012s07060.1"	162	"	"C/T"	"55,9/44,1"	"62/49"	111	stress_42	"POPTR_0012s07060.1"	162	"	"C/T"	"51,1/48,9"	"23/22"	45
stress_12bis	"POPTR_0012s07060.1"	162	"	"C/T"	"55,9/44,1"	"62/49"	111	stress_45	"POPTR_0012s07060.1"	162	"	"C/T"	"59,8/40,2"	"49/33"	82
stress_12bis	"POPTR_0008s20590.1"	459	"	"T/A"	"55,4/44,6"	"62/50"	112	stress_42	"POPTR_0008s20590.1"	459	"	"T/A"	"65,5/34,5"	"74/39"	113
stress_12bis	"POPTR_0008s20590.1"	459	"	"T/A"	"55,4/44,6"	"62/50"	112	stress_45	"POPTR_0008s20590.1"	459	"	"T/A"	"58,7/41,3"	"81/57"	138
stress_12bis	"POPTR_0002s03020.1"	51	"	"A/C"	"54,4/45,6"	"62/52"	114	stress_42	"POPTR_0002s03020.1"	51	"	"A/C"	"71,3/28,7"	"127/51"	178
stress_12bis	"POPTR_0002s03020.1"	51	"	"A/C"	"54,4/45,6"	"62/52"	114	stress_45	"POPTR_0002s03020.1"	51	"	"A/C"	"76,0/24,0"	"307/97"	404
stress_12bis	"POPTR_0012s04550.1"	439	"	"A/T"	"77,8/22,2"	"63/18"	81	stress_45	"POPTR_0012s04550.1"	439	"	"A/T"	"79,2/20,8"	"84/22"	106
stress_12bis	"POPTR_0010s14080.1"	1992	"	"G/T"	"60,6/39,4"	"63/41"	104	stress_42	"POPTR_0010s14080.1"	1992	"	"G/T"	"63,9/36,1"	"23/13"	36
stress_12bis	"POPTR_0010s14080.1"	1992	"	"G/T"	"60,6/39,4"	"63/41"	104	stress_45	"POPTR_0010s14080.1"	1992	"	"G/T"	"68,4/31,6"	"39/18"	57
stress_12bis	"POPTR_0003s11300.1"	324	"	"A/G"	"60,0/40,0"	"63/42"	105	stress_45	"POPTR_0003s11300.1"	324	"	"G/A"	"52,6/47,4"	"10/9"	19
stress_12bis	"POPTR_0014s06380.1"	157	"	"T/A"	"58,3/41,7"	"63/45"	108	stress_42	"POPTR_0014s06380.1"	157	"	"T/A"	"66,4/33,6"	"71/36"	107
stress_12bis	"POPTR_0014s06380.1"	157	"	"T/A"	"58,3/41,7"	"63/45"	108	stress_45	"POPTR_0014s06380.1"	157	"	"T/A"	"66,7/33,3"	"88/44"	132
stress_12bis	"POPTR_0016s14100.1"	1259	"	"C/T"	"57,8/42,2"	"63/46"	109	stress_42	"POPTR_0016s14100.1"	1259	"	"T/C"	"68,0/28,0"	"17/7"	25
stress_12bis	"POPTR_0016s14100.1"	1259	"	"C/T"	"57,8/42,2"	"63/46"	109	stress_45	"POPTR_0016s14100.1"	1259	"	"C/T"	"51,5/48,5"	"17/16"	33
stress_12bis	"POPTR_0018s11820.1"	181	"	"C/A"	"56,2/43,8"	"63/49"	112	stress_42	"POPTR_0018s11820.1"	181	"	"A/C"	"66,7/33,3"	"14/7"	21
stress_12bis	"POPTR_0018s11820.1"	181	"	"C/A"	"56,2/43,8"	"63/49"	112	stress_45	"POPTR_0018s11820.1"	181	"	"A/C"	"64,0/36,0"	"16/9"	25
stress_12bis	"POPTR_0013s13190.1"	249	"	"G/A"	"55,3/44,7"	"63/51"	114	stress_42	"POPTR_0013s13190.1"	249	"	"G/A"	"56,9/43,1"	"33/25"	58
stress_12bis	"POPTR_0013s13190.1"	249	"	"G/A"	"55,3/44,7"	"63/51"	114	stress_45	"POPTR_0013s13190.1"	249	"	"A/G"	"62,5/37,5"	"15/9"	24
stress_12bis	"POPTR_0017s05700.1"	603	"	"A/G"	"54,3/45,7"	"63/53"	116	stress_42	"POPTR_0017s05700.1"	603	"	"A/G"	"60,3/39,7"	"41/27"	68
stress_12bis	"POPTR_0017s05700.1"	603	"	"A/G"	"54,3/45,7"	"63/53"	116	stress_45	"POPTR_0017s05700.1"	603	"	"A/G"	"62,8/37,2"	"54/32"	86
stress_12bis	"POPTR_0014s02410.1"	1008	"	"A/T"	"54,3/45,7"	"63/53"	116	stress_42	"POPTR_0014s02410.1"	1008	"	"A/T"	"54,6/45,4"	"118/98"	216
stress_12bis	"POPTR_0014s02410.1"	1008	"	"A/T"	"54,3/45,7"	"63/53"	116	stress_45	"POPTR_0014s02410.1"	1008	"	"A/T"	"56,6/43,4"	"179/137"	316
stress_12bis	"POPTR_0004s00480.1"	47	"	"C/A"	"52,9/47,1"	"63/56"	119	stress_42	"POPTR_0004s00480.1"	47	"	"A/C"	"50,7/49,3"	"36/35"	71
stress_12bis	"POPTR_0004s00480.1"	47	"	"C/A"	"52,9/47,1"	"63/56"	119	stress_45	"POPTR_0004s00480.1"	47	"	"C/A"	"61,4/38,6"	"70/44"	114
stress_12bis	"POPTR_0018s11820.1"	651	"	"C/A"	"52,1/47,9"	"63/58"	121	stress_42	"POPTR_0018s11820.1"	651	"	"A/C"	"66,7/33,3"	"14/7"	21
stress_12bis	"POPTR_0018s11820.1"	651	"	"C/A"	"52,1/47,9"	"63/58"	121	stress_45	"POPTR_0018s11820.1"	651	"	"A/C"	"72,4/27,6"	"21/8"	29
stress_12bis	"POPTR_0004s22810.1"	66	"	"T/G"	"56,4/43,6"	"633/490"	1123	stress_42	"POPTR_0004s22810.1"	66	"	"G/T"	"52,0/48,0"	"205/189"	394
stress_12bis	"POPTR_0004s22810.1"	66	"	"T/G"	"56,4/43,6"	"633/490"	1123	stress_45	"POPTR_0004s22810.1"	66	"	"G/T"	"57,4/42,4"	"260/192"	453
stress_12bis	"POPTR_0004s17610.1"	447	"	"C/T"	"68,1/31,9"	"64/30"	94	stress_42	"POPTR_0004s17610.1"	447	"	"C/T"	"60,2/39,8"	"189/125"	314
stress_12bis	"POPTR_0004s17610.1"	447	"	"C/T"	"68,1/31,9"	"64/30"	94	stress_45	"POPTR_0004s17610.1"	447	"	"C/T"	"64,0/36,0"	"208/117"	325
stress_12bis	"POPTR_0010s14080.1"	501	"	"A/G"	"63,4/36,6"	"64/37"	101	stress_42	"POPTR_0010s14080.1"	501	"	"A/G"	"66,7/33,3"	"12/6"	18
stress_12bis	"POPTR_0010s14080.1"	501	"	"A/G"	"63,4/36,6"	"64/37"	101	stress_45	"POPTR_0010s14080.1"	501	"	"A/G"	"80,6/19,4"	"25/6"	31
stress_12bis	"POPTR_0008s15780.1"	366	"	"T/C"	"63,4/36,6"	"64/37"	101	stress_42	"POPTR_0008s15780.1"	366	"	"T/C"	"56,5/43,5"	"78/60"	138
stress_12bis	"POPTR_0008s15780.1"	366	"	"T/C"	"63,4/36,6"	"64/37"	101	stress_45	"POPTR_0008s15780.1"	366	"	"T/C"	"75,5/24,5"	"80/26"	106
stress_12bis	"POPTR_0014s02410.1"	94	"	"C/G"	"61,5/38,5"	"64/40"	104	stress_42	"POPTR_0014s02410.1"	94	"	"C/G"	"51,5/48,5"	"53/50"	103
stress_12bis	"POPTR_0014s02410.1"	94	"	"C/G"	"61,5/38,5"	"64/40"	104	stress_45	"POPTR_0014s02410.1"	94	"	"G/C"	"52,1/47,9"	"135/124"	259
stress_12bis	"POPTR_0008s06580.1"	242	"	"A/C"	"59,8/40,2"	"64/43"	107	stress_42	"POPTR_0008s06580.1"	242	"	"C/A"	"57,8/42,2"	"286/209"	495
stress_12bis	"POPTR_0008s06580.1"	242	"	"A/C"	"59,8/40,2"	"64/43"	107	stress_45	"POPTR_0008s06580.1"	242	"	"C/A"	"53,8/46,0"	"366/313"	680
stress_12bis	"POPTR_0006s13310.1"	1332	"	"G/A"	"57,1/42,9"	"64/48"	112	stress_42	"POPTR_0006s13310.1"	1332	"	"G/A"	"69,8/29,1"	"60/25"	86
stress_12bis	"POPTR_0006s13310.1"	1332	"	"G/A"	"57,1/42,9"	"64/48"	112	stress_45	"POPTR_0006s13310.1"	1332	"	"G/A"	"55,7/44,3"	"73/58"	131
stress_12bis	"POPTR_0019s11720.1"	224	"	"T/C"	"55,2/44,8"	"64/52"	116	stress_42	"POPTR_0019s11720.1"	224	"	"T/C"	"65,9/34,1"	"27/14"	41
stress_12bis	"POPTR_0019s11720.1"	224	"	"T/C"	"55,2/44,8"	"64/52"	116	stress_45	"POPTR_0019s11720.1"	224	"	"C/T"	"50,0/50,0"	"27/27"	54
stress_12bis	"POPTR_0007s04160.1"	165	"	"C/T"	"54,2/45,8"	"64/54"	118	stress_42	"POPTR_0007s04160.1"	165	"	"C/T"	"60,5/39,5"	"23/15"	38
stress_12bis	"POPTR_0007s04160.1"	165	"	"C/T"	"54,2/45,8"	"64/54"	118	stress_45	"POPTR_0007s04160.1"	165	"	"T/C"	"60,9/39,1"	"14/9"	23
stress_12bis	"POPTR_0008s06580.1"	645	"	"G/T"	"54,2/45,8"	"64/54"	118	stress_42	"POPTR_0008s06580.1"	645	"	"G/T"	"63,5/36,2"	"412/235"	649
stress_12bis	"POPTR_0008s06580.1"	645	"	"G/T"	"54,2/45,8"	"64/54"	118	stress_45	"POPTR_0008s06580.1"	645	"	"G/T"	"64,9/35,1"	"472/255"	727
stress_12bis	"POPTR_0005s26700.1"	760	"	"C/T"	"52,5/47,5"	"64/58"	122	stress_42	"POPTR_0005s26700.1"	760	"	"C/T"	"60,9/39,1"	"14/9"	23
stress_12bis	"POPTR_0005s26700.1"	760	"	"C/T"	"52,5/47,5"	"64/58"	122	stress_45	"POPTR_0005s26700.1"	760	"	"C/T"	"52,0/48,0"	"13/12"	25
stress_12bis	"POPTR_0021s00380.1"	1074	"	"C/T"	"52,0/48,0"	"64/59"	123	stress_42	"POPTR_0021s00380.1"	1074	"	"T/C"	"55,0/45,0"	"11/9"	20
stress_12bis	"POPTR_0021s00380.1"	1074	"	"C/T"	"52,0/48,0"	"64/59"	123	stress_45	"POPTR_0021s00380.1"	1074	"	"C/T"	"57,9/42,1"	"11/8"	19
stress_12bis	"POPTR_0014s02410.1"	771	"	"G/T"	"51,6/48,4"	"64/60"	124	stress_42	"POPTR_0014s02410.1"	771	"	"G/T"	"63,6/35,8"	"110/62"	173
stress_12bis	"POPTR_0014s02410.1"	771	"	"G/T"	"51,6/48,4"	"64/60"	124	stress_45	"POPTR_0014s02410.1"	771	"	"G/T"	"57,6/42,4"	"186/137"	323
stress_12bis	"POPTR_0017s05700.1"	123	"	"G/A"	"63,7/36,3"	"65/37"	102	stress_42	"POPTR_0017s05700.1"	123	"	"G/A"	"67,2/32,8"	"45/22"	67
stress_12bis	"POPTR_0017s05700.1"	123	"	"G/A"	"63,7/36,3"	"65/37"	102	stress_45	"POPTR_0017s05700.1"	123	"	"A/G"	"52,3/47,7"	"45/41"	86
stress_12bis	"POPTR_0001s47020.1"	1569	"	"A/T"	"63,7/36,3"	"65/37"	102	stress_42	"POPTR_0001s47020.1"	1569	"	"T/A"	"53,1/46,9"	"43/38"	81
stress_12bis	"POPTR_0001s47020.1"	1569	"	"A/T"	"63,7/36,3"	"65/37"	102	stress_45	"POPTR_0001s47020.1"	1569	"	"T/A"	"55,8/44,2"	"101/80"	181
stress_12bis	"POPTR_0007s09630.1"	597	"	"A/T"	"56,5/43,5"	"65/50"	115	stress_42	"POPTR_0007s09630.1"	597	"	"A/T"	"68,8/31,2"	"11/5"	16
stress_12bis	"POPTR_0007s09630.1"	597	"	"A/T"	"56,5/43,5"	"65/50"	115	stress_45	"POPTR_0007s09630.1"	597	"	"A/T"	"63,0/37,0"	"17/10"	27
stress_12bis	"POPTR_0008s20590.1"	486	"	"C/T"	"56,5/43,5"	"65/50"	115	stress_42	"POPTR_0008s20590.1"	486	"	"T/C"	"54,8/45,2"	"51/42"	93
stress_12bis	"POPTR_0008s20590.1"	486	"	"C/T"	"56,5/43,5"	"65/50"	115	stress_45	"POPTR_0008s20590.1"	486	"	"T/C"	"52,6/47,4"	"80/72"	152
stress_12bis	"POPTR_0014s15710.1"	285	"	"C/T"	"56,0/44,0"	"65/51"	116	stress_42	"POPTR_0014s15710.1"	285	"	"C/T"	"72,9/27,1"	"51/19"	70
stress_12bis	"POPTR_0014s15710.1"	285	"	"C/T"	"56,0/44,0"	"65/51"	116	stress_45	"POPTR_0014s15710.1"	285	"	"C/T"	"66,3/33,7"	"65/33"	98
stress_12bis	"POPTR_0003s20840.1"	1148	"	"A/T"	"54,6/45,4"	"65/54"	119	stress_42	"POPTR_0003s20840.1"	1148	"	"T/A"	"51,6/48,4"	"16/15"	31
stress_12bis	"POPTR_0003s20840.1"	1148	"	"A/T"	"54,6/45,4"	"65/54"	119	stress_45	"POPTR_0003s20840.1"	1148	"	"A/T"	"63,3/36,7"	"19/11"	30
stress_12bis	"POPTR_0015s06410.1"	117	"	"G/C"	"51,6/48,4"	"65/61"	126	stress_42	"POPTR_0015s06410.1"	117	"	"G/C"	"54,3/45,7"	"19/16"	35
stress_12bis	"POPTR_0015s06410.1"	117	"	"G/C"	"51,6/48,4"	"65/61"	126	stress_45	"POPTR_0015s06410.1"	117	"	"G/C"	"62,5/37,5"	"15/9"	24
stress_12bis	"POPTR_0003s09830.1"	92	"	"A/G"	"51,2/48,8"	"65/62"	127	stress_42	"POPTR_0003s09830.1"	92	"	"A/G"	"53,6/46,4"	"15/13"	28
stress_12bis	"POPTR_0003s09830.1"	92	"	"A/G"	"51,2/48,8"	"65/62"	127	stress_45	"POPTR_0003s09830.1"	92	"	"A/G"	"52,6/47,4"	"20/18"	38
stress_12bis	"POPTR_0001s12630.1"	324	"	"G/A"	"51,2/48,8"	"65/62"	127	stress_42	"POPTR_0001s12630.1"	324	"	"A/G"	"54,3/45,7"	"102/86"	188
stress_12bis	"POPTR_0001s12630.1"	324	"	"G/A"	"51,2/48,8"	"65/62"	127	stress_45	"POPTR_0001s12630.1"	324	"	"A/G"	"51,6/48,4"	"115/108"	223
stress_12bis	"POPTR_0008s05410.1"	1386	"	"T/A"	"50,8/49,2"	"65/63"	128	stress_42	"POPTR_0008s05410.1"	1386	"	"T/A"	"64,0/36,0"	"64/36"	100
stress_12bis	"POPTR_0008s05410.1"	1386	"	"T/A"	"50,8/49,2"	"65/63"	128	stress_45	"POPTR_0008s05410.1"	1386	"	"A/T"	"54,7/45,3"	"94/78"	172
stress_12bis	"POPTR_0006s12910.1"	132	"	"A/T"	"49,6/49,6"	"65/65"	131	stress_42	"POPTR_0006s12910.1"	132	"	"A/T"	"58,5/41,5"	"31/22"	53
stress_12bis	"POPTR_0006s12910.1"	132	"	"A/T"	"49,6/49,6"	"65/65"	131	stress_45	"POPTR_0006s12910.1"	132	"	"T/A"	"50,7/48,6"	"70/67"	138
stress_12bis	"POPTR_0009s13890.1"	455	"	"C/T"	"73,3/26,7"	"66/24"	90	stress_45	"POPTR_0009s13890.1"	455	"	"C/T"	"65,0/35,0"	"91/49"	140
stress_12bis	"POPTR_0012s07040.1"	115	"	"G/A"	"60,0/40,0"	"66/44"	110	stress_42	"POPTR_0012s07040.1"	115	"	"A/G"	"66,7/33,3"	"14/7"	21
stress_12bis	"POPTR_0012s07040.1"	115	"	"G/A"	"60,0/40,0"	"66/44"	110	stress_45	"POPTR_0012s07040.1"	115	"	"A/G"	"58,3/41,7"	"14/10"	24
stress_12bis	"POPTR_0017s05700.1"	132	"	"G/A"	"59,5/40,5"	"66/45"	111	stress_42	"POPTR_0017s05700.1"	132	"	"G/A"	"62,7/37,3"	"47/28"	75
stress_12bis	"POPTR_0017s05700.1"	132	"	"G/A"	"59,5/40,5"	"66/45"	111	stress_45	"POPTR_0017s05700.1"	132	"	"A/G"	"54,5/45,5"	"54/45"	99
stress_12bis	"POPTR_0003s11300.1"	1167	"	"A/T"	"57,4/42,6"	"66/49"	115	stress_42	"POPTR_0003s11300.1"	1167	"	"T/A"	"68,8/31,2"	"11/5"	16
stress_12bis	"POPTR_0003s11300.1"	1167	"	"A/T"	"57,4/42,6"	"66/49"	115	stress_45	"POPTR_0003s11300.1"	1167	"	"T/A"	"54,2/41,7"	"13/10"	24
stress_12bis	"POPTR_0014s15710.1"	405	"	"C/T"	"55,5/44,5"	"66/53"	119	stress_42	"POPTR_0014s15710.1"	405	"	"C/T"	"56,8/43,2"	"42/32"	74
stress_12bis	"POPTR_0014s15710.1"	405	"	"C/T"	"55,5/44,5"	"66/53"	119	stress_45	"POPTR_0014s15710.1"	405	"	"C/T"	"66,9/33,1"	"89/44"	133
stress_12bis	"POPTR_0007s04160.1"	164	"	"G/C"	"55,0/45,0"	"66/54"	120	stress_42	"POPTR_0007s04160.1"	164	"	"G/C"	"60,5/39,5"	"23/15"	38
stress_12bis	"POPTR_0007s04160.1"	164	"	"G/C"	"55,0/45,0"	"66/54"	120	stress_45	"POPTR_0007s04160.1"	164	"	"C/G"	"60,9/39,1"	"14/9"	23
stress_12bis	"POPTR_0006s10130.1"	321	"	"A/G"	"53,2/46,8"	"66/58"	124	stress_42	"POPTR_0006s10130.1"	321	"	"G/A"	"51,0/49,0"	"52/50"	102
stress_12bis	"POPTR_0006s10130.1"	321	"	"A/G"	"53,2/46,8"	"66/58"	124	stress_45	"POPTR_0006s10130.1"	321	"	"G/A"	"56,3/43,7"	"71/55"	126
stress_12bis	"POPTR_0005s21750.1"	570	"	"C/T"	"50,0/50,0"	"66/66"	132	stress_42	"POPTR_0005s21750.1"	570	"	"T/C"	"62,8/36,2"	"118/68"	188
stress_12bis	"POPTR_0005s21750.1"	570	"	"C/T"	"50,0/50,0"	"66/66"	132	stress_45	"POPTR_0005s21750.1"	570	"	"T/C"	"57,8/42,2"	"104/76"	180
stress_12bis	"POPTR_0010s20810.1"	225	"	"C/T"	"52,8/47,2"	"667/597"	1264	stress_42	"POPTR_0010s20810.1"	225	"	"T/C"	"61,2/38,8"	"49/31"	80
stress_12bis	"POPTR_0010s20810.1"	225	"	"C/T"	"52,8/47,2"	"667/597"	1264	stress_45	"POPTR_0010s20810.1"	225	"	"T/C"	"62,7/37,3"	"52/31"	83
stress_12bis	"POPTR_0002s18110.1"	396	"	"C/T"	"66,3/33,7"	"67/34"	101	stress_42	"POPTR_0002s18110.1"	396	"	"C/T"	"57,9/42,1"	"22/16"	38
stress_12bis	"POPTR_0002s18110.1"	396	"	"C/T"	"66,3/33,7"	"67/34"	101	stress_45	"POPTR_0002s18110.1"	396	"	"C/T"	"73,3/26,7"	"22/8"	30
stress_12bis	"POPTR_0014s13560.1"	321	"	"G/C"	"65,7/34,3"	"67/35"	102	stress_42	"POPTR_0014s13560.1"	321	"	"G/C"	"80,9/19,1"	"38/9"	47
stress_12bis	"POPTR_0014s13560.1"	321	"	"G/C"	"65,7/34,3"	"67/35"	102	stress_45	"POPTR_0014s13560.1"	321	"	"C/G"	"50,7/49,3"	"34/33"	67
stress_12bis	"POPTR_0007s09630.1"	653	"	"C/G"	"65,0/35,0"	"67/36"	103	stress_42	"POPTR_0007s09630.1"	653	"	"G/C"	"53,3/46,7"	"8/7"	15
stress_12bis	"POPTR_0007s09630.1"	653	"	"C/G"	"65,0/35,0"	"67/36"	103	stress_45	"POPTR_0007s09630.1"	653	"	"C/G"	"72,7/27,3"	"16/6"	22
stress_12bis	"POPTR_0012s08790.1"	195	"	"A/T"	"64,4/35,6"	"67/37"	104	stress_42	"POPTR_0012s08790.1"	195	"	"A/T"	"58,4/41,6"	"45/32"	77
stress_12bis	"POPTR_0012s08790.1"	195	"	"A/T"	"64,4/35,6"	"67/37"	104	stress_45	"POPTR_0012s08790.1"	195	"	"A/T"	"76,3/23,7"	"29/9"	38
stress_12bis	"POPTR_0018s00850.1"	306	"	"C/A"	"63,8/36,2"	"67/38"	105	stress_42	"POPTR_0018s00850.1"	306	"	"C/A"	"70,7/29,3"	"171/71"	242
stress_12bis	"POPTR_0018s00850.1"	306	"	"C/A"	"63,8/36,2"	"67/38"	105	stress_45	"POPTR_0018s00850.1"	306	"	"C/A"	"67,2/32,8"	"240/117"	357
stress_12bis	"POPTR_0003s11300.1"	1074	"	"C/T"	"63,2/36,8"	"67/39"	106	stress_42	"POPTR_0003s11300.1"	1074	"	"C/T"	"57,1/42,9"	"8/6"	14
stress_12bis	"POPTR_0003s11300.1"	1074	"	"C/T"	"63,2/36,8"	"67/39"	106	stress_45	"POPTR_0003s11300.1"	1074	"	"T/C"	"55,0/45,0"	"11/9"	20
stress_12bis	"POPTR_0001s38810.1"	123	"	"A/G"	"62,6/37,4"	"67/40"	107	stress_42	"POPTR_0001s38810.1"	123	"	"A/G"	"70,3/29,7"	"83/35"	118
stress_12bis	"POPTR_0001s38810.1"	123	"	"A/G"	"62,6/37,4"	"67/40"	107	stress_45	"POPTR_0001s38810.1"	123	"	"A/G"	"75,0/25,0"	"135/45"	180
stress_12bis	"POPTR_0016s12110.1"	144	"	"A/G"	"60,9/39,1"	"67/43"	110	stress_42	"POPTR_0016s12110.1"	144	"	"A/G"	"55,0/45,0"	"22/18"	40
stress_12bis	"POPTR_0016s12110.1"	144	"	"A/G"	"60,9/39,1"	"67/43"	110	stress_45	"POPTR_0016s12110.1"	144	"	"A/G"	"62,3/37,7"	"33/20"	53
stress_12bis	"POPTR_0003s09830.1"	56	"	"C/A"	"58,8/41,2"	"67/47"	114	stress_42	"POPTR_0003s09830.1"	56	"	"A/C"	"62,5/37,5"	"10/6"	16
stress_12bis	"POPTR_0003s09830.1"	56	"	"C/A"	"58,8/41,2"	"67/47"	114	stress_45	"POPTR_0003s09830.1"	56	"	"A/C"	"58,3/41,7"	"21/15"	36
stress_12bis	"POPTR_0010s14080.1"	1185	"	"C/A"	"58,3/40,9"	"67/47"	115	stress_42	"POPTR_0010s14080.1"	1185	"	"C/A"	"81,1/18,9"	"30/7"	37
stress_12bis	"POPTR_0010s14080.1"	1185	"	"C/A"	"58,3/40,9"	"67/47"	115	stress_45	"POPTR_0010s14080.1"	1185	"	"C/A"	"56,9/43,1"	"29/22"	51
stress_12bis	"POPTR_0002s14730.1"	240	"	"G/C"	"58,3/41,7"	"67/48"	115	stress_42	"POPTR_0002s14730.1"	240	"	"G/C"	"58,8/41,2"	"10/7"	17
stress_12bis	"POPTR_0002s14730.1"	240	"	"G/C"	"58,3/41,7"	"67/48"	115	stress_45	"POPTR_0002s14730.1"	240	"	"C/G"	"53,3/46,7"	"16/14"	30
stress_12bis	"POPTR_0011s12680.1"	519	"	"G/C"	"57,8/42,2"	"67/49"	116	stress_42	"POPTR_0011s12680.1"	519	"	"C/G"	"50,0/50,0"	"40/40"	80
stress_12bis	"POPTR_0011s12680.1"	519	"	"G/C"	"57,8/42,2"	"67/49"	116	stress_45	"POPTR_0011s12680.1"	519	"	"G/C"	"53,4/45,6"	"55/47"	103
stress_12bis	"POPTR_0016s14310.1"	277	"	"G/A"	"57,3/42,7"	"67/50"	117	stress_42	"POPTR_0016s14310.1"	277	"	"A/G"	"54,5/45,5"	"6/5"	11
stress_12bis	"POPTR_0016s14310.1"	277	"	"G/A"	"57,3/42,7"	"67/50"	117	stress_45	"POPTR_0016s14310.1"	277	"	"A/G"	"59,1/40,9"	"13/9"	22
stress_12bis	"POPTR_0016s14310.1"	327	"	"T/A"	"56,8/43,2"	"67/51"	118	stress_42	"POPTR_0016s14310.1"	327	"	"T/A"	"72,7/27,3"	"8/3"	11
stress_12bis	"POPTR_0016s14310.1"	327	"	"T/A"	"56,8/43,2"	"67/51"	118	stress_45	"POPTR_0016s14310.1"	327	"	"T/A"	"55,9/44,1"	"19/15"	34
stress_12bis	"POPTR_0012s07040.1"	381	"	"G/A"	"55,4/44,6"	"67/54"	121	stress_42	"POPTR_0012s07040.1"	381	"	"G/A"	"54,2/45,8"	"13/11"	24
stress_12bis	"POPTR_0012s07040.1"	381	"	"G/A"	"55,4/44,6"	"67/54"	121	stress_45	"POPTR_0012s07040.1"	381	"	"A/G"	"51,6/48,4"	"16/15"	31
stress_12bis	"POPTR_0007s09630.1"	812	"	"G/A"	"54,9/45,1"	"67/55"	122	stress_42	"POPTR_0007s09630.1"	812	"	"A/G"	"54,2/45,8"	"13/11"	24
stress_12bis	"POPTR_0007s09630.1"	812	"	"G/A"	"54,9/45,1"	"67/55"	122	stress_45	"POPTR_0007s09630.1"	812	"	"G/A"	"71,0/29,0"	"22/9"	31
stress_12bis	"POPTR_0001s18210.1"	63	"	"T/A"	"52,3/46,9"	"67/60"	128	stress_42	"POPTR_0001s18210.1"	63	"	"T/A"	"65,7/34,3"	"111/58"	169
stress_12bis	"POPTR_0001s18210.1"	63	"	"T/A"	"52,3/46,9"	"67/60"	128	stress_45	"POPTR_0001s18210.1"	63	"	"T/A"	"58,0/42,0"	"94/68"	162
stress_12bis	"POPTR_0001s36560.1"	261	"	"A/G"	"51,9/48,1"	"67/62"	129	stress_45	"POPTR_0001s36560.1"	261	"	"A/G"	"51,3/48,7"	"20/19"	39
stress_12bis	"POPTR_0010s05530.1"	987	"	"T/C"	"51,5/48,5"	"67/63"	130	stress_42	"POPTR_0010s05530.1"	987	"	"C/T"	"50,0/50,0"	"13/13"	26
stress_12bis	"POPTR_0010s05530.1"	987	"	"T/C"	"51,5/48,5"	"67/63"	130	stress_45	"POPTR_0010s05530.1"	987	"	"T/C"	"66,7/33,3"	"18/9"	27
stress_12bis	"POPTR_0003s08760.1"	219	"	"A/G"	"50,0/50,0"	"67/67"	134	stress_42	"POPTR_0003s08760.1"	219	"	"G/A"	"64,5/35,5"	"20/11"	31
stress_12bis	"POPTR_0003s08760.1"	219	"	"A/G"	"50,0/50,0"	"67/67"	134	stress_45	"POPTR_0003s08760.1"	219	"	"G/A"	"74,1/25,9"	"20/7"	27
stress_12bis	"POPTR_0005s26220.1"	159	"	"A/G"	"73,9/26,1"	"68/24"	92	stress_42	"POPTR_0005s26220.1"	159	"	"A/G"	"64,6/35,4"	"146/80"	226
stress_12bis	"POPTR_0005s26220.1"	159	"	"A/G"	"73,9/26,1"	"68/24"	92	stress_45	"POPTR_0005s26220.1"	159	"	"A/G"	"69,0/31,0"	"116/52"	168
stress_12bis	"POPTR_0004s17610.1"	441	"	"A/G"	"64,8/35,2"	"68/37"	105	stress_42	"POPTR_0004s17610.1"	441	"	"A/G"	"60,8/39,2"	"186/120"	306
stress_12bis	"POPTR_0004s17610.1"	441	"	"A/G"	"64,8/35,2"	"68/37"	105	stress_45	"POPTR_0004s17610.1"	441	"	"A/G"	"61,3/38,7"	"201/127"	328
stress_12bis	"POPTR_0006s08850.1"	276	"	"C/T"	"62,4/37,6"	"68/41"	109	stress_42	"POPTR_0006s08850.1"	276	"	"C/T"	"61,7/38,3"	"37/23"	60
stress_12bis	"POPTR_0006s08850.1"	276	"	"C/T"	"62,4/37,6"	"68/41"	109	stress_45	"POPTR_0006s08850.1"	276	"	"C/T"	"51,9/48,1"	"27/25"	52
stress_12bis	"POPTR_0011s14410.1"	59	"	"C/T"	"56,7/43,3"	"68/52"	120	stress_42	"POPTR_0011s14410.1"	59	"	"C/T"	"52,4/47,6"	"11/10"	21
stress_12bis	"POPTR_0011s14410.1"	59	"	"C/T"	"56,7/43,3"	"68/52"	120	stress_45	"POPTR_0011s14410.1"	59	"	"C/T"	"57,7/42,3"	"15/11"	26
stress_12bis	"POPTR_0001s21140.1"	798	"	"G/A"	"55,7/44,3"	"68/54"	122	stress_42	"POPTR_0001s21140.1"	798	"	"G/A"	"64,5/35,5"	"20/11"	31
stress_12bis	"POPTR_0001s21140.1"	798	"	"G/A"	"55,7/44,3"	"68/54"	122	stress_45	"POPTR_0001s21140.1"	798	"	"G/A"	"62,5/37,5"	"15/9"	24
stress_12bis	"POPTR_0014s08960.1"	270	"	"A/G"	"54,0/46,0"	"68/58"	126	stress_42	"POPTR_0014s08960.1"	270	"	"A/G"	"56,5/43,5"	"13/10"	23
stress_12bis	"POPTR_0014s08960.1"	270	"	"A/G"	"54,0/46,0"	"68/58"	126	stress_45	"POPTR_0014s08960.1"	270	"	"A/G"	"60,0/40,0"	"30/20"	50
stress_12bis	"POPTR_0006s12910.1"	551	"	"A/G"	"53,5/46,5"	"68/59"	127	stress_42	"POPTR_0006s12910.1"	551	"	"A/G"	"52,0/48,0"	"53/49"	102
stress_12bis	"POPTR_0006s12910.1"	551	"	"A/G"	"53,5/46,5"	"68/59"	127	stress_45	"POPTR_0006s12910.1"	551	"	"G/A"	"52,8/47,2"	"66/59"	125
stress_12bis	"POPTR_0011s14410.1"	597	"	"T/C"	"51,9/48,1"	"68/63"	131	stress_42	"POPTR_0011s14410.1"	597	"	"C/T"	"65,0/35,0"	"13/7"	20
stress_12bis	"POPTR_0011s14410.1"	597	"	"T/C"	"51,9/48,1"	"68/63"	131	stress_45	"POPTR_0011s14410.1"	597	"	"T/C"	"52,8/47,2"	"19/17"	36
stress_12bis	"POPTR_0005s22780.1"	251	"	"A/G"	"50,7/49,3"	"68/66"	134	stress_42	"POPTR_0005s22780.1"	251	"	"A/G"	"51,9/48,1"	"27/25"	52
stress_12bis	"POPTR_0005s22780.1"	251	"	"A/G"	"50,7/49,3"	"68/66"	134	stress_45	"POPTR_0005s22780.1"	251	"	"A/G"	"63,5/36,5"	"33/19"	52
stress_12bis	"POPTR_0007s08400.1"	1464	"	"T/C"	"50,7/49,3"	"68/66"	134	stress_42	"POPTR_0007s08400.1"	1464	"	"C/T"	"68,9/31,1"	"84/38"	122
stress_12bis	"POPTR_0007s08400.1"	1464	"	"T/C"	"50,7/49,3"	"68/66"	134	stress_45	"POPTR_0007s08400.1"	1464	"	"C/T"	"57,4/42,6"	"148/110"	258
stress_12bis	"POPTR_0004s09910.1"	466	"	"G/T"	"61,6/38,3"	"687/427"	1116	stress_42	"POPTR_0004s09910.1"	466	"	"G/T"	"56,3/43,7"	"85/66"	151
stress_12bis	"POPTR_0004s09910.1"	466	"	"G/T"	"61,6/38,3"	"687/427"	1116	stress_45	"POPTR_0004s09910.1"	466	"	"G/T"	"57,7/42,3"	"97/71"	168
stress_12bis	"POPTR_0003s11300.1"	369	"	"C/T"	"68,3/31,7"	"69/32"	101	stress_45	"POPTR_0003s11300.1"	369	"	"C/T"	"56,5/43,5"	"13/10"	23
stress_12bis	"POPTR_0003s11300.1"	1566	"	"T/A"	"65,7/34,3"	"69/36"	105	stress_42	"POPTR_0003s11300.1"	1566	"	"T/A"	"59,3/40,7"	"16/11"	27
stress_12bis	"POPTR_0003s11300.1"	1566	"	"T/A"	"65,7/34,3"	"69/36"	105	stress_45	"POPTR_0003s11300.1"	1566	"	"A/T"	"50,0/50,0"	"13/13"	26
stress_12bis	"POPTR_0010s14080.1"	2188	"	"C/T"	"64,5/35,5"	"69/38"	107	stress_42	"POPTR_0010s14080.1"	2188	"	"C/T"	"84,2/15,8"	"32/6"	38
stress_12bis	"POPTR_0010s14080.1"	2188	"	"C/T"	"64,5/35,5"	"69/38"	107	stress_45	"POPTR_0010s14080.1"	2188	"	"C/T"	"75,0/25,0"	"39/13"	52
stress_12bis	"POPTR_0003s11300.1"	321	"	"G/A"	"60,5/39,5"	"69/45"	114	stress_45	"POPTR_0003s11300.1"	321	"	"A/G"	"50,0/50,0"	"10/10"	20
stress_12bis	"POPTR_0002s11310.1"	243	"	"T/A"	"59,5/40,5"	"69/47"	116	stress_42	"POPTR_0002s11310.1"	243	"	"T/A"	"65,5/34,5"	"36/19"	55
stress_12bis	"POPTR_0002s11310.1"	243	"	"T/A"	"59,5/40,5"	"69/47"	116	stress_45	"POPTR_0002s11310.1"	243	"	"T/A"	"52,6/47,4"	"20/18"	38
stress_12bis	"POPTR_0006s27030.1"	20	"	"C/T"	"55,2/44,8"	"69/56"	125	stress_42	"POPTR_0006s27030.1"	20	"	"C/T"	"50,0/50,0"	"26/26"	52
stress_12bis	"POPTR_0006s27030.1"	20	"	"C/T"	"55,2/44,8"	"69/56"	125	stress_45	"POPTR_0006s27030.1"	20	"	"C/T"	"53,3/46,7"	"16/14"	30
stress_12bis	"POPTR_0006s12910.1"	124	"	"A/C"	"54,8/45,2"	"69/57"	126	stress_42	"POPTR_0006s12910.1"	124	"	"A/C"	"59,3/40,7"	"35/24"	59
stress_12bis	"POPTR_0006s12910.1"	124	"	"A/C"	"54,8/45,2"	"69/57"	126	stress_45	"POPTR_0006s12910.1"	124	"	"C/A"	"51,6/48,4"	"65/61"	126
stress_12bis	"POPTR_0012s07060.1"	105	"	"A/G"	"53,5/46,5"	"69/60"	129	stress_42	"POPTR_0012s07060.1"	105	"	"G/A"	"56,9/43,1"	"33/25"	58
stress_12bis	"POPTR_0012s07060.1"	105	"	"A/G"	"53,5/46,5"	"69/60"	129	stress_45	"POPTR_0012s07060.1"	105	"	"G/A"	"54,8/45,2"	"51/42"	93
stress_12bis	"POPTR_0012s08330.1"	207	"	"A/G"	"52,7/47,3"	"69/62"	131	stress_42	"POPTR_0012s08330.1"	207	"	"A/G"	"66,4/33,6"	"83/42"	125
stress_12bis	"POPTR_0012s08330.1"	207	"	"A/G"	"52,7/47,3"	"69/62"	131	stress_45	"POPTR_0012s08330.1"	207	"	"A/G"	"59,5/40,5"	"69/47"	116
stress_12bis	"POPTR_0019s11720.1"	149	"	"T/C"	"51,5/47,8"	"69/64"	134	stress_42	"POPTR_0019s11720.1"	149	"	"T/C"	"62,2/37,8"	"23/14"	37
stress_12bis	"POPTR_0019s11720.1"	149	"	"T/C"	"51,5/47,8"	"69/64"	134	stress_45	"POPTR_0019s11720.1"	149	"	"T/C"	"52,2/47,8"	"35/32"	67
stress_12bis	"POPTR_0006s12910.1"	780	"	"G/A"	"50,7/49,3"	"69/67"	136	stress_42	"POPTR_0006s12910.1"	780	"	"G/A"	"54,4/45,6"	"56/47"	103
stress_12bis	"POPTR_0006s12910.1"	780	"	"G/A"	"50,7/49,3"	"69/67"	136	stress_45	"POPTR_0006s12910.1"	780	"	"G/A"	"58,5/41,5"	"72/51"	123
stress_12bis	"POPTR_0009s05240.1"	327	"	"C/T"	"50,0/50,0"	"69/69"	138	stress_42	"POPTR_0009s05240.1"	327	"	"T/C"	"73,3/26,7"	"33/12"	45
stress_12bis	"POPTR_0009s05240.1"	327	"	"C/T"	"50,0/50,0"	"69/69"	138	stress_45	"POPTR_0009s05240.1"	327	"	"T/C"	"65,1/34,9"	"41/22"	63
stress_12bis	"POPTR_0008s19370.1"	225	"	"G/A"	"82,8/17,2"	"692/144"	836	stress_42	"POPTR_0008s19370.1"	225	"	"G/A"	"82,2/17,8"	"37/8"	45
stress_12bis	"POPTR_0019s08450.1"	1006	"	"T/C"	"70,0/30,0"	"7/3"	10	stress_42	"POPTR_0019s08450.1"	1006	"	"T/C"	"78,8/21,2"	"82/22"	104
stress_12bis	"POPTR_0009s07210.1"	1551	"	"C/A"	"70,0/30,0"	"7/3"	10	stress_45	"POPTR_0009s07210.1"	1551	"	"C/A"	"82,1/17,9"	"92/20"	112
stress_12bis	"POPTR_0017s08610.1"	487	"	"T/C"	"53,8/46,2"	"7/6"	13	stress_45	"POPTR_0017s08610.1"	487	"	"C/T"	"56,9/43,1"	"74/56"	130
stress_12bis	"POPTR_0017s08610.1"	1162	"	"A/C"	"53,8/46,2"	"7/6"	13	stress_42	"POPTR_0017s08610.1"	1162	"	"C/A"	"72,4/27,6"	"123/47"	170
stress_12bis	"POPTR_0017s08610.1"	1162	"	"A/C"	"53,8/46,2"	"7/6"	13	stress_45	"POPTR_0017s08610.1"	1162	"	"C/A"	"71,1/28,9"	"207/84"	291
stress_12bis	"POPTR_0015s13050.1"	207	"	"T/G"	"53,8/46,2"	"7/6"	13	stress_45	"POPTR_0015s13050.1"	207	"	"T/G"	"68,8/31,2"	"132/60"	192
stress_12bis	"POPTR_0010s00900.1"	128	"	"A/G"	"53,8/46,2"	"7/6"	13	stress_45	"POPTR_0010s00900.1"	128	"	"A/G"	"53,1/46,9"	"60/53"	113
stress_12bis	"POPTR_0017s08610.1"	495	"	"C/T"	"50,0/50,0"	"7/7"	14	stress_45	"POPTR_0017s08610.1"	495	"	"C/T"	"54,7/45,3"	"75/62"	137
stress_12bis	"POPTR_0014s13560.1"	59	"	"G/A"	"60,9/39,1"	"70/45"	115	stress_42	"POPTR_0014s13560.1"	59	"	"G/A"	"56,1/43,9"	"23/18"	41
stress_12bis	"POPTR_0014s13560.1"	59	"	"G/A"	"60,9/39,1"	"70/45"	115	stress_45	"POPTR_0014s13560.1"	59	"	"G/A"	"54,8/45,2"	"51/42"	93
stress_12bis	"POPTR_0003s11300.1"	1587	"	"C/T"	"58,3/41,7"	"70/50"	120	stress_42	"POPTR_0003s11300.1"	1587	"	"C/T"	"51,9/48,1"	"14/13"	27
stress_12bis	"POPTR_0003s11300.1"	1587	"	"C/T"	"58,3/41,7"	"70/50"	120	stress_45	"POPTR_0003s11300.1"	1587	"	"C/T"	"51,5/48,5"	"17/16"	33
stress_12bis	"POPTR_0013s00760.1"	310	"	"T/G"	"57,9/42,1"	"70/51"	121	stress_42	"POPTR_0013s00760.1"	310	"	"G/T"	"72,2/27,8"	"13/5"	18
stress_12bis	"POPTR_0013s00760.1"	310	"	"T/G"	"57,9/42,1"	"70/51"	121	stress_45	"POPTR_0013s00760.1"	310	"	"G/T"	"65,8/34,2"	"25/13"	38
stress_12bis	"POPTR_0006s04230.1"	597	"	"T/C"	"55,1/44,9"	"70/57"	127	stress_42	"POPTR_0006s04230.1"	597	"	"T/C"	"55,9/44,1"	"19/15"	34
stress_12bis	"POPTR_0006s04230.1"	597	"	"T/C"	"55,1/44,9"	"70/57"	127	stress_45	"POPTR_0006s04230.1"	597	"	"T/C"	"56,4/43,6"	"31/24"	55
stress_12bis	"POPTR_0003s09830.1"	741	"	"C/T"	"55,1/44,9"	"70/57"	127	stress_42	"POPTR_0003s09830.1"	741	"	"C/T"	"52,6/47,4"	"20/18"	38
stress_12bis	"POPTR_0003s09830.1"	741	"	"C/T"	"55,1/44,9"	"70/57"	127	stress_45	"POPTR_0003s09830.1"	741	"	"C/T"	"52,6/47,4"	"20/18"	38
stress_12bis	"POPTR_0012s08330.1"	342	"	"A/G"	"55,1/44,9"	"70/57"	127	stress_42	"POPTR_0012s08330.1"	342	"	"G/A"	"64,5/34,6"	"69/37"	107
stress_12bis	"POPTR_0012s08330.1"	342	"	"A/G"	"55,1/44,9"	"70/57"	127	stress_45	"POPTR_0012s08330.1"	342	"	"G/A"	"54,4/45,6"	"62/52"	114
stress_12bis	"POPTR_0003s12160.1"	924	"	"C/T"	"53,8/46,2"	"70/60"	130	stress_42	"POPTR_0003s12160.1"	924	"	"T/C"	"51,4/48,6"	"19/18"	37
stress_12bis	"POPTR_0003s12160.1"	924	"	"C/T"	"53,8/46,2"	"70/60"	130	stress_45	"POPTR_0003s12160.1"	924	"	"T/C"	"53,6/46,4"	"37/32"	69
stress_12bis	"POPTR_0005s22780.1"	249	"	"C/A"	"53,0/47,0"	"70/62"	132	stress_42	"POPTR_0005s22780.1"	249	"	"A/C"	"51,0/49,0"	"26/25"	51
stress_12bis	"POPTR_0005s22780.1"	249	"	"C/A"	"53,0/47,0"	"70/62"	132	stress_45	"POPTR_0005s22780.1"	249	"	"C/A"	"62,0/38,0"	"31/19"	50
stress_12bis	"POPTR_0008s06580.1"	336	"	"C/T"	"52,6/47,4"	"70/63"	133	stress_42	"POPTR_0008s06580.1"	336	"	"T/C"	"58,1/41,7"	"419/301"	721
stress_12bis	"POPTR_0008s06580.1"	336	"	"C/T"	"52,6/47,4"	"70/63"	133	stress_45	"POPTR_0008s06580.1"	336	"	"T/C"	"57,9/42,1"	"546/397"	943
stress_12bis	"POPTR_0006s12910.1"	798	"	"T/C"	"52,2/47,8"	"70/64"	134	stress_42	"POPTR_0006s12910.1"	798	"	"T/C"	"56,6/43,4"	"60/46"	106
stress_12bis	"POPTR_0006s12910.1"	798	"	"T/C"	"52,2/47,8"	"70/64"	134	stress_45	"POPTR_0006s12910.1"	798	"	"T/C"	"59,1/40,9"	"68/47"	115
stress_12bis	"POPTR_0004s22810.1"	240	"	"A/T"	"52,8/46,6"	"707/624"	1338	stress_42	"POPTR_0004s22810.1"	240	"	"T/A"	"52,1/47,1"	"269/243"	516
stress_12bis	"POPTR_0004s22810.1"	240	"	"A/T"	"52,8/46,6"	"707/624"	1338	stress_45	"POPTR_0004s22810.1"	240	"	"T/A"	"51,8/47,4"	"317/290"	612
stress_12bis	"POPTR_0005s21750.1"	700	"	"G/A"	"76,3/23,7"	"71/22"	93	stress_42	"POPTR_0005s21750.1"	700	"	"G/A"	"72,1/27,9"	"88/34"	122
stress_12bis	"POPTR_0006s08850.1"	71	"	"G/A"	"69,6/30,4"	"71/31"	102	stress_42	"POPTR_0006s08850.1"	71	"	"G/A"	"70,2/29,8"	"33/14"	47
stress_12bis	"POPTR_0006s08850.1"	71	"	"G/A"	"69,6/30,4"	"71/31"	102	stress_45	"POPTR_0006s08850.1"	71	"	"G/A"	"76,9/23,1"	"40/12"	52
stress_12bis	"POPTR_0010s21350.1"	828	"	"A/G"	"69,6/30,4"	"71/31"	102	stress_42	"POPTR_0010s21350.1"	828	"	"A/G"	"84,8/15,2"	"28/5"	33
stress_12bis	"POPTR_0010s21350.1"	828	"	"A/G"	"69,6/30,4"	"71/31"	102	stress_45	"POPTR_0010s21350.1"	828	"	"A/G"	"71,9/28,1"	"41/16"	57
stress_12bis	"POPTR_0001s36560.1"	642	"	"A/C"	"60,7/39,3"	"71/46"	117	stress_42	"POPTR_0001s36560.1"	642	"	"C/A"	"66,7/33,3"	"12/6"	18
stress_12bis	"POPTR_0001s36560.1"	642	"	"A/C"	"60,7/39,3"	"71/46"	117	stress_45	"POPTR_0001s36560.1"	642	"	"A/C"	"59,1/40,9"	"26/18"	44
stress_12bis	"POPTR_0003s11300.1"	1944	"	"C/T"	"58,2/41,8"	"71/51"	122	stress_42	"POPTR_0003s11300.1"	1944	"	"C/T"	"62,5/37,5"	"15/9"	24
stress_12bis	"POPTR_0003s11300.1"	1944	"	"C/T"	"58,2/41,8"	"71/51"	122	stress_45	"POPTR_0003s11300.1"	1944	"	"C/T"	"55,6/44,4"	"25/20"	45
stress_12bis	"POPTR_0010s26200.1"	116	"	"C/A"	"56,3/43,7"	"71/55"	126	stress_42	"POPTR_0010s26200.1"	116	"	"C/A"	"55,3/44,7"	"21/17"	38
stress_12bis	"POPTR_0010s26200.1"	116	"	"C/A"	"56,3/43,7"	"71/55"	126	stress_45	"POPTR_0010s26200.1"	116	"	"C/A"	"76,5/23,5"	"26/8"	34
stress_12bis	"POPTR_0005s21750.1"	546	"	"A/G"	"55,9/44,1"	"71/56"	127	stress_42	"POPTR_0005s21750.1"	546	"	"G/A"	"55,1/44,9"	"86/70"	156
stress_12bis	"POPTR_0005s21750.1"	546	"	"A/G"	"55,9/44,1"	"71/56"	127	stress_45	"POPTR_0005s21750.1"	546	"	"G/A"	"53,4/46,6"	"79/69"	148
stress_12bis	"POPTR_0004s00480.1"	780	"	"C/T"	"55,0/45,0"	"71/58"	129	stress_42	"POPTR_0004s00480.1"	780	"	"T/C"	"55,3/44,7"	"42/34"	76
stress_12bis	"POPTR_0004s00480.1"	780	"	"C/T"	"55,0/45,0"	"71/58"	129	stress_45	"POPTR_0004s00480.1"	780	"	"T/C"	"54,7/45,3"	"52/43"	95
stress_12bis	"POPTR_0013s10250.1"	501	"	"T/G"	"54,2/45,8"	"71/60"	131	stress_42	"POPTR_0013s10250.1"	501	"	"T/G"	"52,6/47,4"	"30/27"	57
stress_12bis	"POPTR_0013s10250.1"	501	"	"T/G"	"54,2/45,8"	"71/60"	131	stress_45	"POPTR_0013s10250.1"	501	"	"T/G"	"60,7/39,3"	"37/24"	61
stress_12bis	"POPTR_0005s22780.1"	37	"	"C/T"	"53,8/46,2"	"71/61"	132	stress_42	"POPTR_0005s22780.1"	37	"	"T/C"	"52,4/47,6"	"22/20"	42
stress_12bis	"POPTR_0005s22780.1"	37	"	"C/T"	"53,8/46,2"	"71/61"	132	stress_45	"POPTR_0005s22780.1"	37	"	"C/T"	"58,3/41,7"	"21/15"	36
stress_12bis	"POPTR_0002s03020.1"	544	"	"C/T"	"53,0/47,0"	"71/63"	134	stress_42	"POPTR_0002s03020.1"	544	"	"C/T"	"70,2/29,8"	"151/64"	215
stress_12bis	"POPTR_0002s03020.1"	544	"	"C/T"	"53,0/47,0"	"71/63"	134	stress_45	"POPTR_0002s03020.1"	544	"	"C/T"	"74,9/25,1"	"317/106"	423
stress_12bis	"POPTR_0006s12910.1"	250	"	"C/G"	"52,2/47,8"	"71/65"	136	stress_42	"POPTR_0006s12910.1"	250	"	"C/G"	"53,6/46,4"	"45/39"	84
stress_12bis	"POPTR_0006s12910.1"	250	"	"C/G"	"52,2/47,8"	"71/65"	136	stress_45	"POPTR_0006s12910.1"	250	"	"G/C"	"52,3/47,7"	"79/72"	151
stress_12bis	"POPTR_0002s01320.1"	621	"	"T/C"	"51,8/48,2"	"71/66"	137	stress_42	"POPTR_0002s01320.1"	621	"	"C/T"	"53,1/46,9"	"17/15"	32
stress_12bis	"POPTR_0002s01320.1"	621	"	"T/C"	"51,8/48,2"	"71/66"	137	stress_45	"POPTR_0002s01320.1"	621	"	"C/T"	"54,5/45,5"	"55/46"	101
stress_12bis	"POPTR_0003s11300.1"	2049	"	"T/C"	"51,4/48,6"	"71/67"	138	stress_42	"POPTR_0003s11300.1"	2049	"	"C/T"	"55,1/44,9"	"27/22"	49
stress_12bis	"POPTR_0003s11300.1"	2049	"	"T/C"	"51,4/48,6"	"71/67"	138	stress_45	"POPTR_0003s11300.1"	2049	"	"T/C"	"55,1/44,9"	"27/22"	49
stress_12bis	"POPTR_0010s21270.1"	411	"	"A/T"	"67,3/32,7"	"72/35"	107	stress_42	"POPTR_0010s21270.1"	411	"	"A/T"	"52,4/47,6"	"22/20"	42
stress_12bis	"POPTR_0010s21270.1"	411	"	"A/T"	"67,3/32,7"	"72/35"	107	stress_45	"POPTR_0010s21270.1"	411	"	"T/A"	"51,7/48,3"	"46/43"	89
stress_12bis	"POPTR_0006s08850.1"	102	"	"T/G"	"64,9/35,1"	"72/39"	111	stress_42	"POPTR_0006s08850.1"	102	"	"T/G"	"70,1/29,9"	"47/20"	67
stress_12bis	"POPTR_0006s08850.1"	102	"	"T/G"	"64,9/35,1"	"72/39"	111	stress_45	"POPTR_0006s08850.1"	102	"	"T/G"	"61,4/38,6"	"35/22"	57
stress_12bis	"POPTR_0011s12440.1"	276	"	"G/T"	"62,1/37,9"	"72/44"	116	stress_45	"POPTR_0011s12440.1"	276	"	"G/T"	"68,8/31,2"	"22/10"	32
stress_12bis	"POPTR_0001s36330.1"	1167	"	"G/A"	"62,1/37,9"	"72/44"	116	stress_42	"POPTR_0001s36330.1"	1167	"	"G/A"	"80,0/20,0"	"40/10"	50
stress_12bis	"POPTR_0001s36330.1"	1167	"	"G/A"	"62,1/37,9"	"72/44"	116	stress_45	"POPTR_0001s36330.1"	1167	"	"G/A"	"72,2/26,4"	"52/19"	72
stress_12bis	"POPTR_0004s01660.1"	1440	"	"C/T"	"61,5/38,5"	"72/45"	117	stress_42	"POPTR_0004s01660.1"	1440	"	"T/C"	"55,3/44,7"	"26/21"	47
stress_12bis	"POPTR_0004s01660.1"	1440	"	"C/T"	"61,5/38,5"	"72/45"	117	stress_45	"POPTR_0004s01660.1"	1440	"	"T/C"	"53,8/46,2"	"35/30"	65
stress_12bis	"POPTR_0014s08960.1"	261	"	"C/T"	"57,6/42,4"	"72/53"	125	stress_42	"POPTR_0014s08960.1"	261	"	"C/T"	"62,5/37,5"	"15/9"	24
stress_12bis	"POPTR_0014s08960.1"	261	"	"C/T"	"57,6/42,4"	"72/53"	125	stress_45	"POPTR_0014s08960.1"	261	"	"C/T"	"64,7/35,3"	"33/18"	51
stress_12bis	"POPTR_0014s06380.1"	286	"	"C/T"	"56,7/43,3"	"72/55"	127	stress_42	"POPTR_0014s06380.1"	286	"	"T/C"	"64,4/35,6"	"58/32"	90
stress_12bis	"POPTR_0014s06380.1"	286	"	"C/T"	"56,7/43,3"	"72/55"	127	stress_45	"POPTR_0014s06380.1"	286	"	"T/C"	"63,5/36,5"	"87/50"	137
stress_12bis	"POPTR_0008s03160.1"	892	"	"G/T"	"56,2/43,8"	"72/56"	128	stress_42	"POPTR_0008s03160.1"	892	"	"G/T"	"57,4/42,6"	"27/20"	47
stress_12bis	"POPTR_0008s03160.1"	892	"	"G/T"	"56,2/43,8"	"72/56"	128	stress_45	"POPTR_0008s03160.1"	892	"	"G/T"	"75,0/25,0"	"48/16"	64
stress_12bis	"POPTR_0003s08760.1"	354	"	"T/G"	"55,4/44,6"	"72/58"	130	stress_42	"POPTR_0003s08760.1"	354	"	"T/G"	"66,7/33,3"	"22/11"	33
stress_12bis	"POPTR_0003s08760.1"	354	"	"T/G"	"55,4/44,6"	"72/58"	130	stress_45	"POPTR_0003s08760.1"	354	"	"T/G"	"52,6/47,4"	"10/9"	19
stress_12bis	"POPTR_0007s09630.1"	584	"	"G/A"	"54,5/45,5"	"72/60"	132	stress_42	"POPTR_0007s09630.1"	584	"	"G/A"	"75,0/25,0"	"12/4"	16
stress_12bis	"POPTR_0007s09630.1"	584	"	"G/A"	"54,5/45,5"	"72/60"	132	stress_45	"POPTR_0007s09630.1"	584	"	"G/A"	"59,3/40,7"	"16/11"	27
stress_12bis	"POPTR_0012s08330.1"	231	"	"T/A"	"52,2/47,8"	"72/66"	138	stress_42	"POPTR_0012s08330.1"	231	"	"A/T"	"65,8/34,2"	"75/39"	114
stress_12bis	"POPTR_0012s08330.1"	231	"	"T/A"	"52,2/47,8"	"72/66"	138	stress_45	"POPTR_0012s08330.1"	231	"	"A/T"	"61,7/38,3"	"58/36"	94
stress_12bis	"POPTR_0001s08770.1"	1083	"	"A/G"	"51,8/48,2"	"72/67"	139	stress_42	"POPTR_0001s08770.1"	1083	"	"A/G"	"54,1/45,9"	"20/17"	37
stress_12bis	"POPTR_0001s08770.1"	1083	"	"A/G"	"51,8/48,2"	"72/67"	139	stress_45	"POPTR_0001s08770.1"	1083	"	"A/G"	"56,0/44,0"	"42/33"	75
stress_12bis	"POPTR_0004s08500.1"	87	"	"A/T"	"51,1/48,9"	"72/69"	141	stress_42	"POPTR_0004s08500.1"	87	"	"T/A"	"70,4/29,6"	"356/150"	506
stress_12bis	"POPTR_0004s08500.1"	87	"	"A/T"	"51,1/48,9"	"72/69"	141	stress_45	"POPTR_0004s08500.1"	87	"	"T/A"	"68,0/32,0"	"332/156"	488
stress_12bis	"POPTR_0001s36560.1"	816	"	"T/C"	"50,7/49,3"	"72/70"	142	stress_42	"POPTR_0001s36560.1"	816	"	"C/T"	"52,9/47,1"	"9/8"	17
stress_12bis	"POPTR_0001s36560.1"	816	"	"T/C"	"50,7/49,3"	"72/70"	142	stress_45	"POPTR_0001s36560.1"	816	"	"C/T"	"50,0/50,0"	"25/25"	50
stress_12bis	"POPTR_0002s01320.1"	1116	"	"T/C"	"50,3/49,0"	"72/70"	143	stress_42	"POPTR_0002s01320.1"	1116	"	"C/T"	"64,3/35,7"	"36/20"	56
stress_12bis	"POPTR_0002s01320.1"	1116	"	"T/C"	"50,3/49,0"	"72/70"	143	stress_45	"POPTR_0002s01320.1"	1116	"	"C/T"	"54,3/45,7"	"38/32"	70
stress_12bis	"POPTR_0004s02080.1"	243	"	"T/C"	"83,0/17,0"	"73/15"	88	stress_42	"POPTR_0004s02080.1"	243	"	"T/C"	"83,9/16,1"	"146/28"	174
stress_12bis	"POPTR_0004s02080.1"	243	"	"T/C"	"83,0/17,0"	"73/15"	88	stress_45	"POPTR_0004s02080.1"	243	"	"T/C"	"78,7/21,3"	"214/58"	272
stress_12bis	"POPTR_0005s27240.1"	1986	"	"T/C"	"72,3/27,7"	"73/28"	101	stress_42	"POPTR_0005s27240.1"	1986	"	"T/C"	"54,5/45,5"	"12/10"	22
stress_12bis	"POPTR_0005s27240.1"	1986	"	"T/C"	"72,3/27,7"	"73/28"	101	stress_45	"POPTR_0005s27240.1"	1986	"	"T/C"	"72,7/27,3"	"32/12"	44
stress_12bis	"POPTR_0010s14080.1"	1551	"	"C/T"	"65,8/34,2"	"73/38"	111	stress_42	"POPTR_0010s14080.1"	1551	"	"C/T"	"81,4/18,6"	"35/8"	43
stress_12bis	"POPTR_0010s14080.1"	1551	"	"C/T"	"65,8/34,2"	"73/38"	111	stress_45	"POPTR_0010s14080.1"	1551	"	"C/T"	"71,1/28,9"	"27/11"	38
stress_12bis	"POPTR_0014s11210.1"	54	"	"A/T"	"62,4/37,6"	"73/44"	117	stress_42	"POPTR_0014s11210.1"	54	"	"T/A"	"82,6/17,4"	"38/8"	46
stress_12bis	"POPTR_0014s11210.1"	54	"	"A/T"	"62,4/37,6"	"73/44"	117	stress_45	"POPTR_0014s11210.1"	54	"	"T/A"	"53,0/47,0"	"35/31"	66
stress_12bis	"POPTR_0011s12440.1"	690	"	"G/A"	"62,4/37,6"	"73/44"	117	stress_42	"POPTR_0011s12440.1"	690	"	"G/A"	"56,5/43,5"	"13/10"	23
stress_12bis	"POPTR_0011s12440.1"	690	"	"G/A"	"62,4/37,6"	"73/44"	117	stress_45	"POPTR_0011s12440.1"	690	"	"G/A"	"67,5/32,5"	"27/13"	40
stress_12bis	"POPTR_0014s02410.1"	945	"	"T/G"	"61,3/38,7"	"73/46"	119	stress_42	"POPTR_0014s02410.1"	945	"	"T/G"	"54,5/45,5"	"79/66"	145
stress_12bis	"POPTR_0014s02410.1"	945	"	"T/G"	"61,3/38,7"	"73/46"	119	stress_45	"POPTR_0014s02410.1"	945	"	"G/T"	"54,1/45,9"	"180/153"	333
stress_12bis	"POPTR_0003s20840.1"	1626	"	"C/T"	"58,9/41,1"	"73/51"	124	stress_42	"POPTR_0003s20840.1"	1626	"	"C/T"	"60,0/40,0"	"18/12"	30
stress_12bis	"POPTR_0003s20840.1"	1626	"	"C/T"	"58,9/41,1"	"73/51"	124	stress_45	"POPTR_0003s20840.1"	1626	"	"C/T"	"57,1/42,9"	"24/18"	42
stress_12bis	"POPTR_0001s31700.1"	564	"	"C/T"	"56,2/43,8"	"73/57"	130	stress_42	"POPTR_0001s31700.1"	564	"	"C/T"	"50,3/49,7"	"73/72"	145
stress_12bis	"POPTR_0001s31700.1"	564	"	"C/T"	"56,2/43,8"	"73/57"	130	stress_45	"POPTR_0001s31700.1"	564	"	"C/T"	"61,2/38,8"	"145/92"	237
stress_12bis	"POPTR_0003s09830.1"	921	"	"T/C"	"55,3/44,7"	"73/59"	132	stress_42	"POPTR_0003s09830.1"	921	"	"C/T"	"52,0/48,0"	"13/12"	25
stress_12bis	"POPTR_0003s09830.1"	921	"	"T/C"	"55,3/44,7"	"73/59"	132	stress_45	"POPTR_0003s09830.1"	921	"	"T/C"	"54,8/45,2"	"17/14"	31
stress_12bis	"POPTR_0005s26700.1"	708	"	"T/C"	"54,5/44,8"	"73/60"	134	stress_42	"POPTR_0005s26700.1"	708	"	"C/T"	"73,9/26,1"	"17/6"	23
stress_12bis	"POPTR_0005s26700.1"	708	"	"T/C"	"54,5/44,8"	"73/60"	134	stress_45	"POPTR_0005s26700.1"	708	"	"C/T"	"50,0/50,0"	"16/16"	32
stress_12bis	"POPTR_0002s22220.1"	562	"	"C/A"	"54,5/44,8"	"73/60"	134	stress_42	"POPTR_0002s22220.1"	562	"	"C/A"	"60,6/39,4"	"57/37"	94
stress_12bis	"POPTR_0002s22220.1"	562	"	"C/A"	"54,5/44,8"	"73/60"	134	stress_45	"POPTR_0002s22220.1"	562	"	"A/C"	"56,2/42,3"	"77/58"	137
stress_12bis	"POPTR_0006s12910.1"	700	"	"G/A"	"52,5/46,8"	"73/65"	139	stress_42	"POPTR_0006s12910.1"	700	"	"A/G"	"51,1/48,9"	"45/43"	88
stress_12bis	"POPTR_0006s12910.1"	700	"	"G/A"	"52,5/46,8"	"73/65"	139	stress_45	"POPTR_0006s12910.1"	700	"	"A/G"	"56,5/43,5"	"83/64"	147
stress_12bis	"POPTR_0004s00480.1"	298	"	"G/A"	"51,0/49,0"	"73/70"	143	stress_42	"POPTR_0004s00480.1"	298	"	"G/A"	"57,3/42,7"	"55/41"	96
stress_12bis	"POPTR_0004s00480.1"	298	"	"G/A"	"51,0/49,0"	"73/70"	143	stress_45	"POPTR_0004s00480.1"	298	"	"G/A"	"56,8/43,2"	"63/48"	111
stress_12bis	"POPTR_0004s03160.1"	145	"	"A/G"	"50,7/49,3"	"73/71"	144	stress_42	"POPTR_0004s03160.1"	145	"	"A/G"	"54,5/45,5"	"6/5"	11
stress_12bis	"POPTR_0004s03160.1"	145	"	"A/G"	"50,7/49,3"	"73/71"	144	stress_45	"POPTR_0004s03160.1"	145	"	"A/G"	"63,6/36,4"	"7/4"	11
stress_12bis	"POPTR_0008s19370.1"	819	"	"C/T"	"67,2/32,7"	"730/355"	1086	stress_42	"POPTR_0008s19370.1"	819	"	"C/T"	"80,2/19,8"	"69/17"	86
stress_12bis	"POPTR_0008s19370.1"	819	"	"C/T"	"67,2/32,7"	"730/355"	1086	stress_45	"POPTR_0008s19370.1"	819	"	"C/T"	"79,4/20,6"	"54/14"	68
stress_12bis	"POPTR_0011s05250.1"	1680	"	"C/T"	"75,5/24,5"	"74/24"	98	stress_42	"POPTR_0011s05250.1"	1680	"	"C/T"	"83,9/16,1"	"115/22"	137
stress_12bis	"POPTR_0014s13560.1"	1599	"	"G/A"	"68,5/31,5"	"74/34"	108	stress_42	"POPTR_0014s13560.1"	1599	"	"G/A"	"68,4/31,6"	"54/25"	79
stress_12bis	"POPTR_0014s13560.1"	1599	"	"G/A"	"68,5/31,5"	"74/34"	108	stress_45	"POPTR_0014s13560.1"	1599	"	"G/A"	"70,2/29,8"	"59/25"	84
stress_12bis	"POPTR_0006s06180.1"	1938	"	"A/G"	"66,7/33,3"	"74/37"	111	stress_42	"POPTR_0006s06180.1"	1938	"	"A/G"	"71,9/28,1"	"46/18"	64
stress_12bis	"POPTR_0006s06180.1"	1938	"	"A/G"	"66,7/33,3"	"74/37"	111	stress_45	"POPTR_0006s06180.1"	1938	"	"A/G"	"76,4/23,6"	"84/26"	110
stress_12bis	"POPTR_0019s04750.1"	522	"	"C/T"	"63,2/36,8"	"74/43"	117	stress_42	"POPTR_0019s04750.1"	522	"	"C/T"	"76,0/24,0"	"73/23"	96
stress_12bis	"POPTR_0019s04750.1"	522	"	"C/T"	"63,2/36,8"	"74/43"	117	stress_45	"POPTR_0019s04750.1"	522	"	"C/T"	"67,9/32,1"	"57/27"	84
stress_12bis	"POPTR_0008s05480.1"	384	"	"T/C"	"63,2/36,8"	"74/43"	117	stress_42	"POPTR_0008s05480.1"	384	"	"C/T"	"59,3/40,7"	"32/22"	54
stress_12bis	"POPTR_0008s05480.1"	384	"	"T/C"	"63,2/36,8"	"74/43"	117	stress_45	"POPTR_0008s05480.1"	384	"	"T/C"	"56,5/43,5"	"118/91"	209
stress_12bis	"POPTR_0001s47590.1"	27	"	"G/T"	"61,7/36,7"	"74/44"	120	stress_42	"POPTR_0001s47590.1"	27	"	"G/T"	"52,9/47,1"	"27/24"	51
stress_12bis	"POPTR_0001s47590.1"	27	"	"G/T"	"61,7/36,7"	"74/44"	120	stress_45	"POPTR_0001s47590.1"	27	"	"G/T"	"60,0/40,0"	"21/14"	35
stress_12bis	"POPTR_0006s13240.1"	206	"	"A/G"	"61,7/38,3"	"74/46"	120	stress_42	"POPTR_0006s13240.1"	206	"	"A/G"	"81,8/18,2"	"27/6"	33
stress_12bis	"POPTR_0006s13240.1"	206	"	"A/G"	"61,7/38,3"	"74/46"	120	stress_45	"POPTR_0006s13240.1"	206	"	"A/G"	"65,4/34,6"	"34/18"	52
stress_12bis	"POPTR_0007s09630.1"	762	"	"A/G"	"60,7/39,3"	"74/48"	122	stress_42	"POPTR_0007s09630.1"	762	"	"G/A"	"56,5/43,5"	"13/10"	23
stress_12bis	"POPTR_0007s09630.1"	762	"	"A/G"	"60,7/39,3"	"74/48"	122	stress_45	"POPTR_0007s09630.1"	762	"	"A/G"	"61,5/38,5"	"24/15"	39
stress_12bis	"POPTR_0014s13560.1"	1989	"	"C/G"	"59,7/40,3"	"74/50"	124	stress_42	"POPTR_0014s13560.1"	1989	"	"C/G"	"67,7/32,3"	"65/31"	96
stress_12bis	"POPTR_0014s13560.1"	1989	"	"C/G"	"59,7/40,3"	"74/50"	124	stress_45	"POPTR_0014s13560.1"	1989	"	"C/G"	"70,2/29,8"	"73/31"	104
stress_12bis	"POPTR_0009s05240.1"	395	"	"A/C"	"59,7/40,3"	"74/50"	124	stress_42	"POPTR_0009s05240.1"	395	"	"C/A"	"71,8/28,2"	"28/11"	39
stress_12bis	"POPTR_0009s05240.1"	395	"	"A/C"	"59,7/40,3"	"74/50"	124	stress_45	"POPTR_0009s05240.1"	395	"	"C/A"	"76,5/21,6"	"39/11"	51
stress_12bis	"POPTR_0014s13560.1"	1725	"	"C/G"	"58,3/41,7"	"74/53"	127	stress_42	"POPTR_0014s13560.1"	1725	"	"C/G"	"62,2/37,8"	"61/37"	98
stress_12bis	"POPTR_0014s13560.1"	1725	"	"C/G"	"58,3/41,7"	"74/53"	127	stress_45	"POPTR_0014s13560.1"	1725	"	"C/G"	"67,7/32,3"	"67/32"	99
stress_12bis	"POPTR_0003s19210.1"	333	"	"C/A"	"54,8/45,2"	"74/61"	135	stress_42	"POPTR_0003s19210.1"	333	"	"A/C"	"61,5/38,5"	"16/10"	26
stress_12bis	"POPTR_0003s19210.1"	333	"	"C/A"	"54,8/45,2"	"74/61"	135	stress_45	"POPTR_0003s19210.1"	333	"	"A/C"	"67,6/32,4"	"25/12"	37
stress_12bis	"POPTR_0001s31700.1"	669	"	"C/T"	"54,8/45,2"	"74/61"	135	stress_42	"POPTR_0001s31700.1"	669	"	"C/T"	"52,6/46,9"	"101/90"	192
stress_12bis	"POPTR_0001s31700.1"	669	"	"C/T"	"54,8/45,2"	"74/61"	135	stress_45	"POPTR_0001s31700.1"	669	"	"C/T"	"52,4/47,6"	"129/117"	246
stress_12bis	"POPTR_0003s08760.1"	447	"	"C/A"	"54,4/45,6"	"74/62"	136	stress_42	"POPTR_0003s08760.1"	447	"	"C/A"	"77,4/22,6"	"24/7"	31
stress_12bis	"POPTR_0003s08760.1"	447	"	"C/A"	"54,4/45,6"	"74/62"	136	stress_45	"POPTR_0003s08760.1"	447	"	"C/A"	"65,4/34,6"	"17/9"	26
stress_12bis	"POPTR_0005s21750.1"	408	"	"C/T"	"54,0/46,0"	"74/63"	137	stress_42	"POPTR_0005s21750.1"	408	"	"C/T"	"60,9/39,1"	"81/52"	133
stress_12bis	"POPTR_0005s21750.1"	408	"	"C/T"	"54,0/46,0"	"74/63"	137	stress_45	"POPTR_0005s21750.1"	408	"	"C/T"	"57,8/42,2"	"89/65"	154
stress_12bis	"POPTR_0002s14730.1"	357	"	"C/T"	"54,0/46,0"	"74/63"	137	stress_42	"POPTR_0002s14730.1"	357	"	"C/T"	"52,9/47,1"	"9/8"	17
stress_12bis	"POPTR_0002s14730.1"	357	"	"C/T"	"54,0/46,0"	"74/63"	137	stress_45	"POPTR_0002s14730.1"	357	"	"C/T"	"58,1/41,9"	"18/13"	31
stress_12bis	"POPTR_0014s15710.1"	453	"	"C/T"	"53,6/46,4"	"74/64"	138	stress_42	"POPTR_0014s15710.1"	453	"	"C/T"	"65,1/34,9"	"56/30"	86
stress_12bis	"POPTR_0014s15710.1"	453	"	"C/T"	"53,6/46,4"	"74/64"	138	stress_45	"POPTR_0014s15710.1"	453	"	"C/T"	"72,4/27,6"	"84/32"	116
stress_12bis	"POPTR_0014s15710.1"	156	"	"A/G"	"51,7/48,3"	"74/69"	143	stress_42	"POPTR_0014s15710.1"	156	"	"A/G"	"71,2/28,8"	"52/21"	73
stress_12bis	"POPTR_0014s15710.1"	156	"	"A/G"	"51,7/48,3"	"74/69"	143	stress_45	"POPTR_0014s15710.1"	156	"	"A/G"	"71,3/28,7"	"82/33"	115
stress_12bis	"POPTR_0013s13190.1"	348	"	"T/C"	"50,3/49,7"	"74/73"	147	stress_42	"POPTR_0013s13190.1"	348	"	"C/T"	"55,0/45,0"	"33/27"	60
stress_12bis	"POPTR_0013s13190.1"	348	"	"T/C"	"50,3/49,7"	"74/73"	147	stress_45	"POPTR_0013s13190.1"	348	"	"T/C"	"53,7/46,3"	"22/19"	41
stress_12bis	"POPTR_0011s14410.1"	286	"	"T/G"	"50,0/49,3"	"74/73"	148	stress_42	"POPTR_0011s14410.1"	286	"	"G/T"	"61,1/38,9"	"11/7"	18
stress_12bis	"POPTR_0011s14410.1"	286	"	"T/G"	"50,0/49,3"	"74/73"	148	stress_45	"POPTR_0011s14410.1"	286	"	"T/G"	"62,1/37,9"	"18/11"	29
stress_12bis	"POPTR_0008s19370.1"	720	"	"G/C"	"72,7/27,3"	"740/278"	1018	stress_42	"POPTR_0008s19370.1"	720	"	"G/C"	"77,3/22,7"	"68/20"	88
stress_12bis	"POPTR_0005s26070.2"	140	"	"T/C"	"60,8/39,2"	"741/477"	1218	stress_42	"POPTR_0005s26070.2"	140	"	"T/C"	"54,3/45,7"	"152/128"	280
stress_12bis	"POPTR_0005s26070.2"	140	"	"T/C"	"60,8/39,2"	"741/477"	1218	stress_45	"POPTR_0005s26070.2"	140	"	"T/C"	"58,4/41,5"	"321/228"	550
stress_12bis	"POPTR_0008s19370.1"	733	"	"T/C"	"72,6/27,4"	"744/281"	1025	stress_42	"POPTR_0008s19370.1"	733	"	"T/C"	"72,9/27,1"	"62/23"	85
stress_12bis	"POPTR_0010s21270.1"	1908	"	"T/A"	"70,1/29,9"	"75/32"	107	stress_42	"POPTR_0010s21270.1"	1908	"	"T/A"	"62,0/38,0"	"49/30"	79
stress_12bis	"POPTR_0010s21270.1"	1908	"	"T/A"	"70,1/29,9"	"75/32"	107	stress_45	"POPTR_0010s21270.1"	1908	"	"T/A"	"61,4/38,6"	"78/49"	127
stress_12bis	"POPTR_0001s11350.1"	363	"	"C/T"	"68,8/30,3"	"75/33"	109	stress_42	"POPTR_0001s11350.1"	363	"	"T/C"	"67,4/30,4"	"31/14"	46
stress_12bis	"POPTR_0001s11350.1"	363	"	"C/T"	"68,8/30,3"	"75/33"	109	stress_45	"POPTR_0001s11350.1"	363	"	"C/T"	"50,8/49,2"	"30/29"	59
stress_12bis	"POPTR_0006s10130.1"	600	"	"A/C"	"64,7/35,3"	"75/41"	116	stress_42	"POPTR_0006s10130.1"	600	"	"C/A"	"64,8/35,2"	"46/25"	71
stress_12bis	"POPTR_0006s10130.1"	600	"	"A/C"	"64,7/35,3"	"75/41"	116	stress_45	"POPTR_0006s10130.1"	600	"	"A/C"	"63,9/36,1"	"69/39"	108
stress_12bis	"POPTR_0006s13240.1"	177	"	"C/A"	"64,7/35,3"	"75/41"	116	stress_45	"POPTR_0006s13240.1"	177	"	"C/A"	"59,6/40,4"	"34/23"	57
stress_12bis	"POPTR_0019s04750.1"	794	"	"T/A"	"64,7/35,3"	"75/41"	116	stress_42	"POPTR_0019s04750.1"	794	"	"T/A"	"70,2/29,8"	"66/28"	94
stress_12bis	"POPTR_0019s04750.1"	794	"	"T/A"	"64,7/35,3"	"75/41"	116	stress_45	"POPTR_0019s04750.1"	794	"	"T/A"	"72,9/27,1"	"51/19"	70
stress_12bis	"POPTR_0004s10660.1"	363	"	"C/T"	"63,6/36,4"	"75/43"	118	stress_42	"POPTR_0004s10660.1"	363	"	"T/C"	"56,0/44,0"	"94/74"	168
stress_12bis	"POPTR_0004s10660.1"	363	"	"C/T"	"63,6/36,4"	"75/43"	118	stress_45	"POPTR_0004s10660.1"	363	"	"T/C"	"53,8/46,2"	"100/86"	186
stress_12bis	"POPTR_0009s02370.1"	77	"	"A/T"	"61,5/38,5"	"75/47"	122	stress_42	"POPTR_0009s02370.1"	77	"	"A/T"	"50,7/49,3"	"35/34"	69
stress_12bis	"POPTR_0009s02370.1"	77	"	"A/T"	"61,5/38,5"	"75/47"	122	stress_45	"POPTR_0009s02370.1"	77	"	"T/A"	"55,3/44,7"	"52/42"	94
stress_12bis	"POPTR_0006s13240.1"	323	"	"T/C"	"57,7/42,3"	"75/55"	130	stress_42	"POPTR_0006s13240.1"	323	"	"T/C"	"72,9/27,1"	"35/13"	48
stress_12bis	"POPTR_0006s13240.1"	323	"	"T/C"	"57,7/42,3"	"75/55"	130	stress_45	"POPTR_0006s13240.1"	323	"	"T/C"	"60,0/40,0"	"45/30"	75
stress_12bis	"POPTR_0014s15710.1"	624	"	"A/G"	"54,0/46,0"	"75/64"	139	stress_42	"POPTR_0014s15710.1"	624	"	"A/G"	"69,6/30,4"	"64/28"	92
stress_12bis	"POPTR_0014s15710.1"	624	"	"A/G"	"54,0/46,0"	"75/64"	139	stress_45	"POPTR_0014s15710.1"	624	"	"A/G"	"70,3/29,7"	"78/33"	111
stress_12bis	"POPTR_0012s07060.1"	1230	"	"A/T"	"53,6/46,4"	"75/65"	140	stress_42	"POPTR_0012s07060.1"	1230	"	"A/T"	"55,6/44,4"	"40/32"	72
stress_12bis	"POPTR_0012s07060.1"	1230	"	"A/T"	"53,6/46,4"	"75/65"	140	stress_45	"POPTR_0012s07060.1"	1230	"	"T/A"	"59,0/41,0"	"62/43"	105
stress_12bis	"POPTR_0009s09240.1"	1011	"	"A/G"	"52,8/47,2"	"75/67"	142	stress_42	"POPTR_0009s09240.1"	1011	"	"A/G"	"60,0/40,0"	"33/22"	55
stress_12bis	"POPTR_0009s09240.1"	1011	"	"A/G"	"52,8/47,2"	"75/67"	142	stress_45	"POPTR_0009s09240.1"	1011	"	"A/G"	"57,8/42,2"	"26/19"	45
stress_12bis	"POPTR_0018s11820.1"	204	"	"A/G"	"50,7/49,3"	"75/73"	148	stress_42	"POPTR_0018s11820.1"	204	"	"G/A"	"73,9/26,1"	"17/6"	23
stress_12bis	"POPTR_0018s11820.1"	204	"	"A/G"	"50,7/49,3"	"75/73"	148	stress_45	"POPTR_0018s11820.1"	204	"	"G/A"	"60,5/39,5"	"23/15"	38
stress_12bis	"POPTR_0001s11350.1"	825	"	"A/T"	"73,1/26,9"	"76/28"	104	stress_42	"POPTR_0001s11350.1"	825	"	"T/A"	"70,8/29,2"	"34/14"	48
stress_12bis	"POPTR_0001s11350.1"	825	"	"A/T"	"73,1/26,9"	"76/28"	104	stress_45	"POPTR_0001s11350.1"	825	"	"A/T"	"52,4/47,6"	"22/20"	42
stress_12bis	"POPTR_0008s17090.1"	249	"	"A/T"	"70,4/29,6"	"76/32"	108	stress_42	"POPTR_0008s17090.1"	249	"	"A/T"	"62,7/37,3"	"32/19"	51
stress_12bis	"POPTR_0008s17090.1"	249	"	"A/T"	"70,4/29,6"	"76/32"	108	stress_45	"POPTR_0008s17090.1"	249	"	"A/T"	"65,1/34,9"	"28/15"	43
stress_12bis	"POPTR_0019s04750.1"	787	"	"C/G"	"63,9/36,1"	"76/43"	119	stress_42	"POPTR_0019s04750.1"	787	"	"C/G"	"69,0/31,0"	"69/31"	100
stress_12bis	"POPTR_0019s04750.1"	787	"	"C/G"	"63,9/36,1"	"76/43"	119	stress_45	"POPTR_0019s04750.1"	787	"	"C/G"	"71,2/28,8"	"47/19"	66
stress_12bis	"POPTR_0007s09630.1"	768	"	"T/C"	"60,3/39,7"	"76/50"	126	stress_42	"POPTR_0007s09630.1"	768	"	"C/T"	"54,5/45,5"	"12/10"	22
stress_12bis	"POPTR_0007s09630.1"	768	"	"T/C"	"60,3/39,7"	"76/50"	126	stress_45	"POPTR_0007s09630.1"	768	"	"T/C"	"65,0/35,0"	"26/14"	40
stress_12bis	"POPTR_0011s12440.1"	676	"	"A/G"	"57,6/42,4"	"76/56"	132	stress_42	"POPTR_0011s12440.1"	676	"	"A/G"	"60,7/39,3"	"17/11"	28
stress_12bis	"POPTR_0011s12440.1"	676	"	"A/G"	"57,6/42,4"	"76/56"	132	stress_45	"POPTR_0011s12440.1"	676	"	"A/G"	"64,3/35,7"	"27/15"	42
stress_12bis	"POPTR_0014s02410.1"	1074	"	"C/G"	"54,7/45,3"	"76/63"	139	stress_42	"POPTR_0014s02410.1"	1074	"	"G/C"	"54,0/45,7"	"149/126"	276
stress_12bis	"POPTR_0014s02410.1"	1074	"	"C/G"	"54,7/45,3"	"76/63"	139	stress_45	"POPTR_0014s02410.1"	1074	"	"C/G"	"52,0/48,0"	"218/201"	419
stress_12bis	"POPTR_0004s00480.1"	261	"	"T/G"	"52,8/46,5"	"76/67"	144	stress_42	"POPTR_0004s00480.1"	261	"	"T/G"	"63,1/36,9"	"53/31"	84
stress_12bis	"POPTR_0004s00480.1"	261	"	"T/G"	"52,8/46,5"	"76/67"	144	stress_45	"POPTR_0004s00480.1"	261	"	"T/G"	"55,0/45,0"	"66/54"	120
stress_12bis	"POPTR_0003s09830.1"	642	"	"T/C"	"50,3/47,7"	"76/72"	151	stress_42	"POPTR_0003s09830.1"	642	"	"T/C"	"56,8/43,2"	"21/16"	37
stress_12bis	"POPTR_0003s09830.1"	642	"	"T/C"	"50,3/47,7"	"76/72"	151	stress_45	"POPTR_0003s09830.1"	642	"	"T/C"	"51,1/46,7"	"23/21"	45
stress_12bis	"POPTR_0008s08410.1"	372	"	"C/T"	"51,0/49,0"	"76/73"	149	stress_42	"POPTR_0008s08410.1"	372	"	"T/C"	"64,7/35,3"	"11/6"	17
stress_12bis	"POPTR_0008s08410.1"	372	"	"C/T"	"51,0/49,0"	"76/73"	149	stress_45	"POPTR_0008s08410.1"	372	"	"T/C"	"56,8/43,2"	"21/16"	37
stress_12bis	"POPTR_0002s14730.1"	1716	"	"A/C"	"68,8/31,2"	"77/35"	112	stress_42	"POPTR_0002s14730.1"	1716	"	"A/C"	"85,0/15,0"	"17/3"	20
stress_12bis	"POPTR_0002s14730.1"	1716	"	"A/C"	"68,8/31,2"	"77/35"	112	stress_45	"POPTR_0002s14730.1"	1716	"	"A/C"	"82,6/17,4"	"19/4"	23
stress_12bis	"POPTR_0012s11630.1"	474	"	"C/T"	"67,5/32,5"	"77/37"	114	stress_42	"POPTR_0012s11630.1"	474	"	"C/T"	"72,2/27,8"	"52/20"	72
stress_12bis	"POPTR_0012s11630.1"	474	"	"C/T"	"67,5/32,5"	"77/37"	114	stress_45	"POPTR_0012s11630.1"	474	"	"C/T"	"62,8/37,2"	"49/29"	78
stress_12bis	"POPTR_0010s20060.1"	183	"	"G/A"	"64,2/35,8"	"77/43"	120	stress_45	"POPTR_0010s20060.1"	183	"	"G/A"	"83,7/16,3"	"36/7"	43
stress_12bis	"POPTR_0017s14310.3"	217	"	"G/A"	"59,7/40,3"	"77/52"	129	stress_42	"POPTR_0017s14310.3"	217	"	"A/G"	"50,6/49,4"	"224/219"	443
stress_12bis	"POPTR_0017s14310.3"	217	"	"G/A"	"59,7/40,3"	"77/52"	129	stress_45	"POPTR_0017s14310.3"	217	"	"G/A"	"62,0/38,0"	"75/46"	121
stress_12bis	"POPTR_0011s14410.1"	360	"	"G/A"	"58,8/41,2"	"77/54"	131	stress_42	"POPTR_0011s14410.1"	360	"	"G/A"	"57,1/42,9"	"12/9"	21
stress_12bis	"POPTR_0011s14410.1"	360	"	"G/A"	"58,8/41,2"	"77/54"	131	stress_45	"POPTR_0011s14410.1"	360	"	"G/A"	"75,0/25,0"	"12/4"	16
stress_12bis	"POPTR_0005s22830.1"	316	"	"G/A"	"54,2/45,8"	"77/65"	142	stress_42	"POPTR_0005s22830.1"	316	"	"A/G"	"50,0/50,0"	"44/44"	88
stress_12bis	"POPTR_0005s22830.1"	316	"	"G/A"	"54,2/45,8"	"77/65"	142	stress_45	"POPTR_0005s22830.1"	316	"	"G/A"	"57,0/43,0"	"49/37"	86
stress_12bis	"POPTR_0005s26170.1"	481	"	"C/A"	"75,7/24,3"	"78/25"	103	stress_42	"POPTR_0005s26170.1"	481	"	"C/A"	"77,1/22,9"	"91/27"	118
stress_12bis	"POPTR_0005s26170.1"	481	"	"C/A"	"75,7/24,3"	"78/25"	103	stress_45	"POPTR_0005s26170.1"	481	"	"C/A"	"66,7/33,3"	"66/33"	99
stress_12bis	"POPTR_0002s22220.1"	489	"	"C/T"	"70,9/29,1"	"78/32"	110	stress_42	"POPTR_0002s22220.1"	489	"	"C/T"	"69,9/30,1"	"58/25"	83
stress_12bis	"POPTR_0002s22220.1"	489	"	"C/T"	"70,9/29,1"	"78/32"	110	stress_45	"POPTR_0002s22220.1"	489	"	"C/T"	"77,9/22,1"	"88/25"	113
stress_12bis	"POPTR_0013s13220.1"	757	"	"G/C"	"70,3/29,7"	"78/33"	111	stress_42	"POPTR_0013s13220.1"	757	"	"G/C"	"58,5/41,5"	"55/39"	94
stress_12bis	"POPTR_0013s13220.1"	757	"	"G/C"	"70,3/29,7"	"78/33"	111	stress_45	"POPTR_0013s13220.1"	757	"	"G/C"	"54,3/45,7"	"70/59"	129
stress_12bis	"POPTR_0002s14730.1"	1714	"	"T/C"	"65,0/35,0"	"78/42"	120	stress_42	"POPTR_0002s14730.1"	1714	"	"T/C"	"61,3/38,7"	"19/12"	31
stress_12bis	"POPTR_0002s14730.1"	1714	"	"T/C"	"65,0/35,0"	"78/42"	120	stress_45	"POPTR_0002s14730.1"	1714	"	"T/C"	"55,9/44,1"	"19/15"	34
stress_12bis	"POPTR_0019s04750.1"	784	"	"A/G"	"64,5/35,5"	"78/43"	121	stress_42	"POPTR_0019s04750.1"	784	"	"A/G"	"73,0/27,0"	"84/31"	115
stress_12bis	"POPTR_0019s04750.1"	784	"	"A/G"	"64,5/35,5"	"78/43"	121	stress_45	"POPTR_0019s04750.1"	784	"	"A/G"	"77,6/22,4"	"59/17"	76
stress_12bis	"POPTR_0012s08330.1"	156	"	"C/T"	"53,4/46,6"	"78/68"	146	stress_42	"POPTR_0012s08330.1"	156	"	"C/T"	"71,6/28,4"	"63/25"	88
stress_12bis	"POPTR_0012s08330.1"	156	"	"C/T"	"53,4/46,6"	"78/68"	146	stress_45	"POPTR_0012s08330.1"	156	"	"C/T"	"66,0/34,0"	"93/48"	141
stress_12bis	"POPTR_0007s08400.1"	1473	"	"C/G"	"53,1/46,9"	"78/69"	147	stress_42	"POPTR_0007s08400.1"	1473	"	"G/C"	"66,2/33,8"	"92/47"	139
stress_12bis	"POPTR_0007s08400.1"	1473	"	"C/G"	"53,1/46,9"	"78/69"	147	stress_45	"POPTR_0007s08400.1"	1473	"	"G/C"	"53,9/46,1"	"158/135"	293
stress_12bis	"POPTR_0016s14310.1"	797	"	"G/A"	"51,3/48,7"	"78/74"	152	stress_42	"POPTR_0016s14310.1"	797	"	"A/G"	"63,2/36,8"	"12/7"	19
stress_12bis	"POPTR_0016s14310.1"	797	"	"G/A"	"51,3/48,7"	"78/74"	152	stress_45	"POPTR_0016s14310.1"	797	"	"A/G"	"71,4/28,6"	"20/8"	28
stress_12bis	"POPTR_0004s03160.1"	141	"	"G/C"	"51,0/49,0"	"78/75"	153	stress_42	"POPTR_0004s03160.1"	141	"	"G/C"	"61,5/38,5"	"8/5"	13
stress_12bis	"POPTR_0004s03160.1"	141	"	"G/C"	"51,0/49,0"	"78/75"	153	stress_45	"POPTR_0004s03160.1"	141	"	"G/C"	"63,6/36,4"	"7/4"	11
stress_12bis	"POPTR_0004s03160.1"	204	"	"A/G"	"51,0/49,0"	"78/75"	153	stress_42	"POPTR_0004s03160.1"	204	"	"A/G"	"61,9/38,1"	"13/8"	21
stress_12bis	"POPTR_0004s03160.1"	204	"	"A/G"	"51,0/49,0"	"78/75"	153	stress_45	"POPTR_0004s03160.1"	204	"	"A/G"	"77,8/22,2"	"14/4"	18
stress_12bis	"POPTR_0003s09830.1"	579	"	"G/A"	"50,3/49,7"	"78/77"	155	stress_42	"POPTR_0003s09830.1"	579	"	"G/A"	"51,6/48,4"	"16/15"	31
stress_12bis	"POPTR_0003s09830.1"	579	"	"G/A"	"50,3/49,7"	"78/77"	155	stress_45	"POPTR_0003s09830.1"	579	"	"A/G"	"50,0/50,0"	"23/23"	46
stress_12bis	"POPTR_0008s19370.1"	246	"	"A/T"	"75,1/24,8"	"782/258"	1041	stress_42	"POPTR_0008s19370.1"	246	"	"A/T"	"78,6/21,4"	"44/12"	56
stress_12bis	"POPTR_0004s09910.1"	46	"	"A/C"	"52,5/47,5"	"787/712"	1500	stress_42	"POPTR_0004s09910.1"	46	"	"C/A"	"55,5/44,5"	"71/57"	128
stress_12bis	"POPTR_0004s09910.1"	46	"	"A/C"	"52,5/47,5"	"787/712"	1500	stress_45	"POPTR_0004s09910.1"	46	"	"A/C"	"55,2/44,8"	"117/95"	212
stress_12bis	"POPTR_0006s06180.1"	1717	"	"C/T"	"76,0/24,0"	"79/25"	104	stress_42	"POPTR_0006s06180.1"	1717	"	"C/T"	"81,1/18,9"	"43/10"	53
stress_12bis	"POPTR_0006s06180.1"	1717	"	"C/T"	"76,0/24,0"	"79/25"	104	stress_45	"POPTR_0006s06180.1"	1717	"	"C/T"	"75,0/25,0"	"75/25"	100
stress_12bis	"POPTR_0019s04750.1"	777	"	"A/C"	"70,5/29,5"	"79/33"	112	stress_42	"POPTR_0019s04750.1"	777	"	"A/C"	"77,3/22,7"	"99/29"	128
stress_12bis	"POPTR_0019s04750.1"	777	"	"A/C"	"70,5/29,5"	"79/33"	112	stress_45	"POPTR_0019s04750.1"	777	"	"A/C"	"76,5/23,5"	"52/16"	68
stress_12bis	"POPTR_0005s26170.1"	174	"	"C/G"	"69,3/30,7"	"79/35"	114	stress_42	"POPTR_0005s26170.1"	174	"	"C/G"	"73,2/26,8"	"82/30"	112
stress_12bis	"POPTR_0005s26170.1"	174	"	"C/G"	"69,3/30,7"	"79/35"	114	stress_45	"POPTR_0005s26170.1"	174	"	"C/G"	"76,4/23,6"	"97/30"	127
stress_12bis	"POPTR_0010s26130.1"	813	"	"G/T"	"67,5/32,5"	"79/38"	117	stress_42	"POPTR_0010s26130.1"	813	"	"G/T"	"50,0/50,0"	"7/7"	14
stress_12bis	"POPTR_0010s26130.1"	813	"	"G/T"	"67,5/32,5"	"79/38"	117	stress_45	"POPTR_0010s26130.1"	813	"	"G/T"	"64,3/35,7"	"9/5"	14
stress_12bis	"POPTR_0003s17010.1"	447	"	"C/T"	"64,8/35,2"	"79/43"	122	stress_42	"POPTR_0003s17010.1"	447	"	"C/T"	"75,4/24,6"	"49/16"	65
stress_12bis	"POPTR_0003s17010.1"	447	"	"C/T"	"64,8/35,2"	"79/43"	122	stress_45	"POPTR_0003s17010.1"	447	"	"C/T"	"63,8/36,2"	"51/29"	80
stress_12bis	"POPTR_0010s14080.1"	2730	"	"G/A"	"62,2/37,8"	"79/48"	127	stress_42	"POPTR_0010s14080.1"	2730	"	"G/A"	"72,0/28,0"	"54/21"	75
stress_12bis	"POPTR_0010s14080.1"	2730	"	"G/A"	"62,2/37,8"	"79/48"	127	stress_45	"POPTR_0010s14080.1"	2730	"	"G/A"	"75,7/24,3"	"56/18"	74
stress_12bis	"POPTR_0008s05480.1"	375	"	"T/C"	"60,8/39,2"	"79/51"	130	stress_42	"POPTR_0008s05480.1"	375	"	"C/T"	"57,6/42,4"	"34/25"	59
stress_12bis	"POPTR_0008s05480.1"	375	"	"T/C"	"60,8/39,2"	"79/51"	130	stress_45	"POPTR_0008s05480.1"	375	"	"T/C"	"53,0/47,0"	"122/108"	230
stress_12bis	"POPTR_0014s00810.1"	31	"	"T/C"	"59,8/40,2"	"79/53"	132	stress_42	"POPTR_0014s00810.1"	31	"	"T/C"	"84,2/15,8"	"149/28"	177
stress_12bis	"POPTR_0014s00810.1"	31	"	"T/C"	"59,8/40,2"	"79/53"	132	stress_45	"POPTR_0014s00810.1"	31	"	"T/C"	"79,4/20,6"	"85/22"	107
stress_12bis	"POPTR_0009s09240.1"	945	"	"C/T"	"59,0/41,0"	"79/55"	134	stress_42	"POPTR_0009s09240.1"	945	"	"C/T"	"64,3/35,7"	"36/20"	56
stress_12bis	"POPTR_0009s09240.1"	945	"	"C/T"	"59,0/41,0"	"79/55"	134	stress_45	"POPTR_0009s09240.1"	945	"	"C/T"	"64,4/35,6"	"29/16"	45
stress_12bis	"POPTR_0004s10660.1"	690	"	"T/C"	"56,4/43,6"	"79/61"	140	stress_42	"POPTR_0004s10660.1"	690	"	"T/C"	"84,9/15,1"	"332/59"	391
stress_12bis	"POPTR_0004s10660.1"	690	"	"T/C"	"56,4/43,6"	"79/61"	140	stress_45	"POPTR_0004s10660.1"	690	"	"T/C"	"81,1/18,9"	"270/63"	333
stress_12bis	"POPTR_0001s21740.1"	387	"	"C/T"	"56,4/43,6"	"79/61"	140	stress_42	"POPTR_0001s21740.1"	387	"	"C/T"	"52,7/47,3"	"39/35"	74
stress_12bis	"POPTR_0001s21740.1"	387	"	"C/T"	"56,4/43,6"	"79/61"	140	stress_45	"POPTR_0001s21740.1"	387	"	"C/T"	"54,8/45,2"	"68/56"	124
stress_12bis	"POPTR_0009s11480.1"	54	"	"C/T"	"55,6/44,4"	"79/63"	142	stress_42	"POPTR_0009s11480.1"	54	"	"C/T"	"69,2/30,8"	"9/4"	13
stress_12bis	"POPTR_0009s11480.1"	54	"	"C/T"	"55,6/44,4"	"79/63"	142	stress_45	"POPTR_0009s11480.1"	54	"	"C/T"	"56,9/43,1"	"29/22"	51
stress_12bis	"POPTR_0001s38810.1"	649	"	"T/A"	"53,0/47,0"	"79/70"	149	stress_42	"POPTR_0001s38810.1"	649	"	"A/T"	"62,4/37,6"	"126/76"	202
stress_12bis	"POPTR_0001s38810.1"	649	"	"T/A"	"53,0/47,0"	"79/70"	149	stress_45	"POPTR_0001s38810.1"	649	"	"A/T"	"63,9/36,1"	"154/87"	241
stress_12bis	"POPTR_0018s11820.1"	1218	"	"G/A"	"52,3/47,7"	"79/72"	151	stress_42	"POPTR_0018s11820.1"	1218	"	"A/G"	"56,7/43,3"	"17/13"	30
stress_12bis	"POPTR_0018s11820.1"	1218	"	"G/A"	"52,3/47,7"	"79/72"	151	stress_45	"POPTR_0018s11820.1"	1218	"	"A/G"	"67,7/32,3"	"21/10"	31
stress_12bis	"POPTR_0003s11300.1"	1827	"	"T/C"	"50,6/49,4"	"79/77"	156	stress_42	"POPTR_0003s11300.1"	1827	"	"T/C"	"64,0/36,0"	"16/9"	25
stress_12bis	"POPTR_0003s11300.1"	1827	"	"T/C"	"50,6/49,4"	"79/77"	156	stress_45	"POPTR_0003s11300.1"	1827	"	"C/T"	"53,8/46,2"	"21/18"	39
stress_12bis	"POPTR_0008s19370.1"	198	"	"T/C"	"79,2/20,7"	"792/207"	1000	stress_42	"POPTR_0008s19370.1"	198	"	"T/C"	"85,0/15,0"	"51/9"	60
stress_12bis	"POPTR_0017s14470.1"	1245	"	"T/A"	"66,7/33,3"	"8/4"	12	stress_45	"POPTR_0017s14470.1"	1245	"	"A/T"	"64,0/36,0"	"73/41"	114
stress_12bis	"POPTR_0017s08610.1"	879	"	"T/C"	"57,1/42,9"	"8/6"	14	stress_42	"POPTR_0017s08610.1"	879	"	"T/C"	"73,6/26,4"	"106/38"	144
stress_12bis	"POPTR_0017s08610.1"	879	"	"T/C"	"57,1/42,9"	"8/6"	14	stress_45	"POPTR_0017s08610.1"	879	"	"T/C"	"66,4/33,6"	"148/75"	223
stress_12bis	"POPTR_0017s14470.1"	810	"	"A/C"	"57,1/42,9"	"8/6"	14	stress_45	"POPTR_0017s14470.1"	810	"	"C/A"	"63,5/36,5"	"99/57"	156
stress_12bis	"POPTR_0014s15960.1"	777	"	"A/G"	"57,1/42,9"	"8/6"	14	stress_42	"POPTR_0014s15960.1"	777	"	"G/A"	"58,8/41,2"	"137/96"	233
stress_12bis	"POPTR_0014s15960.1"	777	"	"A/G"	"57,1/42,9"	"8/6"	14	stress_45	"POPTR_0014s15960.1"	777	"	"G/A"	"60,7/39,3"	"128/83"	211
stress_12bis	"POPTR_0010s00900.1"	117	"	"C/T"	"57,1/42,9"	"8/6"	14	stress_42	"POPTR_0010s00900.1"	117	"	"C/T"	"50,0/50,0"	"57/57"	114
stress_12bis	"POPTR_0010s00900.1"	117	"	"C/T"	"57,1/42,9"	"8/6"	14	stress_45	"POPTR_0010s00900.1"	117	"	"C/T"	"57,0/43,0"	"86/65"	151
stress_12bis	"POPTR_0002s08150.1"	75	"	"T/C"	"57,1/42,9"	"8/6"	14	stress_45	"POPTR_0002s08150.1"	75	"	"T/C"	"53,7/46,3"	"65/56"	121
stress_12bis	"POPTR_0011s12400.1"	389	"	"C/G"	"53,3/46,7"	"8/7"	15	stress_45	"POPTR_0011s12400.1"	389	"	"G/C"	"52,7/47,3"	"58/52"	110
stress_12bis	"POPTR_0015s13050.1"	168	"	"A/C"	"53,3/46,7"	"8/7"	15	stress_45	"POPTR_0015s13050.1"	168	"	"C/A"	"69,7/30,3"	"83/36"	119
stress_12bis	"POPTR_0001s10700.1"	996	"	"C/A"	"53,3/46,7"	"8/7"	15	stress_42	"POPTR_0001s10700.1"	996	"	"C/A"	"53,4/46,6"	"78/68"	146
stress_12bis	"POPTR_0001s10700.1"	996	"	"C/A"	"53,3/46,7"	"8/7"	15	stress_45	"POPTR_0001s10700.1"	996	"	"A/C"	"50,9/49,1"	"54/52"	106
stress_12bis	"POPTR_0001s40250.1"	2232	"	"T/A"	"53,3/46,7"	"8/7"	15	stress_45	"POPTR_0001s40250.1"	2232	"	"A/T"	"72,0/28,0"	"121/47"	168
stress_12bis	"POPTR_0002s08150.1"	105	"	"T/A"	"53,3/46,7"	"8/7"	15	stress_45	"POPTR_0002s08150.1"	105	"	"A/T"	"52,5/47,5"	"62/56"	118
stress_12bis	"POPTR_0002s03020.1"	683	"	"C/A"	"63,0/37,0"	"80/47"	127	stress_42	"POPTR_0002s03020.1"	683	"	"C/A"	"84,3/15,7"	"285/53"	338
stress_12bis	"POPTR_0002s03020.1"	683	"	"C/A"	"63,0/37,0"	"80/47"	127	stress_45	"POPTR_0002s03020.1"	683	"	"C/A"	"84,5/15,1"	"448/80"	530
stress_12bis	"POPTR_0010s14080.1"	2229	"	"C/T"	"59,7/40,3"	"80/54"	134	stress_42	"POPTR_0010s14080.1"	2229	"	"C/T"	"73,4/26,6"	"47/17"	64
stress_12bis	"POPTR_0010s14080.1"	2229	"	"C/T"	"59,7/40,3"	"80/54"	134	stress_45	"POPTR_0010s14080.1"	2229	"	"C/T"	"74,7/25,3"	"56/19"	75
stress_12bis	"POPTR_0009s01320.1"	1773	"	"G/C"	"58,4/41,6"	"80/57"	137	stress_42	"POPTR_0009s01320.1"	1773	"	"G/C"	"60,5/39,5"	"130/85"	215
stress_12bis	"POPTR_0009s01320.1"	1773	"	"G/C"	"58,4/41,6"	"80/57"	137	stress_45	"POPTR_0009s01320.1"	1773	"	"G/C"	"53,9/46,1"	"103/88"	191
stress_12bis	"POPTR_0002s14730.1"	1578	"	"G/A"	"57,1/42,9"	"80/60"	140	stress_42	"POPTR_0002s14730.1"	1578	"	"G/A"	"66,7/33,3"	"16/8"	24
stress_12bis	"POPTR_0002s14730.1"	1578	"	"G/A"	"57,1/42,9"	"80/60"	140	stress_45	"POPTR_0002s14730.1"	1578	"	"G/A"	"70,3/29,7"	"26/11"	37
stress_12bis	"POPTR_0001s08770.1"	1179	"	"T/G"	"51,0/49,0"	"80/77"	157	stress_42	"POPTR_0001s08770.1"	1179	"	"G/T"	"50,8/49,2"	"33/32"	65
stress_12bis	"POPTR_0001s08770.1"	1179	"	"T/G"	"51,0/49,0"	"80/77"	157	stress_45	"POPTR_0001s08770.1"	1179	"	"G/T"	"61,5/38,5"	"59/37"	96
stress_12bis	"POPTR_0013s10250.1"	294	"	"T/C"	"50,6/49,4"	"80/78"	158	stress_42	"POPTR_0013s10250.1"	294	"	"C/T"	"55,9/44,1"	"33/26"	59
stress_12bis	"POPTR_0013s10250.1"	294	"	"T/C"	"50,6/49,4"	"80/78"	158	stress_45	"POPTR_0013s10250.1"	294	"	"T/C"	"53,6/46,4"	"52/45"	97
stress_12bis	"POPTR_0010s20810.1"	93	"	"A/T"	"54,2/45,5"	"803/674"	1481	stress_42	"POPTR_0010s20810.1"	93	"	"T/A"	"64,2/35,8"	"43/24"	67
stress_12bis	"POPTR_0010s20810.1"	93	"	"A/T"	"54,2/45,5"	"803/674"	1481	stress_45	"POPTR_0010s20810.1"	93	"	"T/A"	"62,3/37,7"	"76/46"	122
stress_12bis	"POPTR_0010s21270.1"	957	"	"T/C"	"74,3/25,7"	"81/28"	109	stress_42	"POPTR_0010s21270.1"	957	"	"T/C"	"78,1/21,9"	"25/7"	32
stress_12bis	"POPTR_0010s21270.1"	957	"	"T/C"	"74,3/25,7"	"81/28"	109	stress_45	"POPTR_0010s21270.1"	957	"	"T/C"	"74,2/25,8"	"69/24"	93
stress_12bis	"POPTR_0010s20060.1"	154	"	"G/A"	"72,3/27,7"	"81/31"	112	stress_42	"POPTR_0010s20060.1"	154	"	"G/A"	"71,4/28,6"	"20/8"	28
stress_12bis	"POPTR_0010s20060.1"	154	"	"G/A"	"72,3/27,7"	"81/31"	112	stress_45	"POPTR_0010s20060.1"	154	"	"G/A"	"78,8/21,2"	"26/7"	33
stress_12bis	"POPTR_0011s02770.1"	73	"	"C/G"	"69,2/30,8"	"81/36"	117	stress_42	"POPTR_0011s02770.1"	73	"	"C/G"	"71,4/28,6"	"30/12"	42
stress_12bis	"POPTR_0011s02770.1"	73	"	"C/G"	"69,2/30,8"	"81/36"	117	stress_45	"POPTR_0011s02770.1"	73	"	"C/G"	"75,0/25,0"	"39/13"	52
stress_12bis	"POPTR_0003s17010.1"	36	"	"C/T"	"62,8/37,2"	"81/48"	129	stress_42	"POPTR_0003s17010.1"	36	"	"C/T"	"72,4/27,6"	"21/8"	29
stress_12bis	"POPTR_0003s17010.1"	36	"	"C/T"	"62,8/37,2"	"81/48"	129	stress_45	"POPTR_0003s17010.1"	36	"	"C/T"	"75,0/25,0"	"36/12"	48
stress_12bis	"POPTR_0008s06580.1"	294	"	"A/G"	"59,6/40,4"	"81/55"	136	stress_42	"POPTR_0008s06580.1"	294	"	"A/G"	"61,7/38,1"	"421/260"	682
stress_12bis	"POPTR_0008s06580.1"	294	"	"A/G"	"59,6/40,4"	"81/55"	136	stress_45	"POPTR_0008s06580.1"	294	"	"A/G"	"58,4/41,5"	"518/368"	887
stress_12bis	"POPTR_0004s00480.1"	233	"	"G/T"	"56,6/42,7"	"81/61"	143	stress_42	"POPTR_0004s00480.1"	233	"	"G/T"	"55,7/44,3"	"39/31"	70
stress_12bis	"POPTR_0004s00480.1"	233	"	"G/T"	"56,6/42,7"	"81/61"	143	stress_45	"POPTR_0004s00480.1"	233	"	"G/T"	"66,9/31,5"	"87/41"	130
stress_12bis	"POPTR_0008s06580.1"	348	"	"T/C"	"51,9/48,1"	"81/75"	156	stress_42	"POPTR_0008s06580.1"	348	"	"C/T"	"62,5/37,5"	"481/289"	770
stress_12bis	"POPTR_0008s06580.1"	348	"	"T/C"	"51,9/48,1"	"81/75"	156	stress_45	"POPTR_0008s06580.1"	348	"	"C/T"	"59,2/40,8"	"623/430"	1053
stress_12bis	"POPTR_0008s19370.1"	834	"	"T/C"	"65,0/35,0"	"812/437"	1249	stress_42	"POPTR_0008s19370.1"	834	"	"T/C"	"76,1/23,9"	"70/22"	92
stress_12bis	"POPTR_0008s19370.1"	834	"	"T/C"	"65,0/35,0"	"812/437"	1249	stress_45	"POPTR_0008s19370.1"	834	"	"T/C"	"75,6/24,4"	"59/19"	78
stress_12bis	"POPTR_0008s03950.1"	447	"	"C/T"	"76,6/23,4"	"82/25"	107	stress_42	"POPTR_0008s03950.1"	447	"	"C/T"	"69,9/30,1"	"121/52"	173
stress_12bis	"POPTR_0008s03950.1"	447	"	"C/T"	"76,6/23,4"	"82/25"	107	stress_45	"POPTR_0008s03950.1"	447	"	"C/T"	"69,1/30,9"	"208/93"	301
stress_12bis	"POPTR_0018s09030.1"	87	"	"A/G"	"75,9/24,1"	"82/26"	108	stress_42	"POPTR_0018s09030.1"	87	"	"A/G"	"55,8/44,2"	"63/50"	113
stress_12bis	"POPTR_0018s09030.1"	87	"	"A/G"	"75,9/24,1"	"82/26"	108	stress_45	"POPTR_0018s09030.1"	87	"	"A/G"	"57,3/42,7"	"63/47"	110
stress_12bis	"POPTR_0008s03950.1"	414	"	"G/T"	"68,3/31,7"	"82/38"	120	stress_42	"POPTR_0008s03950.1"	414	"	"G/T"	"68,0/32,0"	"121/57"	178
stress_12bis	"POPTR_0008s03950.1"	414	"	"G/T"	"68,3/31,7"	"82/38"	120	stress_45	"POPTR_0008s03950.1"	414	"	"G/T"	"65,5/34,5"	"190/100"	290
stress_12bis	"POPTR_0001s11600.1"	648	"	"T/C"	"61,2/38,1"	"82/51"	134	stress_42	"POPTR_0001s11600.1"	648	"	"C/T"	"50,0/50,0"	"13/13"	26
stress_12bis	"POPTR_0001s11600.1"	648	"	"T/C"	"61,2/38,1"	"82/51"	134	stress_45	"POPTR_0001s11600.1"	648	"	"C/T"	"60,6/39,4"	"20/13"	33
stress_12bis	"POPTR_0012s11630.1"	383	"	"T/C"	"60,7/39,3"	"82/53"	135	stress_42	"POPTR_0012s11630.1"	383	"	"T/C"	"58,3/41,7"	"49/35"	84
stress_12bis	"POPTR_0012s11630.1"	383	"	"T/C"	"60,7/39,3"	"82/53"	135	stress_45	"POPTR_0012s11630.1"	383	"	"T/C"	"56,2/43,8"	"63/49"	112
stress_12bis	"POPTR_0008s20590.1"	295	"	"A/G"	"60,3/39,7"	"82/54"	136	stress_42	"POPTR_0008s20590.1"	295	"	"A/G"	"64,8/35,2"	"70/38"	108
stress_12bis	"POPTR_0008s20590.1"	295	"	"A/G"	"60,3/39,7"	"82/54"	136	stress_45	"POPTR_0008s20590.1"	295	"	"A/G"	"59,9/40,1"	"94/63"	157
stress_12bis	"POPTR_0014s13560.1"	1437	"	"T/C"	"58,2/41,8"	"82/59"	141	stress_42	"POPTR_0014s13560.1"	1437	"	"T/C"	"67,4/32,6"	"64/31"	95
stress_12bis	"POPTR_0014s13560.1"	1437	"	"T/C"	"58,2/41,8"	"82/59"	141	stress_45	"POPTR_0014s13560.1"	1437	"	"T/C"	"71,3/28,7"	"77/31"	108
stress_12bis	"POPTR_0002s03020.1"	159	"	"T/C"	"53,9/46,1"	"82/70"	152	stress_42	"POPTR_0002s03020.1"	159	"	"T/C"	"75,6/24,4"	"180/58"	238
stress_12bis	"POPTR_0002s03020.1"	159	"	"T/C"	"53,9/46,1"	"82/70"	152	stress_45	"POPTR_0002s03020.1"	159	"	"T/C"	"77,6/22,4"	"420/121"	541
stress_12bis	"POPTR_0004s00480.1"	441	"	"C/T"	"53,2/46,8"	"82/72"	154	stress_42	"POPTR_0004s00480.1"	441	"	"T/C"	"61,5/38,5"	"59/37"	96
stress_12bis	"POPTR_0004s00480.1"	441	"	"C/T"	"53,2/46,8"	"82/72"	154	stress_45	"POPTR_0004s00480.1"	441	"	"T/C"	"58,5/41,5"	"72/51"	123
stress_12bis	"POPTR_0008s06580.1"	495	"	"T/A"	"52,9/47,1"	"82/73"	155	stress_42	"POPTR_0008s06580.1"	495	"	"T/A"	"63,2/36,8"	"439/256"	695
stress_12bis	"POPTR_0008s06580.1"	495	"	"T/A"	"52,9/47,1"	"82/73"	155	stress_45	"POPTR_0008s06580.1"	495	"	"T/A"	"64,6/35,0"	"553/300"	856
stress_12bis	"POPTR_0002s14730.1"	653	"	"A/T"	"51,6/48,4"	"82/77"	159	stress_42	"POPTR_0002s14730.1"	653	"	"T/A"	"52,2/47,8"	"12/11"	23
stress_12bis	"POPTR_0002s14730.1"	653	"	"A/T"	"51,6/48,4"	"82/77"	159	stress_45	"POPTR_0002s14730.1"	653	"	"T/A"	"55,8/44,2"	"29/23"	52
stress_12bis	"POPTR_0013s00760.1"	104	"	"G/A"	"50,9/49,1"	"82/79"	161	stress_42	"POPTR_0013s00760.1"	104	"	"A/G"	"53,7/46,3"	"22/19"	41
stress_12bis	"POPTR_0013s00760.1"	104	"	"G/A"	"50,9/49,1"	"82/79"	161	stress_45	"POPTR_0013s00760.1"	104	"	"A/G"	"52,9/47,1"	"36/32"	68
stress_12bis	"POPTR_0010s26130.1"	1443	"	"T/A"	"68,6/31,4"	"83/38"	121	stress_42	"POPTR_0010s26130.1"	1443	"	"A/T"	"50,0/50,0"	"5/5"	10
stress_12bis	"POPTR_0010s26130.1"	1443	"	"T/A"	"68,6/31,4"	"83/38"	121	stress_45	"POPTR_0010s26130.1"	1443	"	"T/A"	"85,0/15,0"	"17/3"	20
stress_12bis	"POPTR_0010s21270.1"	1842	"	"C/G"	"66,9/33,1"	"83/41"	124	stress_42	"POPTR_0010s21270.1"	1842	"	"C/G"	"60,0/40,0"	"51/34"	85
stress_12bis	"POPTR_0010s21270.1"	1842	"	"C/G"	"66,9/33,1"	"83/41"	124	stress_45	"POPTR_0010s21270.1"	1842	"	"C/G"	"50,8/49,2"	"65/63"	128
stress_12bis	"POPTR_0010s20060.1"	573	"	"C/T"	"66,9/33,1"	"83/41"	124	stress_42	"POPTR_0010s20060.1"	573	"	"C/T"	"66,7/33,3"	"24/12"	36
stress_12bis	"POPTR_0010s20060.1"	573	"	"C/T"	"66,9/33,1"	"83/41"	124	stress_45	"POPTR_0010s20060.1"	573	"	"C/T"	"67,7/32,3"	"21/10"	31
stress_12bis	"POPTR_0010s14080.1"	2640	"	"G/C"	"66,4/33,6"	"83/42"	125	stress_42	"POPTR_0010s14080.1"	2640	"	"G/C"	"72,6/27,4"	"53/20"	73
stress_12bis	"POPTR_0010s14080.1"	2640	"	"G/C"	"66,4/33,6"	"83/42"	125	stress_45	"POPTR_0010s14080.1"	2640	"	"G/C"	"65,5/34,5"	"55/29"	84
stress_12bis	"POPTR_0010s21270.1"	333	"	"T/C"	"65,4/34,6"	"83/44"	127	stress_42	"POPTR_0010s21270.1"	333	"	"T/C"	"62,2/37,8"	"23/14"	37
stress_12bis	"POPTR_0010s21270.1"	333	"	"T/C"	"65,4/34,6"	"83/44"	127	stress_45	"POPTR_0010s21270.1"	333	"	"T/C"	"59,2/40,8"	"74/51"	125
stress_12bis	"POPTR_0010s21270.1"	1197	"	"A/T"	"57,6/42,4"	"83/61"	144	stress_42	"POPTR_0010s21270.1"	1197	"	"A/T"	"62,5/37,5"	"40/24"	64
stress_12bis	"POPTR_0010s21270.1"	1197	"	"A/T"	"57,6/42,4"	"83/61"	144	stress_45	"POPTR_0010s21270.1"	1197	"	"A/T"	"56,2/43,8"	"81/63"	144
stress_12bis	"POPTR_0005s22830.1"	107	"	"T/C"	"52,5/47,5"	"83/75"	158	stress_42	"POPTR_0005s22830.1"	107	"	"T/C"	"57,7/42,3"	"45/33"	78
stress_12bis	"POPTR_0005s22830.1"	107	"	"T/C"	"52,5/47,5"	"83/75"	158	stress_45	"POPTR_0005s22830.1"	107	"	"T/C"	"53,5/46,5"	"46/40"	86
stress_12bis	"POPTR_0009s11480.1"	153	"	"T/C"	"51,6/48,4"	"83/78"	161	stress_42	"POPTR_0009s11480.1"	153	"	"T/C"	"71,4/28,6"	"10/4"	14
stress_12bis	"POPTR_0009s11480.1"	153	"	"T/C"	"51,6/48,4"	"83/78"	161	stress_45	"POPTR_0009s11480.1"	153	"	"T/C"	"65,2/34,8"	"43/23"	66
stress_12bis	"POPTR_0002s01320.1"	112	"	"T/A"	"51,2/48,8"	"83/79"	162	stress_42	"POPTR_0002s01320.1"	112	"	"A/T"	"54,5/45,5"	"12/10"	22
stress_12bis	"POPTR_0002s01320.1"	112	"	"T/A"	"51,2/48,8"	"83/79"	162	stress_45	"POPTR_0002s01320.1"	112	"	"T/A"	"56,3/43,7"	"40/31"	71
stress_12bis	"POPTR_0005s26070.1"	39	"	"A/T"	"58,6/41,4"	"834/590"	1424	stress_42	"POPTR_0005s26070.1"	39	"	"A/T"	"57,8/42,2"	"237/173"	410
stress_12bis	"POPTR_0005s26070.1"	39	"	"A/T"	"58,6/41,4"	"834/590"	1424	stress_45	"POPTR_0005s26070.1"	39	"	"A/T"	"57,5/42,5"	"345/255"	600
stress_12bis	"POPTR_0004s16920.1"	132	"	"C/T"	"50,0/50,0"	"836/836"	1673	stress_42	"POPTR_0004s16920.1"	132	"	"C/T"	"63,5/36,5"	"73/42"	115
stress_12bis	"POPTR_0004s16920.1"	132	"	"C/T"	"50,0/50,0"	"836/836"	1673	stress_45	"POPTR_0004s16920.1"	132	"	"C/T"	"65,0/35,0"	"141/76"	217
stress_12bis	"POPTR_0004s04860.1"	519	"	"C/T"	"82,4/17,6"	"84/18"	102	stress_42	"POPTR_0004s04860.1"	519	"	"C/T"	"64,3/35,7"	"18/10"	28
stress_12bis	"POPTR_0004s04860.1"	519	"	"C/T"	"82,4/17,6"	"84/18"	102	stress_45	"POPTR_0004s04860.1"	519	"	"C/T"	"70,3/29,7"	"26/11"	37
stress_12bis	"POPTR_0002s22220.1"	477	"	"C/A"	"72,4/27,6"	"84/32"	116	stress_42	"POPTR_0002s22220.1"	477	"	"C/A"	"66,3/31,3"	"55/26"	83
stress_12bis	"POPTR_0002s22220.1"	477	"	"C/A"	"72,4/27,6"	"84/32"	116	stress_45	"POPTR_0002s22220.1"	477	"	"C/A"	"67,0/33,0"	"69/34"	103
stress_12bis	"POPTR_0001s21140.1"	165	"	"A/C"	"71,2/28,8"	"84/34"	118	stress_42	"POPTR_0001s21140.1"	165	"	"A/C"	"50,0/50,0"	"7/7"	14
stress_12bis	"POPTR_0010s21270.1"	948	"	"T/C"	"67,7/32,3"	"84/40"	124	stress_42	"POPTR_0010s21270.1"	948	"	"T/C"	"78,1/21,9"	"25/7"	32
stress_12bis	"POPTR_0010s21270.1"	948	"	"T/C"	"67,7/32,3"	"84/40"	124	stress_45	"POPTR_0010s21270.1"	948	"	"T/C"	"72,1/27,9"	"75/29"	104
stress_12bis	"POPTR_0013s13220.1"	378	"	"G/A"	"67,2/32,8"	"84/41"	125	stress_42	"POPTR_0013s13220.1"	378	"	"G/A"	"59,4/40,6"	"60/41"	101
stress_12bis	"POPTR_0013s13220.1"	378	"	"G/A"	"67,2/32,8"	"84/41"	125	stress_45	"POPTR_0013s13220.1"	378	"	"G/A"	"62,8/37,2"	"98/58"	156
stress_12bis	"POPTR_0006s13240.1"	663	"	"T/C"	"66,7/33,3"	"84/42"	126	stress_42	"POPTR_0006s13240.1"	663	"	"T/C"	"67,4/32,6"	"31/15"	46
stress_12bis	"POPTR_0006s13240.1"	663	"	"T/C"	"66,7/33,3"	"84/42"	126	stress_45	"POPTR_0006s13240.1"	663	"	"T/C"	"63,9/36,1"	"39/22"	61
stress_12bis	"POPTR_0018s11820.1"	1098	"	"T/C"	"66,1/33,9"	"84/43"	127	stress_42	"POPTR_0018s11820.1"	1098	"	"C/T"	"73,3/26,7"	"22/8"	30
stress_12bis	"POPTR_0018s11820.1"	1098	"	"T/C"	"66,1/33,9"	"84/43"	127	stress_45	"POPTR_0018s11820.1"	1098	"	"C/T"	"64,5/35,5"	"20/11"	31
stress_12bis	"POPTR_0014s02410.1"	813	"	"G/A"	"64,1/35,9"	"84/47"	131	stress_42	"POPTR_0014s02410.1"	813	"	"A/G"	"54,3/45,7"	"107/90"	197
stress_12bis	"POPTR_0014s02410.1"	813	"	"G/A"	"64,1/35,9"	"84/47"	131	stress_45	"POPTR_0014s02410.1"	813	"	"A/G"	"52,1/47,9"	"207/190"	397
stress_12bis	"POPTR_0002s25260.1"	405	"	"C/T"	"61,3/38,7"	"84/53"	137	stress_42	"POPTR_0002s25260.1"	405	"	"T/C"	"66,0/34,0"	"68/35"	103
stress_12bis	"POPTR_0002s25260.1"	405	"	"C/T"	"61,3/38,7"	"84/53"	137	stress_45	"POPTR_0002s25260.1"	405	"	"C/T"	"50,0/50,0"	"75/75"	150
stress_12bis	"POPTR_0011s12440.1"	675	"	"C/T"	"60,0/40,0"	"84/56"	140	stress_42	"POPTR_0011s12440.1"	675	"	"C/T"	"64,5/35,5"	"20/11"	31
stress_12bis	"POPTR_0011s12440.1"	675	"	"C/T"	"60,0/40,0"	"84/56"	140	stress_45	"POPTR_0011s12440.1"	675	"	"C/T"	"65,0/35,0"	"26/14"	40
stress_12bis	"POPTR_0016s14310.1"	62	"	"T/C"	"59,6/40,4"	"84/57"	141	stress_42	"POPTR_0016s14310.1"	62	"	"C/T"	"50,0/50,0"	"8/8"	16
stress_12bis	"POPTR_0016s14310.1"	62	"	"T/C"	"59,6/40,4"	"84/57"	141	stress_45	"POPTR_0016s14310.1"	62	"	"T/C"	"57,1/42,9"	"8/6"	14
stress_12bis	"POPTR_0002s03020.1"	468	"	"C/T"	"55,3/44,7"	"84/68"	152	stress_42	"POPTR_0002s03020.1"	468	"	"T/C"	"77,1/22,9"	"199/59"	258
stress_12bis	"POPTR_0002s03020.1"	468	"	"C/T"	"55,3/44,7"	"84/68"	152	stress_45	"POPTR_0002s03020.1"	468	"	"T/C"	"72,0/28,0"	"366/142"	508
stress_12bis	"POPTR_1545s00200.1"	93	"	"C/A"	"53,8/46,2"	"84/72"	156	stress_42	"POPTR_1545s00200.1"	93	"	"A/C"	"66,8/32,9"	"191/94"	286
stress_12bis	"POPTR_1545s00200.1"	93	"	"C/A"	"53,8/46,2"	"84/72"	156	stress_45	"POPTR_1545s00200.1"	93	"	"A/C"	"62,7/37,3"	"198/118"	316
stress_12bis	"POPTR_0009s09710.1"	69	"	"G/A"	"51,9/48,1"	"84/78"	162	stress_42	"POPTR_0009s09710.1"	69	"	"A/G"	"57,4/42,6"	"27/20"	47
stress_12bis	"POPTR_0009s09710.1"	69	"	"G/A"	"51,9/48,1"	"84/78"	162	stress_45	"POPTR_0009s09710.1"	69	"	"A/G"	"59,6/40,4"	"31/21"	52
stress_12bis	"POPTR_0009s05720.1"	220	"	"A/G"	"73,3/25,9"	"85/30"	116	stress_42	"POPTR_0009s05720.1"	220	"	"A/G"	"72,0/28,0"	"18/7"	25
stress_12bis	"POPTR_0009s05720.1"	220	"	"A/G"	"73,3/25,9"	"85/30"	116	stress_45	"POPTR_0009s05720.1"	220	"	"A/G"	"51,9/44,4"	"14/12"	27
stress_12bis	"POPTR_0011s12440.1"	256	"	"A/G"	"67,5/32,5"	"85/41"	126	stress_42	"POPTR_0011s12440.1"	256	"	"A/G"	"81,0/19,0"	"17/4"	21
stress_12bis	"POPTR_0011s12440.1"	256	"	"A/G"	"67,5/32,5"	"85/41"	126	stress_45	"POPTR_0011s12440.1"	256	"	"A/G"	"78,0/22,0"	"32/9"	41
stress_12bis	"POPTR_0002s14730.1"	1449	"	"C/A"	"65,4/34,6"	"85/45"	130	stress_42	"POPTR_0002s14730.1"	1449	"	"C/A"	"74,2/25,8"	"23/8"	31
stress_12bis	"POPTR_0002s14730.1"	1449	"	"C/A"	"65,4/34,6"	"85/45"	130	stress_45	"POPTR_0002s14730.1"	1449	"	"C/A"	"70,6/29,4"	"36/15"	51
stress_12bis	"POPTR_0013s00760.1"	1089	"	"A/T"	"62,0/34,3"	"85/47"	137	stress_42	"POPTR_0013s00760.1"	1089	"	"A/T"	"65,0/26,7"	"39/16"	60
stress_12bis	"POPTR_0013s00760.1"	1089	"	"A/T"	"62,0/34,3"	"85/47"	137	stress_45	"POPTR_0013s00760.1"	1089	"	"A/T"	"51,2/48,8"	"21/20"	41
stress_12bis	"POPTR_0003s12160.1"	1257	"	"A/G"	"63,4/36,6"	"85/49"	134	stress_42	"POPTR_0003s12160.1"	1257	"	"A/G"	"60,9/39,1"	"28/18"	46
stress_12bis	"POPTR_0003s12160.1"	1257	"	"A/G"	"63,4/36,6"	"85/49"	134	stress_45	"POPTR_0003s12160.1"	1257	"	"A/G"	"62,5/37,5"	"40/24"	64
stress_12bis	"POPTR_0016s14310.1"	54	"	"C/A"	"62,0/38,0"	"85/52"	137	stress_42	"POPTR_0016s14310.1"	54	"	"C/A"	"69,2/30,8"	"9/4"	13
stress_12bis	"POPTR_0016s14310.1"	54	"	"C/A"	"62,0/38,0"	"85/52"	137	stress_45	"POPTR_0016s14310.1"	54	"	"A/C"	"54,5/45,5"	"6/5"	11
stress_12bis	"POPTR_0008s03160.1"	234	"	"C/T"	"61,6/38,4"	"85/53"	138	stress_42	"POPTR_0008s03160.1"	234	"	"C/T"	"65,8/34,2"	"25/13"	38
stress_12bis	"POPTR_0008s03160.1"	234	"	"C/T"	"61,6/38,4"	"85/53"	138	stress_45	"POPTR_0008s03160.1"	234	"	"C/T"	"58,3/41,7"	"49/35"	84
stress_12bis	"POPTR_0010s20060.1"	405	"	"T/C"	"59,4/40,6"	"85/58"	143	stress_42	"POPTR_0010s20060.1"	405	"	"T/C"	"56,7/43,3"	"17/13"	30
stress_12bis	"POPTR_0010s20060.1"	405	"	"T/C"	"59,4/40,6"	"85/58"	143	stress_45	"POPTR_0010s20060.1"	405	"	"T/C"	"70,6/29,4"	"24/10"	34
stress_12bis	"POPTR_0014s08960.1"	160	"	"C/G"	"56,3/43,7"	"85/66"	151	stress_42	"POPTR_0014s08960.1"	160	"	"C/G"	"53,3/46,7"	"8/7"	15
stress_12bis	"POPTR_0014s08960.1"	160	"	"C/G"	"56,3/43,7"	"85/66"	151	stress_45	"POPTR_0014s08960.1"	160	"	"C/G"	"63,3/36,7"	"19/11"	30
stress_12bis	"POPTR_0017s05700.1"	591	"	"G/A"	"79,6/20,4"	"86/22"	108	stress_42	"POPTR_0017s05700.1"	591	"	"G/A"	"83,8/16,2"	"57/11"	68
stress_12bis	"POPTR_0017s05700.1"	591	"	"G/A"	"79,6/20,4"	"86/22"	108	stress_45	"POPTR_0017s05700.1"	591	"	"G/A"	"69,9/29,0"	"65/27"	93
stress_12bis	"POPTR_0010s21280.1"	1852	"	"G/C"	"66,2/33,8"	"86/44"	130	stress_42	"POPTR_0010s21280.1"	1852	"	"G/C"	"68,3/31,7"	"43/20"	63
stress_12bis	"POPTR_0010s21280.1"	1852	"	"G/C"	"66,2/33,8"	"86/44"	130	stress_45	"POPTR_0010s21280.1"	1852	"	"G/C"	"65,2/34,8"	"75/40"	115
stress_12bis	"POPTR_0007s08400.1"	1461	"	"T/A"	"65,6/34,4"	"86/45"	131	stress_42	"POPTR_0007s08400.1"	1461	"	"T/A"	"83,3/16,7"	"100/20"	120
stress_12bis	"POPTR_0007s08400.1"	1461	"	"T/A"	"65,6/34,4"	"86/45"	131	stress_45	"POPTR_0007s08400.1"	1461	"	"T/A"	"70,1/29,9"	"178/76"	254
stress_12bis	"POPTR_0006s28120.1"	119	"	"T/C"	"65,2/34,8"	"86/46"	132	stress_42	"POPTR_0006s28120.1"	119	"	"C/T"	"53,1/46,9"	"17/15"	32
stress_12bis	"POPTR_0006s28120.1"	119	"	"T/C"	"65,2/34,8"	"86/46"	132	stress_45	"POPTR_0006s28120.1"	119	"	"T/C"	"58,9/41,1"	"33/23"	56
stress_12bis	"POPTR_0014s13560.1"	1695	"	"A/T"	"61,9/38,1"	"86/53"	139	stress_42	"POPTR_0014s13560.1"	1695	"	"A/T"	"57,7/40,8"	"41/29"	71
stress_12bis	"POPTR_0014s13560.1"	1695	"	"A/T"	"61,9/38,1"	"86/53"	139	stress_45	"POPTR_0014s13560.1"	1695	"	"A/T"	"73,6/26,4"	"67/24"	91
stress_12bis	"POPTR_0004s10660.1"	586	"	"A/G"	"57,7/42,3"	"86/63"	149	stress_42	"POPTR_0004s10660.1"	586	"	"G/A"	"59,0/41,0"	"128/89"	217
stress_12bis	"POPTR_0004s10660.1"	586	"	"A/G"	"57,7/42,3"	"86/63"	149	stress_45	"POPTR_0004s10660.1"	586	"	"A/G"	"50,2/49,8"	"134/133"	267
stress_12bis	"POPTR_0001s21140.1"	105	"	"G/A"	"56,2/43,8"	"86/67"	153	stress_42	"POPTR_0001s21140.1"	105	"	"G/A"	"63,3/36,7"	"19/11"	30
stress_12bis	"POPTR_0001s21140.1"	105	"	"G/A"	"56,2/43,8"	"86/67"	153	stress_45	"POPTR_0001s21140.1"	105	"	"G/A"	"69,6/30,4"	"16/7"	23
stress_12bis	"POPTR_0014s02410.1"	1128	"	"T/C"	"54,4/44,9"	"86/71"	158	stress_42	"POPTR_0014s02410.1"	1128	"	"T/C"	"51,2/48,8"	"153/146"	299
stress_12bis	"POPTR_0014s02410.1"	1128	"	"T/C"	"54,4/44,9"	"86/71"	158	stress_45	"POPTR_0014s02410.1"	1128	"	"C/T"	"54,1/45,9"	"239/203"	442
stress_12bis	"POPTR_0004s00480.1"	708	"	"G/C"	"53,8/46,2"	"86/74"	160	stress_42	"POPTR_0004s00480.1"	708	"	"G/C"	"67,0/33,0"	"65/32"	97
stress_12bis	"POPTR_0004s00480.1"	708	"	"G/C"	"53,8/46,2"	"86/74"	160	stress_45	"POPTR_0004s00480.1"	708	"	"G/C"	"62,6/37,4"	"87/52"	139
stress_12bis	"POPTR_0004s22810.1"	100	"	"G/T"	"51,2/48,8"	"861/821"	1682	stress_42	"POPTR_0004s22810.1"	100	"	"G/T"	"60,2/39,8"	"297/196"	493
stress_12bis	"POPTR_0004s22810.1"	100	"	"G/T"	"51,2/48,8"	"861/821"	1682	stress_45	"POPTR_0004s22810.1"	100	"	"G/T"	"62,3/37,7"	"455/275"	730
stress_12bis	"POPTR_0006s20090.1"	1392	"	"T/C"	"83,7/16,3"	"87/17"	104	stress_42	"POPTR_0006s20090.1"	1392	"	"T/C"	"69,7/30,3"	"23/10"	33
stress_12bis	"POPTR_0006s20090.1"	1392	"	"T/C"	"83,7/16,3"	"87/17"	104	stress_45	"POPTR_0006s20090.1"	1392	"	"T/C"	"62,5/37,5"	"15/9"	24
stress_12bis	"POPTR_0006s13240.1"	372	"	"T/C"	"65,4/34,6"	"87/46"	133	stress_42	"POPTR_0006s13240.1"	372	"	"T/C"	"63,6/36,4"	"21/12"	33
stress_12bis	"POPTR_0006s13240.1"	372	"	"T/C"	"65,4/34,6"	"87/46"	133	stress_45	"POPTR_0006s13240.1"	372	"	"T/C"	"60,9/39,1"	"28/18"	46
stress_12bis	"POPTR_0005s26170.1"	234	"	"T/C"	"63,5/36,5"	"87/50"	137	stress_42	"POPTR_0005s26170.1"	234	"	"T/C"	"62,9/37,1"	"117/69"	186
stress_12bis	"POPTR_0005s26170.1"	234	"	"T/C"	"63,5/36,5"	"87/50"	137	stress_45	"POPTR_0005s26170.1"	234	"	"T/C"	"75,0/25,0"	"120/40"	160
stress_12bis	"POPTR_0008s20590.1"	293	"	"G/A"	"62,1/37,9"	"87/53"	140	stress_42	"POPTR_0008s20590.1"	293	"	"G/A"	"65,5/33,6"	"72/37"	110
stress_12bis	"POPTR_0008s20590.1"	293	"	"G/A"	"62,1/37,9"	"87/53"	140	stress_45	"POPTR_0008s20590.1"	293	"	"G/A"	"61,1/38,9"	"99/63"	162
stress_12bis	"POPTR_0002s14730.1"	1246	"	"C/T"	"52,7/46,7"	"87/77"	165	stress_42	"POPTR_0002s14730.1"	1246	"	"C/T"	"58,5/41,5"	"24/17"	41
stress_12bis	"POPTR_0002s14730.1"	1246	"	"C/T"	"52,7/46,7"	"87/77"	165	stress_45	"POPTR_0002s14730.1"	1246	"	"C/T"	"53,7/46,3"	"22/19"	41
stress_12bis	"POPTR_0001s36560.1"	573	"	"G/A"	"51,5/48,5"	"87/82"	169	stress_42	"POPTR_0001s36560.1"	573	"	"A/G"	"53,1/46,9"	"17/15"	32
stress_12bis	"POPTR_0001s36560.1"	573	"	"G/A"	"51,5/48,5"	"87/82"	169	stress_45	"POPTR_0001s36560.1"	573	"	"G/A"	"51,9/48,1"	"28/26"	54
stress_12bis	"POPTR_0002s07290.1"	552	"	"T/C"	"77,9/22,1"	"88/25"	113	stress_42	"POPTR_0002s07290.1"	552	"	"T/C"	"75,8/22,2"	"75/22"	99
stress_12bis	"POPTR_0002s07290.1"	552	"	"T/C"	"77,9/22,1"	"88/25"	113	stress_45	"POPTR_0002s07290.1"	552	"	"T/C"	"65,9/34,1"	"60/31"	91
stress_12bis	"POPTR_0014s13560.1"	1860	"	"A/G"	"66,7/33,3"	"88/44"	132	stress_42	"POPTR_0014s13560.1"	1860	"	"A/G"	"66,7/33,3"	"82/41"	123
stress_12bis	"POPTR_0014s13560.1"	1860	"	"A/G"	"66,7/33,3"	"88/44"	132	stress_45	"POPTR_0014s13560.1"	1860	"	"A/G"	"55,5/44,5"	"66/53"	119
stress_12bis	"POPTR_0014s02410.1"	320	"	"T/A"	"66,2/33,8"	"88/45"	133	stress_42	"POPTR_0014s02410.1"	320	"	"T/A"	"61,8/38,2"	"76/47"	123
stress_12bis	"POPTR_0014s02410.1"	320	"	"T/A"	"66,2/33,8"	"88/45"	133	stress_45	"POPTR_0014s02410.1"	320	"	"T/A"	"55,2/44,5"	"176/142"	319
stress_12bis	"POPTR_0005s21750.1"	640	"	"G/A"	"65,2/34,8"	"88/47"	135	stress_42	"POPTR_0005s21750.1"	640	"	"G/A"	"65,5/34,5"	"114/60"	174
stress_12bis	"POPTR_0005s21750.1"	640	"	"G/A"	"65,2/34,8"	"88/47"	135	stress_45	"POPTR_0005s21750.1"	640	"	"G/A"	"68,9/31,1"	"91/41"	132
stress_12bis	"POPTR_0008s20590.1"	342	"	"G/T"	"65,2/34,8"	"88/47"	135	stress_42	"POPTR_0008s20590.1"	342	"	"G/T"	"59,8/40,2"	"73/49"	122
stress_12bis	"POPTR_0008s20590.1"	342	"	"G/T"	"65,2/34,8"	"88/47"	135	stress_45	"POPTR_0008s20590.1"	342	"	"G/T"	"61,0/39,0"	"72/46"	118
stress_12bis	"POPTR_0006s13240.1"	651	"	"T/G"	"63,3/36,0"	"88/50"	139	stress_42	"POPTR_0006s13240.1"	651	"	"T/G"	"66,7/33,3"	"34/17"	51
stress_12bis	"POPTR_0006s13240.1"	651	"	"T/G"	"63,3/36,0"	"88/50"	139	stress_45	"POPTR_0006s13240.1"	651	"	"T/G"	"59,3/40,7"	"35/24"	59
stress_12bis	"POPTR_0019s08240.1"	507	"	"C/A"	"59,5/40,5"	"88/60"	148	stress_42	"POPTR_0019s08240.1"	507	"	"C/A"	"53,1/46,9"	"26/23"	49
stress_12bis	"POPTR_0019s08240.1"	507	"	"C/A"	"59,5/40,5"	"88/60"	148	stress_45	"POPTR_0019s08240.1"	507	"	"A/C"	"60,7/39,3"	"34/22"	56
stress_12bis	"POPTR_0019s05950.1"	255	"	"G/T"	"55,3/44,0"	"88/70"	159	stress_42	"POPTR_0019s05950.1"	255	"	"G/T"	"73,7/26,3"	"14/5"	19
stress_12bis	"POPTR_0019s05950.1"	255	"	"G/T"	"55,3/44,0"	"88/70"	159	stress_45	"POPTR_0019s05950.1"	255	"	"G/T"	"59,0/41,0"	"23/16"	39
stress_12bis	"POPTR_0013s13190.1"	369	"	"C/T"	"54,7/45,3"	"88/73"	161	stress_42	"POPTR_0013s13190.1"	369	"	"C/T"	"56,9/41,2"	"29/21"	51
stress_12bis	"POPTR_0013s13190.1"	369	"	"C/T"	"54,7/45,3"	"88/73"	161	stress_45	"POPTR_0013s13190.1"	369	"	"T/C"	"52,9/47,1"	"18/16"	34
stress_12bis	"POPTR_0001s21140.1"	518	"	"A/G"	"54,3/45,7"	"88/74"	162	stress_42	"POPTR_0001s21140.1"	518	"	"G/A"	"65,9/34,1"	"27/14"	41
stress_12bis	"POPTR_0001s21140.1"	518	"	"A/G"	"54,3/45,7"	"88/74"	162	stress_45	"POPTR_0001s21140.1"	518	"	"G/A"	"57,6/42,4"	"19/14"	33
stress_12bis	"POPTR_0013s00760.1"	429	"	"G/A"	"52,4/47,6"	"88/80"	168	stress_42	"POPTR_0013s00760.1"	429	"	"G/A"	"53,5/46,5"	"23/20"	43
stress_12bis	"POPTR_0013s00760.1"	429	"	"G/A"	"52,4/47,6"	"88/80"	168	stress_45	"POPTR_0013s00760.1"	429	"	"A/G"	"58,1/41,9"	"36/26"	62
stress_12bis	"POPTR_0004s00480.1"	95	"	"T/C"	"51,2/48,8"	"88/84"	172	stress_42	"POPTR_0004s00480.1"	95	"	"T/C"	"58,7/41,3"	"61/43"	104
stress_12bis	"POPTR_0004s00480.1"	95	"	"T/C"	"51,2/48,8"	"88/84"	172	stress_45	"POPTR_0004s00480.1"	95	"	"T/C"	"56,7/43,3"	"97/74"	171
stress_12bis	"POPTR_0008s05480.1"	246	"	"C/T"	"50,9/49,1"	"88/85"	173	stress_42	"POPTR_0008s05480.1"	246	"	"T/C"	"63,7/36,3"	"58/33"	91
stress_12bis	"POPTR_0008s05480.1"	246	"	"C/T"	"50,9/49,1"	"88/85"	173	stress_45	"POPTR_0008s05480.1"	246	"	"T/C"	"51,2/48,8"	"152/145"	297
stress_12bis	"POPTR_0005s21570.1"	133	"	"G/C"	"84,8/15,2"	"89/16"	105	stress_45	"POPTR_0005s21570.1"	133	"	"G/C"	"75,0/25,0"	"9/3"	12
stress_12bis	"POPTR_0010s21280.1"	1686	"	"C/G"	"75,4/24,6"	"89/29"	118	stress_42	"POPTR_0010s21280.1"	1686	"	"C/G"	"68,6/31,4"	"48/22"	70
stress_12bis	"POPTR_0010s21280.1"	1686	"	"C/G"	"75,4/24,6"	"89/29"	118	stress_45	"POPTR_0010s21280.1"	1686	"	"C/G"	"68,3/31,7"	"56/26"	82
stress_12bis	"POPTR_0011s14410.1"	372	"	"A/G"	"64,0/36,0"	"89/50"	139	stress_42	"POPTR_0011s14410.1"	372	"	"G/A"	"54,5/45,5"	"12/10"	22
stress_12bis	"POPTR_0011s14410.1"	372	"	"A/G"	"64,0/36,0"	"89/50"	139	stress_45	"POPTR_0011s14410.1"	372	"	"A/G"	"81,0/19,0"	"17/4"	21
stress_12bis	"POPTR_0002s01740.1"	227	"	"G/C"	"61,0/38,4"	"89/56"	146	stress_42	"POPTR_0002s01740.1"	227	"	"G/C"	"74,4/25,6"	"32/11"	43
stress_12bis	"POPTR_0002s01740.1"	227	"	"G/C"	"61,0/38,4"	"89/56"	146	stress_45	"POPTR_0002s01740.1"	227	"	"G/C"	"65,2/34,8"	"30/16"	46
stress_12bis	"POPTR_0003s01090.1"	352	"	"G/A"	"54,9/45,1"	"89/73"	162	stress_42	"POPTR_0003s01090.1"	352	"	"G/A"	"57,5/42,5"	"84/62"	146
stress_12bis	"POPTR_0003s01090.1"	352	"	"G/A"	"54,9/45,1"	"89/73"	162	stress_45	"POPTR_0003s01090.1"	352	"	"G/A"	"54,5/45,5"	"73/61"	134
stress_12bis	"POPTR_0011s08940.1"	141	"	"G/A"	"53,0/47,0"	"89/79"	168	stress_42	"POPTR_0011s08940.1"	141	"	"A/G"	"50,0/50,0"	"19/19"	38
stress_12bis	"POPTR_0011s08940.1"	141	"	"G/A"	"53,0/47,0"	"89/79"	168	stress_45	"POPTR_0011s08940.1"	141	"	"G/A"	"62,9/37,1"	"44/26"	70
stress_12bis	"POPTR_0010s20060.1"	540	"	"T/C"	"52,4/47,6"	"89/81"	170	stress_42	"POPTR_0010s20060.1"	540	"	"C/T"	"64,3/35,7"	"18/10"	28
stress_12bis	"POPTR_0010s20060.1"	540	"	"T/C"	"52,4/47,6"	"89/81"	170	stress_45	"POPTR_0010s20060.1"	540	"	"T/C"	"61,5/38,5"	"16/10"	26
stress_12bis	"POPTR_0002s14730.1"	747	"	"G/A"	"51,1/48,9"	"89/85"	174	stress_42	"POPTR_0002s14730.1"	747	"	"A/G"	"84,6/15,4"	"11/2"	13
stress_12bis	"POPTR_0002s14730.1"	747	"	"G/A"	"51,1/48,9"	"89/85"	174	stress_45	"POPTR_0002s14730.1"	747	"	"A/G"	"59,6/40,4"	"28/19"	47
stress_12bis	"POPTR_0005s22780.1"	151	"	"T/C"	"50,6/49,4"	"89/87"	176	stress_42	"POPTR_0005s22780.1"	151	"	"T/C"	"52,1/47,9"	"25/23"	48
stress_12bis	"POPTR_0005s22780.1"	151	"	"T/C"	"50,6/49,4"	"89/87"	176	stress_45	"POPTR_0005s22780.1"	151	"	"T/C"	"57,1/42,9"	"28/21"	49
stress_12bis	"POPTR_0008s15780.1"	186	"	"C/T"	"55,3/44,7"	"895/722"	1617	stress_42	"POPTR_0008s15780.1"	186	"	"C/T"	"52,4/47,6"	"898/815"	1713
stress_12bis	"POPTR_0008s15780.1"	186	"	"C/T"	"55,3/44,7"	"895/722"	1617	stress_45	"POPTR_0008s15780.1"	186	"	"C/T"	"51,7/48,2"	"1069/996"	2066
stress_12bis	"POPTR_0004s16920.1"	94	"	"A/G"	"53,3/46,7"	"897/785"	1682	stress_42	"POPTR_0004s16920.1"	94	"	"G/A"	"58,6/41,4"	"68/48"	116
stress_12bis	"POPTR_0004s16920.1"	94	"	"A/G"	"53,3/46,7"	"897/785"	1682	stress_45	"POPTR_0004s16920.1"	94	"	"G/A"	"64,8/35,2"	"129/70"	199
stress_12bis	"POPTR_0004s22810.1"	342	"	"C/T"	"50,8/49,2"	"897/869"	1766	stress_42	"POPTR_0004s22810.1"	342	"	"C/T"	"55,0/45,0"	"376/308"	684
stress_12bis	"POPTR_0004s22810.1"	342	"	"C/T"	"50,8/49,2"	"897/869"	1766	stress_45	"POPTR_0004s22810.1"	342	"	"C/T"	"58,7/41,3"	"474/334"	808
stress_12bis	"POPTR_0013s10350.1"	453	"	"A/T"	"69,2/30,8"	"9/4"	13	stress_42	"POPTR_0013s10350.1"	453	"	"T/A"	"69,5/30,5"	"232/102"	334
stress_12bis	"POPTR_0013s10350.1"	453	"	"A/T"	"69,2/30,8"	"9/4"	13	stress_45	"POPTR_0013s10350.1"	453	"	"T/A"	"80,1/19,6"	"339/83"	423
stress_12bis	"POPTR_0014s15960.1"	921	"	"T/C"	"69,2/30,8"	"9/4"	13	stress_42	"POPTR_0014s15960.1"	921	"	"C/T"	"61,1/38,9"	"176/112"	288
stress_12bis	"POPTR_0014s15960.1"	921	"	"T/C"	"69,2/30,8"	"9/4"	13	stress_45	"POPTR_0014s15960.1"	921	"	"C/T"	"63,6/36,4"	"117/67"	184
stress_12bis	"POPTR_0011s12400.1"	554	"	"C/G"	"69,2/30,8"	"9/4"	13	stress_42	"POPTR_0011s12400.1"	554	"	"G/C"	"51,7/48,3"	"74/69"	143
stress_12bis	"POPTR_0011s12400.1"	554	"	"C/G"	"69,2/30,8"	"9/4"	13	stress_45	"POPTR_0011s12400.1"	554	"	"C/G"	"55,2/44,8"	"79/64"	143
stress_12bis	"POPTR_0013s10350.1"	884	"	"A/G"	"64,3/35,7"	"9/5"	14	stress_42	"POPTR_0013s10350.1"	884	"	"A/G"	"75,9/24,1"	"422/134"	556
stress_12bis	"POPTR_0013s10350.1"	884	"	"A/G"	"64,3/35,7"	"9/5"	14	stress_45	"POPTR_0013s10350.1"	884	"	"A/G"	"83,4/16,6"	"361/72"	433
stress_12bis	"POPTR_0014s15960.1"	906	"	"C/T"	"64,3/35,7"	"9/5"	14	stress_42	"POPTR_0014s15960.1"	906	"	"T/C"	"60,5/39,5"	"153/100"	253
stress_12bis	"POPTR_0014s15960.1"	906	"	"C/T"	"64,3/35,7"	"9/5"	14	stress_45	"POPTR_0014s15960.1"	906	"	"T/C"	"65,7/34,3"	"111/58"	169
stress_12bis	"POPTR_0014s15960.1"	1071	"	"C/T"	"60,0/40,0"	"9/6"	15	stress_42	"POPTR_0014s15960.1"	1071	"	"T/C"	"65,7/34,3"	"186/97"	283
stress_12bis	"POPTR_0014s15960.1"	1071	"	"C/T"	"60,0/40,0"	"9/6"	15	stress_45	"POPTR_0014s15960.1"	1071	"	"T/C"	"67,7/32,3"	"176/84"	260
stress_12bis	"POPTR_0010s22950.1"	189	"	"G/A"	"60,0/40,0"	"9/6"	15	stress_42	"POPTR_0010s22950.1"	189	"	"G/A"	"60,7/39,3"	"182/118"	300
stress_12bis	"POPTR_0010s22950.1"	189	"	"G/A"	"60,0/40,0"	"9/6"	15	stress_45	"POPTR_0010s22950.1"	189	"	"G/A"	"60,4/39,6"	"279/183"	462
stress_12bis	"POPTR_0017s08610.1"	408	"	"C/T"	"56,2/43,8"	"9/7"	16	stress_42	"POPTR_0017s08610.1"	408	"	"T/C"	"73,5/26,5"	"97/35"	132
stress_12bis	"POPTR_0017s08610.1"	408	"	"C/T"	"56,2/43,8"	"9/7"	16	stress_45	"POPTR_0017s08610.1"	408	"	"T/C"	"63,2/36,8"	"184/107"	291
stress_12bis	"POPTR_0014s14200.1"	756	"	"T/C"	"56,2/43,8"	"9/7"	16	stress_45	"POPTR_0014s14200.1"	756	"	"T/C"	"84,3/15,7"	"102/19"	121
stress_12bis	"POPTR_0011s12400.1"	383	"	"G/C"	"56,2/43,8"	"9/7"	16	stress_45	"POPTR_0011s12400.1"	383	"	"G/C"	"50,5/49,5"	"55/54"	109
stress_12bis	"POPTR_0010s22950.1"	63	"	"A/T"	"56,2/43,8"	"9/7"	16	stress_42	"POPTR_0010s22950.1"	63	"	"T/A"	"52,7/47,3"	"117/105"	222
stress_12bis	"POPTR_0010s22950.1"	63	"	"A/T"	"56,2/43,8"	"9/7"	16	stress_45	"POPTR_0010s22950.1"	63	"	"T/A"	"53,2/46,8"	"223/196"	419
stress_12bis	"POPTR_0010s19930.1"	846	"	"T/C"	"56,2/43,8"	"9/7"	16	stress_42	"POPTR_0010s19930.1"	846	"	"T/C"	"58,5/38,2"	"72/47"	123
stress_12bis	"POPTR_0010s19930.1"	846	"	"T/C"	"56,2/43,8"	"9/7"	16	stress_45	"POPTR_0010s19930.1"	846	"	"T/C"	"55,8/42,3"	"58/44"	104
stress_12bis	"POPTR_0010s22950.1"	69	"	"G/A"	"52,9/47,1"	"9/8"	17	stress_42	"POPTR_0010s22950.1"	69	"	"A/G"	"56,5/43,5"	"152/117"	269
stress_12bis	"POPTR_0010s22950.1"	69	"	"G/A"	"52,9/47,1"	"9/8"	17	stress_45	"POPTR_0010s22950.1"	69	"	"A/G"	"55,7/44,3"	"268/213"	481
stress_12bis	"POPTR_0001s08770.1"	1230	"	"A/G"	"68,2/31,8"	"90/42"	132	stress_42	"POPTR_0001s08770.1"	1230	"	"A/G"	"55,3/44,7"	"26/21"	47
stress_12bis	"POPTR_0001s08770.1"	1230	"	"A/G"	"68,2/31,8"	"90/42"	132	stress_45	"POPTR_0001s08770.1"	1230	"	"A/G"	"53,2/46,8"	"33/29"	62
stress_12bis	"POPTR_0006s10130.1"	510	"	"C/G"	"65,2/34,8"	"90/48"	138	stress_42	"POPTR_0006s10130.1"	510	"	"C/G"	"52,7/47,3"	"49/44"	93
stress_12bis	"POPTR_0006s10130.1"	510	"	"C/G"	"65,2/34,8"	"90/48"	138	stress_45	"POPTR_0006s10130.1"	510	"	"C/G"	"57,2/42,8"	"87/65"	152
stress_12bis	"POPTR_0011s05670.1"	793	"	"A/C"	"65,2/34,8"	"90/48"	138	stress_42	"POPTR_0011s05670.1"	793	"	"A/C"	"70,2/29,8"	"33/14"	47
stress_12bis	"POPTR_0011s05670.1"	793	"	"A/C"	"65,2/34,8"	"90/48"	138	stress_45	"POPTR_0011s05670.1"	793	"	"A/C"	"72,2/27,8"	"52/20"	72
stress_12bis	"POPTR_0014s11210.1"	62	"	"C/T"	"64,7/35,3"	"90/49"	139	stress_42	"POPTR_0014s11210.1"	62	"	"T/C"	"71,2/28,8"	"42/17"	59
stress_12bis	"POPTR_0014s11210.1"	62	"	"C/T"	"64,7/35,3"	"90/49"	139	stress_45	"POPTR_0014s11210.1"	62	"	"C/T"	"55,1/44,9"	"49/40"	89
stress_12bis	"POPTR_0001s08770.1"	1227	"	"T/C"	"62,9/36,4"	"90/52"	143	stress_42	"POPTR_0001s08770.1"	1227	"	"C/T"	"54,5/45,5"	"24/20"	44
stress_12bis	"POPTR_0001s08770.1"	1227	"	"T/C"	"62,9/36,4"	"90/52"	143	stress_45	"POPTR_0001s08770.1"	1227	"	"C/T"	"51,6/48,4"	"33/31"	64
stress_12bis	"POPTR_0010s21280.1"	564	"	"C/T"	"56,6/43,4"	"90/69"	159	stress_42	"POPTR_0010s21280.1"	564	"	"C/T"	"57,4/42,6"	"31/23"	54
stress_12bis	"POPTR_0010s21280.1"	564	"	"C/T"	"56,6/43,4"	"90/69"	159	stress_45	"POPTR_0010s21280.1"	564	"	"C/T"	"52,8/46,5"	"67/59"	127
stress_12bis	"POPTR_0010s20060.1"	243	"	"C/T"	"82,0/18,0"	"91/20"	111	stress_45	"POPTR_0010s20060.1"	243	"	"C/T"	"82,1/17,9"	"23/5"	28
stress_12bis	"POPTR_0018s09030.1"	268	"	"A/C"	"72,2/27,8"	"91/35"	126	stress_42	"POPTR_0018s09030.1"	268	"	"C/A"	"50,7/49,3"	"73/71"	144
stress_12bis	"POPTR_0018s09030.1"	268	"	"A/C"	"72,2/27,8"	"91/35"	126	stress_45	"POPTR_0018s09030.1"	268	"	"A/C"	"58,5/39,6"	"62/42"	106
stress_12bis	"POPTR_0005s13860.1"	63	"	"T/C"	"58,7/41,3"	"91/64"	155	stress_42	"POPTR_0005s13860.1"	63	"	"T/C"	"56,2/43,8"	"18/14"	32
stress_12bis	"POPTR_0005s13860.1"	63	"	"T/C"	"58,7/41,3"	"91/64"	155	stress_45	"POPTR_0005s13860.1"	63	"	"T/C"	"61,5/38,5"	"40/25"	65
stress_12bis	"POPTR_0014s02410.1"	555	"	"A/T"	"58,0/42,0"	"91/66"	157	stress_42	"POPTR_0014s02410.1"	555	"	"A/T"	"57,6/42,4"	"121/89"	210
stress_12bis	"POPTR_0014s02410.1"	555	"	"A/T"	"58,0/42,0"	"91/66"	157	stress_45	"POPTR_0014s02410.1"	555	"	"T/A"	"51,8/48,2"	"249/232"	481
stress_12bis	"POPTR_0005s22830.1"	354	"	"T/C"	"55,5/44,5"	"91/73"	164	stress_42	"POPTR_0005s22830.1"	354	"	"C/T"	"56,8/43,2"	"54/41"	95
stress_12bis	"POPTR_0005s22830.1"	354	"	"T/C"	"55,5/44,5"	"91/73"	164	stress_45	"POPTR_0005s22830.1"	354	"	"T/C"	"56,9/43,1"	"41/31"	72
stress_12bis	"POPTR_0002s01320.1"	177	"	"A/T"	"55,2/44,8"	"91/74"	165	stress_42	"POPTR_0002s01320.1"	177	"	"T/A"	"54,0/46,0"	"27/23"	50
stress_12bis	"POPTR_0002s01320.1"	177	"	"A/T"	"55,2/44,8"	"91/74"	165	stress_45	"POPTR_0002s01320.1"	177	"	"A/T"	"54,1/45,9"	"46/39"	85
stress_12bis	"POPTR_0016s14310.1"	188	"	"T/C"	"50,8/49,2"	"91/88"	179	stress_42	"POPTR_0016s14310.1"	188	"	"C/T"	"54,5/45,5"	"12/10"	22
stress_12bis	"POPTR_0016s14310.1"	188	"	"T/C"	"50,8/49,2"	"91/88"	179	stress_45	"POPTR_0016s14310.1"	188	"	"C/T"	"51,9/48,1"	"14/13"	27
stress_12bis	"POPTR_0012s07060.1"	1257	"	"G/A"	"50,3/49,7"	"91/90"	181	stress_42	"POPTR_0012s07060.1"	1257	"	"A/G"	"51,7/48,3"	"46/43"	89
stress_12bis	"POPTR_0012s07060.1"	1257	"	"G/A"	"50,3/49,7"	"91/90"	181	stress_45	"POPTR_0012s07060.1"	1257	"	"G/A"	"57,6/42,4"	"68/50"	118
stress_12bis	"POPTR_0006s08530.1"	360	"	"C/T"	"53,9/45,9"	"911/776"	1689	stress_42	"POPTR_0006s08530.1"	360	"	"C/T"	"69,6/30,2"	"1341/582"	1927
stress_12bis	"POPTR_0006s08530.1"	360	"	"C/T"	"53,9/45,9"	"911/776"	1689	stress_45	"POPTR_0006s08530.1"	360	"	"C/T"	"68,4/31,6"	"1407/649"	2057
stress_12bis	"POPTR_0014s13560.1"	1638	"	"A/T"	"69,2/30,8"	"92/41"	133	stress_42	"POPTR_0014s13560.1"	1638	"	"A/T"	"73,6/26,4"	"67/24"	91
stress_12bis	"POPTR_0014s13560.1"	1638	"	"A/T"	"69,2/30,8"	"92/41"	133	stress_45	"POPTR_0014s13560.1"	1638	"	"A/T"	"72,8/27,2"	"75/28"	103
stress_12bis	"POPTR_0008s05480.1"	879	"	"C/G"	"62,6/37,4"	"92/55"	147	stress_42	"POPTR_0008s05480.1"	879	"	"C/G"	"69,2/30,8"	"63/28"	91
stress_12bis	"POPTR_0008s05480.1"	879	"	"C/G"	"62,6/37,4"	"92/55"	147	stress_45	"POPTR_0008s05480.1"	879	"	"C/G"	"69,8/30,2"	"162/70"	232
stress_12bis	"POPTR_0006s10130.1"	531	"	"T/A"	"61,3/38,0"	"92/57"	150	stress_42	"POPTR_0006s10130.1"	531	"	"T/A"	"60,5/39,5"	"49/32"	81
stress_12bis	"POPTR_0006s10130.1"	531	"	"T/A"	"61,3/38,0"	"92/57"	150	stress_45	"POPTR_0006s10130.1"	531	"	"T/A"	"55,5/44,5"	"106/85"	191
stress_12bis	"POPTR_0011s12440.1"	230	"	"C/T"	"61,3/38,7"	"92/58"	150	stress_42	"POPTR_0011s12440.1"	230	"	"C/T"	"68,8/31,2"	"22/10"	32
stress_12bis	"POPTR_0011s12440.1"	230	"	"C/T"	"61,3/38,7"	"92/58"	150	stress_45	"POPTR_0011s12440.1"	230	"	"C/T"	"72,7/27,3"	"32/12"	44
stress_12bis	"POPTR_0005s22830.1"	589	"	"G/A"	"58,6/41,4"	"92/65"	157	stress_42	"POPTR_0005s22830.1"	589	"	"A/G"	"58,1/41,9"	"54/39"	93
stress_12bis	"POPTR_0005s22830.1"	589	"	"G/A"	"58,6/41,4"	"92/65"	157	stress_45	"POPTR_0005s22830.1"	589	"	"G/A"	"60,2/39,8"	"50/33"	83
stress_12bis	"POPTR_0002s01320.1"	687	"	"A/G"	"58,6/41,4"	"92/65"	157	stress_42	"POPTR_0002s01320.1"	687	"	"G/A"	"51,2/48,8"	"21/20"	41
stress_12bis	"POPTR_0002s01320.1"	687	"	"A/G"	"58,6/41,4"	"92/65"	157	stress_45	"POPTR_0002s01320.1"	687	"	"A/G"	"55,3/44,7"	"47/38"	85
stress_12bis	"POPTR_0001s36560.1"	328	"	"A/C"	"57,5/42,5"	"92/68"	160	stress_42	"POPTR_0001s36560.1"	328	"	"C/A"	"60,0/40,0"	"12/8"	20
stress_12bis	"POPTR_0001s36560.1"	328	"	"A/C"	"57,5/42,5"	"92/68"	160	stress_45	"POPTR_0001s36560.1"	328	"	"A/C"	"63,0/37,0"	"29/17"	46
stress_12bis	"POPTR_0018s11820.1"	1212	"	"C/T"	"55,1/44,9"	"92/75"	167	stress_42	"POPTR_0018s11820.1"	1212	"	"T/C"	"52,8/47,2"	"19/17"	36
stress_12bis	"POPTR_0018s11820.1"	1212	"	"C/T"	"55,1/44,9"	"92/75"	167	stress_45	"POPTR_0018s11820.1"	1212	"	"T/C"	"66,7/33,3"	"26/13"	39
stress_12bis	"POPTR_0009s05240.1"	507	"	"A/G"	"54,8/45,2"	"92/76"	168	stress_42	"POPTR_0009s05240.1"	507	"	"A/G"	"65,5/34,5"	"38/20"	58
stress_12bis	"POPTR_0009s05240.1"	507	"	"A/G"	"54,8/45,2"	"92/76"	168	stress_45	"POPTR_0009s05240.1"	507	"	"A/G"	"69,3/30,7"	"52/23"	75
stress_12bis	"POPTR_0003s09830.1"	1062	"	"A/G"	"52,0/47,5"	"92/84"	177	stress_42	"POPTR_0003s09830.1"	1062	"	"A/G"	"60,5/39,5"	"26/17"	43
stress_12bis	"POPTR_0003s09830.1"	1062	"	"A/G"	"52,0/47,5"	"92/84"	177	stress_45	"POPTR_0003s09830.1"	1062	"	"A/G"	"56,9/43,1"	"29/22"	51
stress_12bis	"POPTR_0005s22830.1"	541	"	"A/C"	"51,4/48,0"	"92/86"	179	stress_42	"POPTR_0005s22830.1"	541	"	"A/C"	"51,6/48,4"	"66/62"	128
stress_12bis	"POPTR_0005s22830.1"	541	"	"A/C"	"51,4/48,0"	"92/86"	179	stress_45	"POPTR_0005s22830.1"	541	"	"C/A"	"53,5/46,5"	"53/46"	99
stress_12bis	"POPTR_0004s16920.1"	895	"	"T/G"	"59,1/40,9"	"923/640"	1563	stress_42	"POPTR_0004s16920.1"	895	"	"G/T"	"53,3/46,1"	"96/83"	180
stress_12bis	"POPTR_0004s16920.1"	895	"	"T/G"	"59,1/40,9"	"923/640"	1563	stress_45	"POPTR_0004s16920.1"	895	"	"G/T"	"50,4/49,6"	"116/114"	230
stress_12bis	"POPTR_0001s21140.1"	669	"	"G/A"	"70,5/28,8"	"93/38"	132	stress_42	"POPTR_0001s21140.1"	669	"	"G/A"	"81,2/18,8"	"39/9"	48
stress_12bis	"POPTR_0001s21140.1"	669	"	"G/A"	"70,5/28,8"	"93/38"	132	stress_45	"POPTR_0001s21140.1"	669	"	"G/A"	"84,2/15,8"	"16/3"	19
stress_12bis	"POPTR_0011s17170.1"	42	"	"A/G"	"69,4/30,6"	"93/41"	134	stress_42	"POPTR_0011s17170.1"	42	"	"A/G"	"73,9/26,1"	"34/12"	46
stress_12bis	"POPTR_0011s17170.1"	42	"	"A/G"	"69,4/30,6"	"93/41"	134	stress_45	"POPTR_0011s17170.1"	42	"	"A/G"	"59,0/41,0"	"36/25"	61
stress_12bis	"POPTR_0006s24770.1"	615	"	"T/C"	"63,3/36,7"	"93/54"	147	stress_42	"POPTR_0006s24770.1"	615	"	"T/C"	"56,3/43,7"	"67/52"	119
stress_12bis	"POPTR_0006s24770.1"	615	"	"T/C"	"63,3/36,7"	"93/54"	147	stress_45	"POPTR_0006s24770.1"	615	"	"T/C"	"57,3/42,7"	"82/61"	143
stress_12bis	"POPTR_0011s14410.1"	450	"	"C/T"	"55,7/44,3"	"93/74"	167	stress_42	"POPTR_0011s14410.1"	450	"	"C/T"	"63,6/36,4"	"21/12"	33
stress_12bis	"POPTR_0011s14410.1"	450	"	"C/T"	"55,7/44,3"	"93/74"	167	stress_45	"POPTR_0011s14410.1"	450	"	"C/T"	"50,0/50,0"	"19/19"	38
stress_12bis	"POPTR_0001s36560.1"	585	"	"G/T"	"52,0/48,0"	"93/86"	179	stress_42	"POPTR_0001s36560.1"	585	"	"G/T"	"50,0/50,0"	"20/20"	40
stress_12bis	"POPTR_0001s36560.1"	585	"	"G/T"	"52,0/48,0"	"93/86"	179	stress_45	"POPTR_0001s36560.1"	585	"	"T/G"	"53,7/46,3"	"29/25"	54
stress_12bis	"POPTR_0009s11480.1"	1158	"	"T/C"	"51,4/48,6"	"93/88"	181	stress_42	"POPTR_0009s11480.1"	1158	"	"C/T"	"61,5/38,5"	"24/15"	39
stress_12bis	"POPTR_0009s11480.1"	1158	"	"T/C"	"51,4/48,6"	"93/88"	181	stress_45	"POPTR_0009s11480.1"	1158	"	"C/T"	"51,7/48,3"	"30/28"	58
stress_12bis	"POPTR_0003s09830.1"	783	"	"C/T"	"51,1/48,9"	"93/89"	182	stress_42	"POPTR_0003s09830.1"	783	"	"T/C"	"62,8/37,2"	"27/16"	43
stress_12bis	"POPTR_0003s09830.1"	783	"	"C/T"	"51,1/48,9"	"93/89"	182	stress_45	"POPTR_0003s09830.1"	783	"	"T/C"	"53,8/46,2"	"28/24"	52
stress_12bis	"POPTR_0012s11630.1"	495	"	"C/T"	"70,1/29,9"	"94/40"	134	stress_42	"POPTR_0012s11630.1"	495	"	"C/T"	"65,4/34,6"	"51/27"	78
stress_12bis	"POPTR_0012s11630.1"	495	"	"C/T"	"70,1/29,9"	"94/40"	134	stress_45	"POPTR_0012s11630.1"	495	"	"C/T"	"58,1/41,9"	"50/36"	86
stress_12bis	"POPTR_0002s22220.1"	210	"	"C/T"	"58,4/41,6"	"94/67"	161	stress_42	"POPTR_0002s22220.1"	210	"	"C/T"	"53,7/46,3"	"44/38"	82
stress_12bis	"POPTR_0002s22220.1"	210	"	"C/T"	"58,4/41,6"	"94/67"	161	stress_45	"POPTR_0002s22220.1"	210	"	"T/C"	"51,2/48,8"	"85/81"	166
stress_12bis	"POPTR_0003s09830.1"	963	"	"T/C"	"57,7/42,3"	"94/69"	163	stress_42	"POPTR_0003s09830.1"	963	"	"C/T"	"50,0/50,0"	"14/14"	28
stress_12bis	"POPTR_0003s09830.1"	963	"	"T/C"	"57,7/42,3"	"94/69"	163	stress_45	"POPTR_0003s09830.1"	963	"	"T/C"	"53,8/46,2"	"21/18"	39
stress_12bis	"POPTR_0002s14730.1"	943	"	"T/G"	"55,3/44,7"	"94/76"	170	stress_42	"POPTR_0002s14730.1"	943	"	"G/T"	"60,0/40,0"	"15/10"	25
stress_12bis	"POPTR_0002s14730.1"	943	"	"T/G"	"55,3/44,7"	"94/76"	170	stress_45	"POPTR_0002s14730.1"	943	"	"G/T"	"56,4/43,6"	"22/17"	39
stress_12bis	"POPTR_0005s22830.1"	348	"	"A/G"	"53,1/46,9"	"94/83"	177	stress_42	"POPTR_0005s22830.1"	348	"	"G/A"	"54,0/46,0"	"54/46"	100
stress_12bis	"POPTR_0005s22830.1"	348	"	"A/G"	"53,1/46,9"	"94/83"	177	stress_45	"POPTR_0005s22830.1"	348	"	"A/G"	"56,4/43,6"	"44/34"	78
stress_12bis	"POPTR_0011s08940.1"	129	"	"G/A"	"52,2/47,2"	"94/85"	180	stress_42	"POPTR_0011s08940.1"	129	"	"A/G"	"54,8/45,2"	"17/14"	31
stress_12bis	"POPTR_0011s08940.1"	129	"	"G/A"	"52,2/47,2"	"94/85"	180	stress_45	"POPTR_0011s08940.1"	129	"	"A/G"	"54,7/45,3"	"35/29"	64
stress_12bis	"POPTR_0002s14730.1"	537	"	"T/G"	"52,5/47,5"	"94/85"	179	stress_42	"POPTR_0002s14730.1"	537	"	"G/T"	"60,7/39,3"	"17/11"	28
stress_12bis	"POPTR_0002s14730.1"	537	"	"T/G"	"52,5/47,5"	"94/85"	179	stress_45	"POPTR_0002s14730.1"	537	"	"G/T"	"69,2/30,8"	"27/12"	39
stress_12bis	"POPTR_0011s02770.1"	495	"	"A/C"	"76,0/24,0"	"95/30"	125	stress_42	"POPTR_0011s02770.1"	495	"	"A/C"	"66,7/33,3"	"28/14"	42
stress_12bis	"POPTR_0011s02770.1"	495	"	"A/C"	"76,0/24,0"	"95/30"	125	stress_45	"POPTR_0011s02770.1"	495	"	"A/C"	"68,1/30,4"	"47/21"	69
stress_12bis	"POPTR_0003s17010.1"	38	"	"T/C"	"70,9/29,1"	"95/39"	134	stress_42	"POPTR_0003s17010.1"	38	"	"T/C"	"76,7/23,3"	"23/7"	30
stress_12bis	"POPTR_0003s17010.1"	38	"	"T/C"	"70,9/29,1"	"95/39"	134	stress_45	"POPTR_0003s17010.1"	38	"	"T/C"	"65,4/34,6"	"34/18"	52
stress_12bis	"POPTR_0015s09910.1"	389	"	"A/G"	"68,3/31,7"	"95/44"	139	stress_45	"POPTR_0015s09910.1"	389	"	"A/G"	"83,3/16,7"	"30/6"	36
stress_12bis	"POPTR_0008s18230.1"	273	"	"T/A"	"57,6/42,4"	"95/70"	165	stress_42	"POPTR_0008s18230.1"	273	"	"A/T"	"51,9/48,1"	"40/37"	77
stress_12bis	"POPTR_0008s18230.1"	273	"	"T/A"	"57,6/42,4"	"95/70"	165	stress_45	"POPTR_0008s18230.1"	273	"	"A/T"	"52,5/47,5"	"21/19"	40
stress_12bis	"POPTR_0008s08410.1"	982	"	"A/T"	"56,2/43,8"	"95/74"	169	stress_42	"POPTR_0008s08410.1"	982	"	"A/T"	"69,0/31,0"	"29/13"	42
stress_12bis	"POPTR_0008s08410.1"	982	"	"A/T"	"56,2/43,8"	"95/74"	169	stress_45	"POPTR_0008s08410.1"	982	"	"A/T"	"66,7/33,3"	"32/16"	48
stress_12bis	"POPTR_0001s36560.1"	390	"	"T/C"	"53,1/46,9"	"95/84"	179	stress_42	"POPTR_0001s36560.1"	390	"	"C/T"	"50,0/50,0"	"9/9"	18
stress_12bis	"POPTR_0001s36560.1"	390	"	"T/C"	"53,1/46,9"	"95/84"	179	stress_45	"POPTR_0001s36560.1"	390	"	"T/C"	"51,9/48,1"	"28/26"	54
stress_12bis	"POPTR_0002s14730.1"	1356	"	"T/C"	"52,8/47,2"	"95/85"	180	stress_42	"POPTR_0002s14730.1"	1356	"	"T/C"	"52,6/47,4"	"20/18"	38
stress_12bis	"POPTR_0002s14730.1"	1356	"	"T/C"	"52,8/47,2"	"95/85"	180	stress_45	"POPTR_0002s14730.1"	1356	"	"T/C"	"68,1/31,9"	"49/23"	72
stress_12bis	"POPTR_0005s27240.1"	2094	"	"G/A"	"74,4/25,6"	"96/33"	129	stress_42	"POPTR_0005s27240.1"	2094	"	"G/A"	"64,9/35,1"	"24/13"	37
stress_12bis	"POPTR_0005s27240.1"	2094	"	"G/A"	"74,4/25,6"	"96/33"	129	stress_45	"POPTR_0005s27240.1"	2094	"	"G/A"	"55,6/44,4"	"45/36"	81
stress_12bis	"POPTR_0008s05480.1"	162	"	"A/C"	"74,4/25,6"	"96/33"	129	stress_42	"POPTR_0008s05480.1"	162	"	"A/C"	"74,6/25,4"	"53/18"	71
stress_12bis	"POPTR_0008s05480.1"	162	"	"A/C"	"74,4/25,6"	"96/33"	129	stress_45	"POPTR_0008s05480.1"	162	"	"A/C"	"77,5/22,0"	"169/48"	218
stress_12bis	"POPTR_0003s01090.1"	225	"	"C/T"	"67,1/32,9"	"96/47"	143	stress_42	"POPTR_0003s01090.1"	225	"	"C/T"	"63,9/36,1"	"76/43"	119
stress_12bis	"POPTR_0003s01090.1"	225	"	"C/T"	"67,1/32,9"	"96/47"	143	stress_45	"POPTR_0003s01090.1"	225	"	"C/T"	"66,1/33,9"	"80/41"	121
stress_12bis	"POPTR_0006s10130.1"	555	"	"G/T"	"65,3/34,7"	"96/51"	147	stress_42	"POPTR_0006s10130.1"	555	"	"G/T"	"53,9/44,7"	"41/34"	76
stress_12bis	"POPTR_0006s10130.1"	555	"	"G/T"	"65,3/34,7"	"96/51"	147	stress_45	"POPTR_0006s10130.1"	555	"	"G/T"	"58,0/42,0"	"98/71"	169
stress_12bis	"POPTR_0006s08850.1"	119	"	"C/T"	"65,3/34,7"	"96/51"	147	stress_42	"POPTR_0006s08850.1"	119	"	"C/T"	"62,0/38,0"	"44/27"	71
stress_12bis	"POPTR_0006s08850.1"	119	"	"C/T"	"65,3/34,7"	"96/51"	147	stress_45	"POPTR_0006s08850.1"	119	"	"C/T"	"59,7/40,3"	"37/25"	62
stress_12bis	"POPTR_0002s14730.1"	1467	"	"C/T"	"63,2/36,8"	"96/56"	152	stress_42	"POPTR_0002s14730.1"	1467	"	"C/T"	"69,7/30,3"	"23/10"	33
stress_12bis	"POPTR_0002s14730.1"	1467	"	"C/T"	"63,2/36,8"	"96/56"	152	stress_45	"POPTR_0002s14730.1"	1467	"	"C/T"	"71,8/28,2"	"28/11"	39
stress_12bis	"POPTR_0003s09830.1"	384	"	"G/A"	"62,3/37,7"	"96/58"	154	stress_42	"POPTR_0003s09830.1"	384	"	"G/A"	"61,0/39,0"	"25/16"	41
stress_12bis	"POPTR_0003s09830.1"	384	"	"G/A"	"62,3/37,7"	"96/58"	154	stress_45	"POPTR_0003s09830.1"	384	"	"G/A"	"53,8/46,2"	"28/24"	52
stress_12bis	"POPTR_0001s35230.1"	267	"	"G/A"	"51,6/47,8"	"96/89"	186	stress_42	"POPTR_0001s35230.1"	267	"	"G/A"	"52,0/48,0"	"53/49"	102
stress_12bis	"POPTR_0001s35230.1"	267	"	"G/A"	"51,6/47,8"	"96/89"	186	stress_45	"POPTR_0001s35230.1"	267	"	"G/A"	"57,0/43,0"	"69/52"	121
stress_12bis	"POPTR_0006s08530.1"	131	"	"T/G"	"73,6/26,4"	"966/347"	1313	stress_42	"POPTR_0006s08530.1"	131	"	"T/G"	"53,6/46,4"	"651/563"	1214
stress_12bis	"POPTR_0006s08530.1"	131	"	"T/G"	"73,6/26,4"	"966/347"	1313	stress_45	"POPTR_0006s08530.1"	131	"	"T/G"	"63,5/36,5"	"948/545"	1493
stress_12bis	"POPTR_0011s12440.1"	175	"	"G/T"	"67,8/32,2"	"97/46"	143	stress_42	"POPTR_0011s12440.1"	175	"	"G/T"	"66,7/33,3"	"12/6"	18
stress_12bis	"POPTR_0011s12440.1"	175	"	"G/T"	"67,8/32,2"	"97/46"	143	stress_45	"POPTR_0011s12440.1"	175	"	"G/T"	"50,0/50,0"	"21/21"	42
stress_12bis	"POPTR_0008s22310.1"	92	"	"T/C"	"60,6/39,4"	"97/63"	160	stress_42	"POPTR_0008s22310.1"	92	"	"C/T"	"54,3/45,7"	"50/42"	92
stress_12bis	"POPTR_0008s22310.1"	92	"	"T/C"	"60,6/39,4"	"97/63"	160	stress_45	"POPTR_0008s22310.1"	92	"	"C/T"	"59,1/40,9"	"81/56"	137
stress_12bis	"POPTR_0010s20810.1"	173	"	"C/T"	"52,6/47,4"	"977/881"	1858	stress_42	"POPTR_0010s20810.1"	173	"	"T/C"	"60,7/39,3"	"51/33"	84
stress_12bis	"POPTR_0010s20810.1"	173	"	"C/T"	"52,6/47,4"	"977/881"	1858	stress_45	"POPTR_0010s20810.1"	173	"	"T/C"	"63,3/36,7"	"88/51"	139
stress_12bis	"POPTR_0010s20060.1"	561	"	"T/C"	"79,0/21,0"	"98/26"	124	stress_42	"POPTR_0010s20060.1"	561	"	"T/C"	"62,9/37,1"	"22/13"	35
stress_12bis	"POPTR_0010s20060.1"	561	"	"T/C"	"79,0/21,0"	"98/26"	124	stress_45	"POPTR_0010s20060.1"	561	"	"T/C"	"61,9/38,1"	"13/8"	21
stress_12bis	"POPTR_0005s26170.1"	466	"	"G/A"	"78,4/21,6"	"98/27"	125	stress_42	"POPTR_0005s26170.1"	466	"	"G/A"	"78,9/21,1"	"112/30"	142
stress_12bis	"POPTR_0005s26170.1"	466	"	"G/A"	"78,4/21,6"	"98/27"	125	stress_45	"POPTR_0005s26170.1"	466	"	"G/A"	"66,0/34,0"	"93/48"	141
stress_12bis	"POPTR_0009s08520.1"	312	"	"T/C"	"70,0/30,0"	"98/42"	140	stress_42	"POPTR_0009s08520.1"	312	"	"T/C"	"61,9/38,1"	"13/8"	21
stress_12bis	"POPTR_0009s08520.1"	312	"	"T/C"	"70,0/30,0"	"98/42"	140	stress_45	"POPTR_0009s08520.1"	312	"	"T/C"	"85,0/15,0"	"17/3"	20
stress_12bis	"POPTR_0006s24770.1"	258	"	"G/T"	"65,8/34,2"	"98/51"	149	stress_42	"POPTR_0006s24770.1"	258	"	"G/T"	"52,1/47,9"	"50/46"	96
stress_12bis	"POPTR_0006s24770.1"	258	"	"G/T"	"65,8/34,2"	"98/51"	149	stress_45	"POPTR_0006s24770.1"	258	"	"G/T"	"50,0/50,0"	"71/71"	142
stress_12bis	"POPTR_0008s20590.1"	271	"	"C/A"	"61,6/38,4"	"98/61"	159	stress_42	"POPTR_0008s20590.1"	271	"	"C/A"	"68,0/32,0"	"66/31"	97
stress_12bis	"POPTR_0008s20590.1"	271	"	"C/A"	"61,6/38,4"	"98/61"	159	stress_45	"POPTR_0008s20590.1"	271	"	"C/A"	"61,8/38,2"	"94/58"	152
stress_12bis	"POPTR_0019s05950.1"	100	"	"G/T"	"51,9/48,1"	"98/91"	189	stress_42	"POPTR_0019s05950.1"	100	"	"T/G"	"52,9/47,1"	"18/16"	34
stress_12bis	"POPTR_0019s05950.1"	100	"	"G/T"	"51,9/48,1"	"98/91"	189	stress_45	"POPTR_0019s05950.1"	100	"	"G/T"	"63,0/37,0"	"17/10"	27
stress_12bis	"POPTR_0004s22810.1"	126	"	"G/A"	"51,0/49,0"	"981/941"	1922	stress_42	"POPTR_0004s22810.1"	126	"	"G/A"	"54,7/45,1"	"318/262"	581
stress_12bis	"POPTR_0004s22810.1"	126	"	"G/A"	"51,0/49,0"	"981/941"	1922	stress_45	"POPTR_0004s22810.1"	126	"	"G/A"	"57,4/42,6"	"491/365"	856
stress_12bis	"POPTR_0010s20060.1"	873	"	"A/G"	"79,8/20,2"	"99/25"	124	stress_42	"POPTR_0010s20060.1"	873	"	"A/G"	"79,3/20,7"	"23/6"	29
stress_12bis	"POPTR_0004s00480.1"	152	"	"C/A"	"75,6/24,4"	"99/32"	131	stress_42	"POPTR_0004s00480.1"	152	"	"C/A"	"80,0/20,0"	"52/13"	65
stress_12bis	"POPTR_0004s00480.1"	152	"	"C/A"	"75,6/24,4"	"99/32"	131	stress_45	"POPTR_0004s00480.1"	152	"	"C/A"	"82,6/17,4"	"95/20"	115
stress_12bis	"POPTR_0001s38810.1"	84	"	"T/C"	"72,8/27,2"	"99/37"	136	stress_42	"POPTR_0001s38810.1"	84	"	"T/C"	"50,4/49,6"	"59/58"	117
stress_12bis	"POPTR_0001s38810.1"	84	"	"T/C"	"72,8/27,2"	"99/37"	136	stress_45	"POPTR_0001s38810.1"	84	"	"C/T"	"52,6/47,4"	"92/83"	175
stress_12bis	"POPTR_0001s13100.1"	378	"	"C/T"	"70,7/29,3"	"99/41"	140	stress_42	"POPTR_0001s13100.1"	378	"	"C/T"	"65,4/34,6"	"17/9"	26
stress_12bis	"POPTR_0001s13100.1"	378	"	"C/T"	"70,7/29,3"	"99/41"	140	stress_45	"POPTR_0001s13100.1"	378	"	"C/T"	"54,5/45,5"	"12/10"	22
stress_12bis	"POPTR_0016s03230.1"	835	"	"G/T"	"66,9/32,4"	"99/48"	148	stress_42	"POPTR_0016s03230.1"	835	"	"G/T"	"70,4/29,6"	"38/16"	54
stress_12bis	"POPTR_0016s03230.1"	835	"	"G/T"	"66,9/32,4"	"99/48"	148	stress_45	"POPTR_0016s03230.1"	835	"	"G/T"	"61,2/38,8"	"30/19"	49
stress_12bis	"POPTR_0008s22310.1"	57	"	"T/C"	"66,9/33,1"	"99/49"	148	stress_42	"POPTR_0008s22310.1"	57	"	"C/T"	"50,0/50,0"	"39/39"	78
stress_12bis	"POPTR_0008s22310.1"	57	"	"T/C"	"66,9/33,1"	"99/49"	148	stress_45	"POPTR_0008s22310.1"	57	"	"C/T"	"58,9/41,1"	"56/39"	95
stress_12bis	"POPTR_0014s00810.1"	34	"	"T/A"	"63,9/36,1"	"99/56"	155	stress_42	"POPTR_0014s00810.1"	34	"	"T/A"	"84,7/15,3"	"171/31"	202
stress_12bis	"POPTR_0014s00810.1"	34	"	"T/A"	"63,9/36,1"	"99/56"	155	stress_45	"POPTR_0014s00810.1"	34	"	"T/A"	"81,5/18,5"	"101/23"	124
stress_12bis	"POPTR_0011s12440.1"	138	"	"A/T"	"60,0/39,4"	"99/65"	165	stress_42	"POPTR_0011s12440.1"	138	"	"A/T"	"58,3/41,7"	"14/10"	24
stress_12bis	"POPTR_0011s12440.1"	138	"	"A/T"	"60,0/39,4"	"99/65"	165	stress_45	"POPTR_0011s12440.1"	138	"	"T/A"	"59,5/40,5"	"25/17"	42
stress_12bis	"POPTR_0018s11820.1"	1176	"	"A/G"	"56,2/43,8"	"99/77"	176	stress_42	"POPTR_0018s11820.1"	1176	"	"A/G"	"58,1/41,9"	"18/13"	31
stress_12bis	"POPTR_0018s11820.1"	1176	"	"A/G"	"56,2/43,8"	"99/77"	176	stress_45	"POPTR_0018s11820.1"	1176	"	"G/A"	"61,0/39,0"	"25/16"	41
stress_12bis	"POPTR_0001s08770.1"	204	"	"T/C"	"55,3/44,7"	"99/80"	179	stress_42	"POPTR_0001s08770.1"	204	"	"T/C"	"60,9/39,1"	"14/9"	23
stress_12bis	"POPTR_0001s08770.1"	204	"	"T/C"	"55,3/44,7"	"99/80"	179	stress_45	"POPTR_0001s08770.1"	204	"	"T/C"	"54,0/46,0"	"27/23"	50
stress_12bis	"POPTR_0008s06580.1"	378	"	"A/G"	"53,2/46,8"	"99/87"	186	stress_42	"POPTR_0008s06580.1"	378	"	"G/A"	"62,8/37,2"	"484/287"	771
stress_12bis	"POPTR_0008s06580.1"	378	"	"A/G"	"53,2/46,8"	"99/87"	186	stress_45	"POPTR_0008s06580.1"	378	"	"G/A"	"60,0/39,9"	"576/383"	960
stress_12bis	"POPTR_0019s05950.1"	477	"	"G/A"	"52,4/47,6"	"99/90"	189	stress_42	"POPTR_0019s05950.1"	477	"	"A/G"	"56,2/43,8"	"18/14"	32
stress_12bis	"POPTR_0019s05950.1"	477	"	"G/A"	"52,4/47,6"	"99/90"	189	stress_45	"POPTR_0019s05950.1"	477	"	"A/G"	"65,9/34,1"	"27/14"	41
stress_12bis	"POPTR_0004s01940.1"	198	"	"T/C"	"50,3/49,7"	"99/98"	197	stress_42	"POPTR_0004s01940.1"	198	"	"C/T"	"72,9/27,1"	"70/26"	96
stress_12bis	"POPTR_0004s01940.1"	198	"	"T/C"	"50,3/49,7"	"99/98"	197	stress_45	"POPTR_0004s01940.1"	198	"	"C/T"	"83,1/16,9"	"69/14"	83
stress_42	"POPTR_0007s08400.1"	1461	"	"T/A"	"83,3/16,7"	"100/20"	120	stress_45	"POPTR_0007s08400.1"	1461	"	"T/A"	"70,1/29,9"	"178/76"	254
stress_42	"POPTR_0003s13880.1"	342	"	"A/G"	"59,5/40,5"	"100/68"	168	stress_45	"POPTR_0003s13880.1"	342	"	"A/G"	"53,3/46,7"	"130/114"	244
stress_42	"POPTR_0003s13880.1"	476	"	"T/G"	"57,1/42,9"	"100/75"	175	stress_45	"POPTR_0003s13880.1"	476	"	"T/G"	"54,0/46,0"	"108/92"	200
stress_42	"POPTR_0001s14280.1"	1101	"	"A/T"	"51,3/48,7"	"100/95"	195	stress_45	"POPTR_0001s14280.1"	1101	"	"A/T"	"50,9/49,1"	"140/135"	275
stress_42	"POPTR_0005s22660.1"	125	"	"G/C"	"68,7/31,3"	"101/46"	147	stress_45	"POPTR_0005s22660.1"	125	"	"G/C"	"75,2/24,8"	"76/25"	101
stress_42	"POPTR_0018s09730.1"	387	"	"T/C"	"61,2/38,8"	"101/64"	165	stress_45	"POPTR_0018s09730.1"	387	"	"T/C"	"60,8/39,2"	"155/100"	255
stress_42	"POPTR_0002s05840.1"	995	"	"C/T"	"58,4/41,6"	"101/72"	173	stress_45	"POPTR_0002s05840.1"	995	"	"C/T"	"54,1/45,9"	"93/79"	172
stress_42	"POPTR_0001s31700.1"	669	"	"C/T"	"52,6/46,9"	"101/90"	192	stress_45	"POPTR_0001s31700.1"	669	"	"C/T"	"52,4/47,6"	"129/117"	246
stress_42	"POPTR_0010s00900.1"	685	"	"C/T"	"51,3/48,2"	"101/95"	197	stress_45	"POPTR_0010s00900.1"	685	"	"T/C"	"55,2/44,2"	"85/68"	154
stress_42	"POPTR_0001s14280.1"	891	"	"G/A"	"51,3/48,7"	"101/96"	197	stress_45	"POPTR_0001s14280.1"	891	"	"G/A"	"55,6/44,4"	"114/91"	205
stress_42	"POPTR_0011s12400.1"	990	"	"C/T"	"50,8/48,7"	"101/97"	199	stress_45	"POPTR_0011s12400.1"	990	"	"C/T"	"56,2/43,8"	"99/77"	176
stress_42	"POPTR_0002s03020.1"	30	"	"C/T"	"74,5/25,5"	"102/35"	137	stress_45	"POPTR_0002s03020.1"	30	"	"C/T"	"74,9/25,1"	"251/84"	335
stress_42	"POPTR_0018s12270.1"	136	"	"T/C"	"69,9/30,1"	"102/44"	146	stress_45	"POPTR_0018s12270.1"	136	"	"T/C"	"67,4/32,6"	"87/42"	129
stress_42	"POPTR_0013s10350.1"	674	"	"A/G"	"67,5/31,8"	"102/48"	151	stress_45	"POPTR_0013s10350.1"	674	"	"A/G"	"57,4/42,6"	"78/58"	136
stress_42	"POPTR_0014s17400.1"	600	"	"C/T"	"61,4/38,6"	"102/64"	166	stress_45	"POPTR_0014s17400.1"	600	"	"C/T"	"64,5/35,5"	"129/71"	200
stress_42	"POPTR_0018s09730.1"	390	"	"C/T"	"61,1/38,9"	"102/65"	167	stress_45	"POPTR_0018s09730.1"	390	"	"C/T"	"61,1/38,1"	"154/96"	252
stress_42	"POPTR_0019s09140.1"	591	"	"C/T"	"57,3/42,7"	"102/76"	178	stress_45	"POPTR_0019s09140.1"	591	"	"C/T"	"55,9/44,1"	"113/89"	202
stress_42	"POPTR_0001s12630.1"	324	"	"A/G"	"54,3/45,7"	"102/86"	188	stress_45	"POPTR_0001s12630.1"	324	"	"A/G"	"51,6/48,4"	"115/108"	223
stress_42	"POPTR_0011s12400.1"	724	"	"T/C"	"50,5/49,5"	"103/101"	204	stress_45	"POPTR_0011s12400.1"	724	"	"C/T"	"57,0/43,0"	"126/95"	221
stress_42	"POPTR_0001s14280.1"	936	"	"G/A"	"50,5/49,5"	"103/101"	204	stress_45	"POPTR_0001s14280.1"	936	"	"G/A"	"51,0/49,0"	"124/119"	243
stress_42	"POPTR_0014s17070.1"	585	"	"A/G"	"55,7/44,3"	"103/82"	185	stress_45	"POPTR_0014s17070.1"	585	"	"A/G"	"56,7/43,3"	"97/74"	171
stress_42	"POPTR_0013s10350.1"	676	"	"G/A"	"68,4/31,6"	"104/48"	152	stress_45	"POPTR_0013s10350.1"	676	"	"G/A"	"56,3/43,7"	"76/59"	135
stress_42	"POPTR_0003s05110.1"	240	"	"A/T"	"63,8/36,2"	"104/59"	163	stress_45	"POPTR_0003s05110.1"	240	"	"A/T"	"63,0/37,0"	"87/51"	138
stress_42	"POPTR_0009s01320.1"	550	"	"T/C"	"61,9/37,5"	"104/63"	168	stress_45	"POPTR_0009s01320.1"	550	"	"T/C"	"63,2/36,8"	"129/75"	204
stress_42	"POPTR_0018s09730.1"	1002	"	"T/C"	"61,5/38,5"	"104/65"	169	stress_45	"POPTR_0018s09730.1"	1002	"	"T/C"	"58,4/41,6"	"143/102"	245
stress_42	"POPTR_0011s12400.1"	789	"	"T/A"	"76,6/22,6"	"105/31"	137	stress_45	"POPTR_0011s12400.1"	789	"	"T/A"	"74,4/25,6"	"90/31"	121
stress_42	"POPTR_0011s03570.1"	579	"	"C/T"	"67,3/32,7"	"105/51"	156	stress_45	"POPTR_0011s03570.1"	579	"	"C/T"	"68,1/31,9"	"62/29"	91
stress_42	"POPTR_0010s24290.1"	225	"	"C/A"	"57,5/42,5"	"1055/780"	1836	stress_45	"POPTR_0010s24290.1"	225	"	"C/A"	"62,7/37,1"	"864/511"	1377
stress_42	"POPTR_0002s07290.1"	898	"	"G/A"	"75,2/24,1"	"106/34"	141	stress_45	"POPTR_0002s07290.1"	898	"	"G/A"	"80,3/19,7"	"139/34"	173
stress_42	"POPTR_0005s00390.1"	71	"	"A/G"	"73,6/26,4"	"106/38"	144	stress_45	"POPTR_0005s00390.1"	71	"	"A/G"	"77,2/22,8"	"71/21"	92
stress_42	"POPTR_0017s08610.1"	879	"	"T/C"	"73,6/26,4"	"106/38"	144	stress_45	"POPTR_0017s08610.1"	879	"	"T/C"	"66,4/33,6"	"148/75"	223
stress_42	"POPTR_0001s38810.1"	62	"	"G/A"	"62,0/38,0"	"106/65"	171	stress_45	"POPTR_0001s38810.1"	62	"	"G/A"	"60,1/39,9"	"169/112"	281
stress_42	"POPTR_0009s12420.1"	297	"	"T/C"	"60,6/39,4"	"106/69"	175	stress_45	"POPTR_0009s12420.1"	297	"	"T/C"	"62,0/38,0"	"119/73"	192
stress_42	"POPTR_0002s14730.1"	1818	"	"A/T"	"78,7/21,3"	"107/29"	136	stress_45	"POPTR_0002s14730.1"	1818	"	"A/T"	"79,7/20,3"	"114/29"	143
stress_42	"POPTR_0014s02410.1"	813	"	"A/G"	"54,3/45,7"	"107/90"	197	stress_45	"POPTR_0014s02410.1"	813	"	"A/G"	"52,1/47,9"	"207/190"	397
stress_42	"POPTR_0014s17070.1"	576	"	"C/T"	"54,0/46,0"	"107/91"	198	stress_45	"POPTR_0014s17070.1"	576	"	"C/T"	"57,6/42,4"	"118/87"	205
stress_42	"POPTR_0010s00900.1"	687	"	"C/T"	"52,2/47,8"	"107/98"	205	stress_45	"POPTR_0010s00900.1"	687	"	"T/C"	"53,8/45,5"	"84/71"	156
stress_42	"POPTR_0002s25260.1"	465	"	"T/C"	"65,5/34,5"	"108/57"	165	stress_45	"POPTR_0002s25260.1"	465	"	"T/C"	"55,6/44,4"	"109/87"	196
stress_42	"POPTR_0003s13880.1"	233	"	"C/T"	"63,9/36,1"	"108/61"	169	stress_45	"POPTR_0003s13880.1"	233	"	"C/T"	"56,0/44,0"	"121/95"	216
stress_42	"POPTR_0005s26220.1"	429	"	"T/A"	"61,4/38,6"	"108/68"	176	stress_45	"POPTR_0005s26220.1"	429	"	"T/A"	"78,0/22,0"	"78/22"	100
stress_42	"POPTR_0002s18500.1"	444	"	"T/C"	"58,7/41,3"	"108/76"	184	stress_45	"POPTR_0002s18500.1"	444	"	"T/C"	"62,5/36,9"	"110/65"	176
stress_42	"POPTR_0011s12400.1"	642	"	"G/A"	"58,1/41,9"	"108/78"	186	stress_45	"POPTR_0011s12400.1"	642	"	"G/A"	"54,8/45,2"	"115/95"	210
stress_42	"POPTR_0002s08410.1"	146	"	"C/T"	"51,7/48,3"	"109/102"	211	stress_45	"POPTR_0002s08410.1"	146	"	"C/T"	"50,4/49,6"	"140/138"	278
stress_42	"POPTR_0002s07290.1"	830	"	"G/A"	"79,0/20,3"	"109/28"	138	stress_45	"POPTR_0002s07290.1"	830	"	"G/A"	"78,8/21,2"	"82/22"	104
stress_42	"POPTR_0019s09140.1"	157	"	"C/G"	"61,2/38,8"	"109/69"	178	stress_45	"POPTR_0019s09140.1"	157	"	"C/G"	"50,8/49,2"	"129/125"	254
stress_42	"POPTR_0008s15100.1"	210	"	"A/G"	"54,5/45,0"	"109/90"	200	stress_45	"POPTR_0008s15100.1"	210	"	"A/G"	"56,2/43,8"	"141/110"	251
stress_42	"POPTR_0014s17070.1"	723	"	"T/C"	"53,4/46,6"	"109/95"	204	stress_45	"POPTR_0014s17070.1"	723	"	"C/T"	"50,2/49,8"	"108/107"	215
stress_42	"POPTR_0014s14200.1"	244	"	"C/T"	"57,9/42,1"	"11/8"	19	stress_45	"POPTR_0014s14200.1"	244	"	"T/C"	"62,4/37,6"	"63/38"	101
stress_42	"POPTR_0008s09150.1"	291	"	"G/T"	"52,1/47,9"	"110/101"	211	stress_45	"POPTR_0008s09150.1"	291	"	"G/T"	"50,5/49,5"	"151/148"	299
stress_42	"POPTR_0016s12370.1"	828	"	"T/C"	"82,1/17,9"	"110/24"	134	stress_45	"POPTR_0016s12370.1"	828	"	"T/C"	"69,7/30,3"	"101/44"	145
stress_42	"POPTR_0014s02410.1"	771	"	"G/T"	"63,6/35,8"	"110/62"	173	stress_45	"POPTR_0014s02410.1"	771	"	"G/T"	"57,6/42,4"	"186/137"	323
stress_42	"POPTR_0002s03020.1"	36	"	"A/C"	"74,5/25,5"	"111/38"	149	stress_45	"POPTR_0002s03020.1"	36	"	"A/C"	"75,7/24,3"	"268/86"	354
stress_42	"POPTR_0008s20770.1"	522	"	"A/G"	"69,8/30,2"	"111/48"	159	stress_45	"POPTR_0008s20770.1"	522	"	"A/G"	"61,8/38,2"	"118/73"	191
stress_42	"POPTR_0001s18210.1"	63	"	"T/A"	"65,7/34,3"	"111/58"	169	stress_45	"POPTR_0001s18210.1"	63	"	"T/A"	"58,0/42,0"	"94/68"	162
stress_42	"POPTR_0005s26740.1"	234	"	"C/T"	"63,8/36,2"	"111/63"	174	stress_45	"POPTR_0005s26740.1"	234	"	"C/T"	"60,6/39,4"	"120/78"	198
stress_42	"POPTR_0003s13880.1"	225	"	"C/A"	"63,8/36,2"	"111/63"	174	stress_45	"POPTR_0003s13880.1"	225	"	"C/A"	"57,0/43,0"	"122/92"	214
stress_42	"POPTR_0009s01320.1"	426	"	"T/C"	"62,4/37,6"	"111/67"	178	stress_45	"POPTR_0009s01320.1"	426	"	"T/C"	"61,8/38,2"	"157/97"	254
stress_42	"POPTR_0006s23580.1"	356	"	"T/A"	"55,8/44,2"	"111/88"	199	stress_45	"POPTR_0006s23580.1"	356	"	"A/T"	"54,6/45,0"	"136/112"	249
stress_42	"POPTR_0009s12710.1"	1131	"	"T/C"	"53,1/46,9"	"111/98"	209	stress_45	"POPTR_0009s12710.1"	1131	"	"T/C"	"51,5/48,5"	"121/114"	235
stress_42	"POPTR_0008s15800.1"	116	"	"G/A"	"78,6/21,4"	"1117/304"	1421	stress_45	"POPTR_0008s15800.1"	116	"	"G/A"	"77,8/22,2"	"1342/384"	1726
stress_42	"POPTR_0008s15780.1"	162	"	"G/C"	"52,9/47,1"	"1119/995"	2114	stress_45	"POPTR_0008s15780.1"	162	"	"G/C"	"51,7/48,3"	"1362/1270"	2632
stress_42	"POPTR_0005s26170.1"	466	"	"G/A"	"78,9/21,1"	"112/30"	142	stress_45	"POPTR_0005s26170.1"	466	"	"G/A"	"66,0/34,0"	"93/48"	141
stress_42	"POPTR_0003s05110.1"	375	"	"C/T"	"64,4/35,6"	"112/62"	174	stress_45	"POPTR_0003s05110.1"	375	"	"C/T"	"61,2/38,8"	"93/59"	152
stress_42	"POPTR_0011s12400.1"	816	"	"A/G"	"61,7/38,3"	"113/70"	183	stress_45	"POPTR_0011s12400.1"	816	"	"A/G"	"55,9/44,1"	"113/89"	202
stress_42	"POPTR_0010s00900.1"	211	"	"G/A"	"58,9/41,1"	"113/79"	192	stress_45	"POPTR_0010s00900.1"	211	"	"G/A"	"60,1/39,9"	"176/117"	293
stress_42	"POPTR_0004s09910.1"	99	"	"T/G"	"54,1/45,9"	"113/96"	209	stress_45	"POPTR_0004s09910.1"	99	"	"T/G"	"50,4/49,3"	"175/171"	347
stress_42	"POPTR_0019s09140.1"	512	"	"A/G"	"52,8/47,2"	"114/102"	216	stress_45	"POPTR_0019s09140.1"	512	"	"A/G"	"51,4/48,6"	"112/106"	218
stress_42	"POPTR_0002s19710.1"	252	"	"C/T"	"81,4/18,6"	"114/26"	140	stress_45	"POPTR_0002s19710.1"	252	"	"C/T"	"82,5/16,7"	"99/20"	120
stress_42	"POPTR_0010s19930.1"	480	"	"C/A"	"69,9/30,1"	"114/49"	163	stress_45	"POPTR_0010s19930.1"	480	"	"C/A"	"66,0/32,6"	"93/46"	141
stress_42	"POPTR_0005s21750.1"	640	"	"G/A"	"65,5/34,5"	"114/60"	174	stress_45	"POPTR_0005s21750.1"	640	"	"G/A"	"68,9/31,1"	"91/41"	132
stress_42	"POPTR_0004s17020.1"	2085	"	"G/T"	"59,7/40,3"	"114/77"	191	stress_45	"POPTR_0004s17020.1"	2085	"	"G/T"	"66,0/33,5"	"138/70"	209
stress_42	"POPTR_0006s06770.1"	1743	"	"T/G"	"74,2/25,8"	"115/40"	155	stress_45	"POPTR_0006s06770.1"	1743	"	"T/G"	"72,6/27,4"	"159/60"	219
stress_42	"POPTR_0009s01320.1"	210	"	"C/T"	"66,5/33,5"	"115/58"	173	stress_45	"POPTR_0009s01320.1"	210	"	"C/T"	"61,8/38,2"	"155/96"	251
stress_42	"POPTR_0002s01080.1"	788	"	"C/A"	"52,0/48,0"	"116/107"	223	stress_45	"POPTR_0002s01080.1"	788	"	"C/A"	"60,4/39,6"	"165/108"	273
stress_42	"POPTR_0009s12420.1"	411	"	"T/G"	"68,6/31,4"	"116/53"	169	stress_45	"POPTR_0009s12420.1"	411	"	"T/G"	"67,6/32,4"	"150/72"	222
stress_42	"POPTR_0003s13880.1"	129	"	"A/G"	"54,0/46,0"	"116/99"	215	stress_45	"POPTR_0003s13880.1"	129	"	"A/G"	"56,4/43,6"	"146/113"	259
stress_42	"POPTR_0010s22950.1"	63	"	"T/A"	"52,7/47,3"	"117/105"	222	stress_45	"POPTR_0010s22950.1"	63	"	"T/A"	"53,2/46,8"	"223/196"	419
stress_42	"POPTR_0005s23590.1"	684	"	"G/A"	"69,6/30,4"	"117/51"	168	stress_45	"POPTR_0005s23590.1"	684	"	"G/A"	"74,7/25,3"	"127/43"	170
stress_42	"POPTR_0005s26170.1"	234	"	"T/C"	"62,9/37,1"	"117/69"	186	stress_45	"POPTR_0005s26170.1"	234	"	"T/C"	"75,0/25,0"	"120/40"	160
stress_42	"POPTR_0009s01320.1"	1155	"	"A/G"	"61,9/38,1"	"117/72"	189	stress_45	"POPTR_0009s01320.1"	1155	"	"A/G"	"52,2/47,8"	"128/117"	245
stress_42	"POPTR_0006s13310.1"	510	"	"T/C"	"57,6/42,4"	"117/86"	203	stress_45	"POPTR_0006s13310.1"	510	"	"T/C"	"54,4/45,6"	"206/173"	379
stress_42	"POPTR_0002s25260.1"	228	"	"T/C"	"64,8/35,2"	"118/64"	182	stress_45	"POPTR_0002s25260.1"	228	"	"T/C"	"62,1/37,6"	"195/118"	314
stress_42	"POPTR_0005s21750.1"	570	"	"T/C"	"62,8/36,2"	"118/68"	188	stress_45	"POPTR_0005s21750.1"	570	"	"T/C"	"57,8/42,2"	"104/76"	180
stress_42	"POPTR_0019s09140.1"	264	"	"A/G"	"56,2/43,8"	"118/92"	210	stress_45	"POPTR_0019s09140.1"	264	"	"A/G"	"54,7/45,3"	"133/110"	243
stress_42	"POPTR_0014s02410.1"	1008	"	"A/T"	"54,6/45,4"	"118/98"	216	stress_45	"POPTR_0014s02410.1"	1008	"	"A/T"	"56,6/43,4"	"179/137"	316
stress_42	"POPTR_0016s12370.1"	838	"	"T/C"	"83,8/16,2"	"119/23"	142	stress_45	"POPTR_0016s12370.1"	838	"	"T/C"	"68,9/31,1"	"104/47"	151
stress_42	"POPTR_0005s26740.1"	237	"	"C/A"	"63,3/36,7"	"119/69"	188	stress_45	"POPTR_0005s26740.1"	237	"	"C/A"	"58,4/41,6"	"125/89"	214
stress_42	"POPTR_0002s08410.1"	447	"	"C/T"	"59,8/40,2"	"119/80"	199	stress_45	"POPTR_0002s08410.1"	447	"	"C/T"	"54,7/45,0"	"163/134"	298
stress_42	"POPTR_0004s16920.1"	976	"	"G/A"	"58,6/41,4"	"119/84"	203	stress_45	"POPTR_0004s16920.1"	976	"	"G/A"	"56,5/43,0"	"126/96"	223
stress_42	"POPTR_0018s12270.1"	121	"	"G/A"	"76,4/23,6"	"120/37"	157	stress_45	"POPTR_0018s12270.1"	121	"	"G/A"	"70,4/29,6"	"107/45"	152
stress_42	"POPTR_0006s13310.1"	312	"	"C/T"	"60,9/39,1"	"120/77"	197	stress_45	"POPTR_0006s13310.1"	312	"	"C/T"	"57,0/43,0"	"200/151"	351
stress_42	"POPTR_0008s20770.1"	492	"	"A/G"	"57,4/42,6"	"120/89"	209	stress_45	"POPTR_0008s20770.1"	492	"	"A/G"	"51,2/48,8"	"147/140"	287
stress_42	"POPTR_0008s03950.1"	447	"	"C/T"	"69,9/30,1"	"121/52"	173	stress_45	"POPTR_0008s03950.1"	447	"	"C/T"	"69,1/30,9"	"208/93"	301
stress_42	"POPTR_0008s03950.1"	414	"	"G/T"	"68,0/32,0"	"121/57"	178	stress_45	"POPTR_0008s03950.1"	414	"	"G/T"	"65,5/34,5"	"190/100"	290
stress_42	"POPTR_0003s13880.1"	167	"	"G/A"	"61,1/38,9"	"121/77"	198	stress_45	"POPTR_0003s13880.1"	167	"	"G/A"	"60,4/39,6"	"154/101"	255
stress_42	"POPTR_0004s16920.1"	972	"	"G/A"	"58,7/41,3"	"121/85"	206	stress_45	"POPTR_0004s16920.1"	972	"	"G/A"	"55,3/44,7"	"126/102"	228
stress_42	"POPTR_0014s02410.1"	555	"	"A/T"	"57,6/42,4"	"121/89"	210	stress_45	"POPTR_0014s02410.1"	555	"	"T/A"	"51,8/48,2"	"249/232"	481
stress_42	"POPTR_0002s08410.1"	207	"	"C/T"	"51,5/48,5"	"123/116"	239	stress_45	"POPTR_0002s08410.1"	207	"	"C/T"	"54,1/45,9"	"177/150"	327
stress_42	"POPTR_0017s08610.1"	1162	"	"C/A"	"72,4/27,6"	"123/47"	170	stress_45	"POPTR_0017s08610.1"	1162	"	"C/A"	"71,1/28,9"	"207/84"	291
stress_42	"POPTR_0014s17400.1"	582	"	"T/C"	"58,9/41,1"	"123/86"	209	stress_45	"POPTR_0014s17400.1"	582	"	"T/C"	"61,5/38,5"	"160/100"	260
stress_42	"POPTR_0018s09730.1"	711	"	"A/G"	"58,3/41,7"	"123/88"	211	stress_45	"POPTR_0018s09730.1"	711	"	"A/G"	"58,8/41,2"	"190/133"	323
stress_42	"POPTR_0002s19710.1"	69	"	"G/A"	"54,4/45,6"	"124/104"	228	stress_45	"POPTR_0002s19710.1"	69	"	"G/A"	"54,7/45,3"	"105/87"	192
stress_42	"POPTR_0008s05480.1"	1605	"	"C/T"	"52,8/47,2"	"124/111"	235	stress_45	"POPTR_0008s05480.1"	1605	"	"C/T"	"53,5/46,3"	"276/239"	516
stress_42	"POPTR_0014s15960.1"	867	"	"C/T"	"54,6/45,4"	"125/104"	229	stress_45	"POPTR_0014s15960.1"	867	"	"C/T"	"63,6/36,4"	"110/63"	173
stress_42	"POPTR_0002s25260.1"	306	"	"A/G"	"75,8/24,2"	"125/40"	165	stress_45	"POPTR_0002s25260.1"	306	"	"A/G"	"76,7/23,3"	"201/61"	262
stress_42	"POPTR_0005s26220.1"	124	"	"C/T"	"66,8/33,2"	"125/62"	187	stress_45	"POPTR_0005s26220.1"	124	"	"C/T"	"68,0/32,0"	"102/48"	150
stress_42	"POPTR_0005s23590.1"	697	"	"C/G"	"65,8/34,2"	"125/65"	190	stress_45	"POPTR_0005s23590.1"	697	"	"C/G"	"72,4/27,6"	"147/56"	203
stress_42	"POPTR_0004s16920.1"	1017	"	"T/C"	"55,8/44,2"	"126/100"	226	stress_45	"POPTR_0004s16920.1"	1017	"	"T/C"	"56,8/43,2"	"166/126"	292
stress_42	"POPTR_0001s14280.1"	1336	"	"G/A"	"50,4/49,6"	"126/124"	250	stress_45	"POPTR_0001s14280.1"	1336	"	"A/G"	"50,2/49,8"	"126/125"	251
stress_42	"POPTR_0006s13310.1"	279	"	"A/T"	"66,0/33,0"	"126/63"	191	stress_45	"POPTR_0006s13310.1"	279	"	"A/T"	"55,1/44,3"	"194/156"	352
stress_42	"POPTR_0001s38810.1"	649	"	"A/T"	"62,4/37,6"	"126/76"	202	stress_45	"POPTR_0001s38810.1"	649	"	"A/T"	"63,9/36,1"	"154/87"	241
stress_42	"POPTR_0008s05480.1"	1626	"	"C/T"	"52,0/48,0"	"127/117"	244	stress_45	"POPTR_0008s05480.1"	1626	"	"C/T"	"50,5/49,5"	"260/255"	515
stress_42	"POPTR_0002s03020.1"	51	"	"A/C"	"71,3/28,7"	"127/51"	178	stress_45	"POPTR_0002s03020.1"	51	"	"A/C"	"76,0/24,0"	"307/97"	404
stress_42	"POPTR_0018s00850.1"	477	"	"G/A"	"69,8/30,2"	"127/55"	182	stress_45	"POPTR_0018s00850.1"	477	"	"G/A"	"68,1/31,9"	"139/65"	204
stress_42	"POPTR_0014s11210.1"	948	"	"T/A"	"65,8/33,7"	"127/65"	193	stress_45	"POPTR_0014s11210.1"	948	"	"T/A"	"67,0/33,0"	"138/68"	206
stress_42	"POPTR_0014s15960.1"	624	"	"C/T"	"63,8/36,2"	"127/72"	199	stress_45	"POPTR_0014s15960.1"	624	"	"C/T"	"63,4/36,6"	"109/63"	172
stress_42	"POPTR_0004s10660.1"	586	"	"G/A"	"59,0/41,0"	"128/89"	217	stress_45	"POPTR_0004s10660.1"	586	"	"A/G"	"50,2/49,8"	"134/133"	267
stress_42	"POPTR_0014s17070.1"	513	"	"A/G"	"64,8/35,2"	"129/70"	199	stress_45	"POPTR_0014s17070.1"	513	"	"A/G"	"54,3/45,7"	"132/111"	243
stress_42	"POPTR_0014s15960.1"	693	"	"A/G"	"59,4/40,6"	"129/88"	217	stress_45	"POPTR_0014s15960.1"	693	"	"A/G"	"62,4/37,6"	"148/89"	237
stress_42	"POPTR_0009s01320.1"	1773	"	"G/C"	"60,5/39,5"	"130/85"	215	stress_45	"POPTR_0009s01320.1"	1773	"	"G/C"	"53,9/46,1"	"103/88"	191
stress_42	"POPTR_0008s05480.1"	1702	"	"C/T"	"57,5/42,5"	"130/96"	226	stress_45	"POPTR_0008s05480.1"	1702	"	"C/T"	"53,5/46,5"	"272/236"	508
stress_42	"POPTR_0009s01320.1"	471	"	"A/G"	"57,0/42,5"	"130/97"	228	stress_45	"POPTR_0009s01320.1"	471	"	"A/G"	"55,1/44,9"	"173/141"	314
stress_42	"POPTR_0011s03570.1"	291	"	"C/T"	"64,2/35,3"	"131/72"	204	stress_45	"POPTR_0011s03570.1"	291	"	"C/T"	"74,1/25,9"	"123/43"	166
stress_42	"POPTR_0009s01320.1"	469	"	"T/C"	"57,5/42,5"	"131/97"	228	stress_45	"POPTR_0009s01320.1"	469	"	"T/C"	"54,5/45,5"	"174/145"	319
stress_42	"POPTR_0004s09910.1"	243	"	"A/G"	"71,7/28,3"	"132/52"	184	stress_45	"POPTR_0004s09910.1"	243	"	"A/G"	"72,8/26,9"	"195/72"	268
stress_42	"POPTR_0005s26740.1"	441	"	"T/C"	"68,2/31,8"	"133/62"	195	stress_45	"POPTR_0005s26740.1"	441	"	"T/C"	"72,4/27,0"	"142/53"	196
stress_42	"POPTR_0003s05110.1"	111	"	"C/A"	"62,7/37,3"	"133/79"	212	stress_45	"POPTR_0003s05110.1"	111	"	"C/A"	"51,1/48,9"	"90/86"	176
stress_42	"POPTR_0002s01080.1"	588	"	"G/A"	"56,8/43,2"	"134/102"	236	stress_45	"POPTR_0002s01080.1"	588	"	"G/A"	"54,9/45,1"	"173/142"	315
stress_42	"POPTR_0008s15800.1"	162	"	"G/C"	"53,0/47,0"	"134/119"	253	stress_45	"POPTR_0008s15800.1"	162	"	"G/C"	"51,0/49,0"	"155/149"	304
stress_42	"POPTR_0001s14280.1"	1119	"	"A/G"	"50,4/49,6"	"134/132"	266	stress_45	"POPTR_0001s14280.1"	1119	"	"A/G"	"53,9/46,1"	"173/148"	321
stress_42	"POPTR_0009s01320.1"	1113	"	"C/T"	"63,8/36,2"	"134/76"	210	stress_45	"POPTR_0009s01320.1"	1113	"	"C/T"	"62,4/37,2"	"156/93"	250
stress_42	"POPTR_0006s13310.1"	251	"	"A/G"	"63,2/36,8"	"134/78"	212	stress_45	"POPTR_0006s13310.1"	251	"	"A/G"	"55,6/44,4"	"189/151"	340
stress_42	"POPTR_0002s08410.1"	327	"	"C/T"	"59,8/40,2"	"134/90"	224	stress_45	"POPTR_0002s08410.1"	327	"	"T/C"	"50,8/49,2"	"167/162"	329
stress_42	"POPTR_0006s08530.1"	360	"	"C/T"	"69,6/30,2"	"1341/582"	1927	stress_45	"POPTR_0006s08530.1"	360	"	"C/T"	"68,4/31,6"	"1407/649"	2057
stress_42	"POPTR_0013s10350.1"	652	"	"G/A"	"52,9/47,1"	"135/120"	255	stress_45	"POPTR_0013s10350.1"	652	"	"G/A"	"60,4/39,6"	"148/97"	245
stress_42	"POPTR_0005s26740.1"	300	"	"C/T"	"64,9/35,1"	"135/73"	208	stress_45	"POPTR_0005s26740.1"	300	"	"C/T"	"57,3/42,7"	"122/91"	213
stress_42	"POPTR_0014s15960.1"	842	"	"A/G"	"59,5/40,5"	"135/92"	227	stress_45	"POPTR_0014s15960.1"	842	"	"A/G"	"59,8/40,2"	"134/90"	224
stress_42	"POPTR_0009s12420.1"	780	"	"T/A"	"62,8/37,2"	"137/81"	218	stress_45	"POPTR_0009s12420.1"	780	"	"T/A"	"64,9/35,1"	"144/78"	222
stress_42	"POPTR_0004s09910.1"	440	"	"A/G"	"59,1/40,9"	"137/95"	232	stress_45	"POPTR_0004s09910.1"	440	"	"A/G"	"60,7/39,3"	"176/114"	290
stress_42	"POPTR_0014s15960.1"	777	"	"G/A"	"58,8/41,2"	"137/96"	233	stress_45	"POPTR_0014s15960.1"	777	"	"G/A"	"60,7/39,3"	"128/83"	211
stress_42	"POPTR_0002s18500.1"	942	"	"T/A"	"62,4/37,1"	"138/82"	221	stress_45	"POPTR_0002s18500.1"	942	"	"T/A"	"59,0/41,0"	"124/86"	210
stress_42	"POPTR_0004s17610.1"	225	"	"C/T"	"66,2/33,8"	"139/71"	210	stress_45	"POPTR_0004s17610.1"	225	"	"C/T"	"68,2/31,8"	"217/101"	318
stress_42	"POPTR_0014s14200.1"	606	"	"A/C"	"53,8/46,2"	"14/12"	26	stress_45	"POPTR_0014s14200.1"	606	"	"A/C"	"64,8/35,2"	"68/37"	105
stress_42	"POPTR_0013s00850.1"	282	"	"T/C"	"53,2/46,8"	"140/123"	263	stress_45	"POPTR_0013s00850.1"	282	"	"T/C"	"57,8/42,2"	"107/78"	185
stress_42	"POPTR_0006s13310.1"	618	"	"A/C"	"65,3/34,3"	"141/74"	216	stress_45	"POPTR_0006s13310.1"	618	"	"A/C"	"63,5/36,2"	"230/131"	362
stress_42	"POPTR_0018s09730.1"	936	"	"A/G"	"64,4/35,6"	"141/78"	219	stress_45	"POPTR_0018s09730.1"	936	"	"A/G"	"63,2/36,8"	"215/125"	340
stress_42	"POPTR_0014s15960.1"	697	"	"C/A"	"59,5/40,5"	"141/96"	237	stress_45	"POPTR_0014s15960.1"	697	"	"C/A"	"64,4/35,6"	"168/93"	261
stress_42	"POPTR_0004s16920.1"	903	"	"C/T"	"54,4/45,6"	"142/119"	261	stress_45	"POPTR_0004s16920.1"	903	"	"C/T"	"57,6/42,4"	"194/143"	337
stress_42	"POPTR_0002s03020.1"	201	"	"G/A"	"77,7/22,3"	"143/41"	184	stress_45	"POPTR_0002s03020.1"	201	"	"G/A"	"78,3/21,7"	"260/72"	332
stress_42	"POPTR_0005s26170.1"	249	"	"G/A"	"65,6/34,4"	"143/75"	218	stress_45	"POPTR_0005s26170.1"	249	"	"G/A"	"82,2/17,8"	"129/28"	157
stress_42	"POPTR_0009s01320.1"	1077	"	"T/G"	"64,1/35,9"	"143/80"	223	stress_45	"POPTR_0009s01320.1"	1077	"	"T/G"	"59,8/40,2"	"150/101"	251
stress_42	"POPTR_0014s15960.1"	726	"	"A/G"	"60,7/39,3"	"145/94"	239	stress_45	"POPTR_0014s15960.1"	726	"	"A/G"	"70,5/28,6"	"148/60"	210
stress_42	"POPTR_0004s02080.1"	243	"	"T/C"	"83,9/16,1"	"146/28"	174	stress_45	"POPTR_0004s02080.1"	243	"	"T/C"	"78,7/21,3"	"214/58"	272
stress_42	"POPTR_0005s26220.1"	159	"	"A/G"	"64,6/35,4"	"146/80"	226	stress_45	"POPTR_0005s26220.1"	159	"	"A/G"	"69,0/31,0"	"116/52"	168
stress_42	"POPTR_0002s18500.1"	597	"	"T/C"	"56,8/43,2"	"147/112"	259	stress_45	"POPTR_0002s18500.1"	597	"	"T/C"	"57,6/42,4"	"151/111"	262
stress_42	"POPTR_0004s09910.1"	222	"	"T/C"	"71,7/28,3"	"147/58"	205	stress_45	"POPTR_0004s09910.1"	222	"	"T/C"	"78,2/21,8"	"215/60"	275
stress_42	"POPTR_0014s02410.1"	1074	"	"G/C"	"54,0/45,7"	"149/126"	276	stress_45	"POPTR_0014s02410.1"	1074	"	"C/G"	"52,0/48,0"	"218/201"	419
stress_42	"POPTR_0014s00810.1"	31	"	"T/C"	"84,2/15,8"	"149/28"	177	stress_45	"POPTR_0014s00810.1"	31	"	"T/C"	"79,4/20,6"	"85/22"	107
stress_42	"POPTR_0002s25260.1"	276	"	"G/A"	"79,7/20,3"	"149/38"	187	stress_45	"POPTR_0002s25260.1"	276	"	"G/A"	"80,7/19,3"	"242/58"	300
stress_42	"POPTR_0001s14310.1"	516	"	"C/T"	"57,7/42,3"	"15/11"	26	stress_45	"POPTR_0001s14310.1"	516	"	"T/C"	"56,6/43,4"	"60/46"	106
stress_42	"POPTR_0008s05870.1"	1353	"	"C/T"	"52,8/47,2"	"151/135"	286	stress_45	"POPTR_0008s05870.1"	1353	"	"C/T"	"57,6/42,4"	"174/128"	302
stress_42	"POPTR_0002s03020.1"	544	"	"C/T"	"70,2/29,8"	"151/64"	215	stress_45	"POPTR_0002s03020.1"	544	"	"C/T"	"74,9/25,1"	"317/106"	423
stress_42	"POPTR_0002s08410.1"	705	"	"G/A"	"61,6/38,0"	"151/93"	245	stress_45	"POPTR_0002s08410.1"	705	"	"G/A"	"50,7/49,3"	"138/134"	272
stress_42	"POPTR_0010s22950.1"	69	"	"A/G"	"56,5/43,5"	"152/117"	269	stress_45	"POPTR_0010s22950.1"	69	"	"A/G"	"55,7/44,3"	"268/213"	481
stress_42	"POPTR_0005s26070.2"	140	"	"T/C"	"54,3/45,7"	"152/128"	280	stress_45	"POPTR_0005s26070.2"	140	"	"T/C"	"58,4/41,5"	"321/228"	550
stress_42	"POPTR_0014s15960.1"	906	"	"T/C"	"60,5/39,5"	"153/100"	253	stress_45	"POPTR_0014s15960.1"	906	"	"T/C"	"65,7/34,3"	"111/58"	169
stress_42	"POPTR_0014s02410.1"	1128	"	"T/C"	"51,2/48,8"	"153/146"	299	stress_45	"POPTR_0014s02410.1"	1128	"	"C/T"	"54,1/45,9"	"239/203"	442
stress_42	"POPTR_0010s19930.1"	242	"	"A/C"	"67,5/32,5"	"154/74"	228	stress_45	"POPTR_0010s19930.1"	242	"	"A/C"	"66,5/33,5"	"137/69"	206
stress_42	"POPTR_0006s13310.1"	606	"	"C/T"	"64,7/35,3"	"154/84"	238	stress_45	"POPTR_0006s13310.1"	606	"	"C/T"	"65,4/34,0"	"250/130"	382
stress_42	"POPTR_0010s08290.1"	411	"	"A/T"	"63,4/36,5"	"1555/895"	2452	stress_45	"POPTR_0010s08290.1"	411	"	"A/T"	"63,8/36,1"	"1623/919"	2545
stress_42	"POPTR_0014s17400.1"	405	"	"C/T"	"63,2/36,8"	"156/91"	247	stress_45	"POPTR_0014s17400.1"	405	"	"C/T"	"56,7/43,3"	"164/125"	289
stress_42	"POPTR_0002s08410.1"	519	"	"A/T"	"56,5/43,2"	"157/120"	278	stress_45	"POPTR_0002s08410.1"	519	"	"T/A"	"50,0/49,7"	"156/155"	312
stress_42	"POPTR_0011s03570.1"	547	"	"G/A"	"61,8/38,2"	"157/97"	254	stress_45	"POPTR_0011s03570.1"	547	"	"G/A"	"62,7/37,3"	"96/57"	153
stress_42	"POPTR_0014s17400.1"	375	"	"C/A"	"59,6/40,4"	"158/107"	265	stress_45	"POPTR_0014s17400.1"	375	"	"C/A"	"59,6/40,4"	"208/141"	349
stress_42	"POPTR_0002s03020.1"	246	"	"G/C"	"77,5/22,5"	"158/46"	204	stress_45	"POPTR_0002s03020.1"	246	"	"G/C"	"75,1/24,9"	"335/111"	446
stress_42	"POPTR_0014s17400.1"	175	"	"G/A"	"63,5/36,5"	"158/91"	249	stress_45	"POPTR_0014s17400.1"	175	"	"G/A"	"60,3/39,7"	"196/129"	325
stress_42	"POPTR_0010s19930.1"	133	"	"A/G"	"66,0/34,0"	"159/82"	241	stress_45	"POPTR_0010s19930.1"	133	"	"A/G"	"68,3/31,7"	"164/76"	240
stress_42	"POPTR_0010s19930.1"	232	"	"T/G"	"68,2/31,8"	"161/75"	236	stress_45	"POPTR_0010s19930.1"	232	"	"T/G"	"66,8/33,2"	"151/75"	226
stress_42	"POPTR_0014s17400.1"	264	"	"C/G"	"61,7/37,9"	"163/100"	264	stress_45	"POPTR_0014s17400.1"	264	"	"C/G"	"57,7/42,3"	"206/151"	357
stress_42	"POPTR_0004s16920.1"	1030	"	"C/T"	"60,4/39,6"	"163/107"	270	stress_45	"POPTR_0004s16920.1"	1030	"	"C/T"	"59,8/40,2"	"205/138"	343
stress_42	"POPTR_0002s18500.1"	660	"	"C/T"	"65,3/34,7"	"164/87"	251	stress_45	"POPTR_0002s18500.1"	660	"	"C/T"	"65,5/34,5"	"163/86"	249
stress_42	"POPTR_0004s17610.1"	240	"	"C/T"	"64,3/35,7"	"164/91"	255	stress_45	"POPTR_0004s17610.1"	240	"	"C/T"	"66,9/33,1"	"251/124"	375
stress_42	"POPTR_0013s10350.1"	206	"	"A/G"	"81,7/18,3"	"165/37"	202	stress_45	"POPTR_0013s10350.1"	206	"	"A/G"	"83,0/17,0"	"254/52"	306
stress_42	"POPTR_0009s12420.1"	513	"	"C/T"	"73,3/26,7"	"165/60"	225	stress_45	"POPTR_0009s12420.1"	513	"	"C/T"	"70,8/29,2"	"155/64"	219
stress_42	"POPTR_0001s41080.1"	65	"	"A/T"	"65,6/34,4"	"1650/864"	2515	stress_45	"POPTR_0001s41080.1"	65	"	"A/T"	"66,6/33,4"	"1423/714"	2138
stress_42	"POPTR_0004s09910.1"	250	"	"G/C"	"66,9/33,1"	"166/82"	248	stress_45	"POPTR_0004s09910.1"	250	"	"G/C"	"77,0/23,0"	"235/70"	305
stress_42	"POPTR_0008s03950.1"	786	"	"C/T"	"56,9/43,1"	"168/127"	295	stress_45	"POPTR_0008s03950.1"	786	"	"C/T"	"63,7/36,3"	"219/125"	344
stress_42	"POPTR_0001s14310.1"	84	"	"G/A"	"58,6/41,4"	"17/12"	29	stress_45	"POPTR_0001s14310.1"	84	"	"A/G"	"50,0/50,0"	"76/76"	152
stress_42	"POPTR_0002s01320.1"	621	"	"C/T"	"53,1/46,9"	"17/15"	32	stress_45	"POPTR_0002s01320.1"	621	"	"C/T"	"54,5/45,5"	"55/46"	101
stress_42	"POPTR_0006s10080.1"	347	"	"A/T"	"51,5/48,5"	"17/16"	33	stress_45	"POPTR_0006s10080.1"	347	"	"A/T"	"51,7/48,3"	"106/99"	205
stress_42	"POPTR_0014s17400.1"	164	"	"C/A"	"63,0/37,0"	"170/100"	270	stress_45	"POPTR_0014s17400.1"	164	"	"C/A"	"57,9/42,1"	"208/151"	359
stress_42	"POPTR_0002s03020.1"	573	"	"T/C"	"82,1/17,9"	"170/37"	207	stress_45	"POPTR_0002s03020.1"	573	"	"T/C"	"84,6/15,4"	"318/58"	376
stress_42	"POPTR_0014s00810.1"	34	"	"T/A"	"84,7/15,3"	"171/31"	202	stress_45	"POPTR_0014s00810.1"	34	"	"T/A"	"81,5/18,5"	"101/23"	124
stress_42	"POPTR_0010s09960.1"	201	"	"G/A"	"77,7/22,3"	"171/49"	220	stress_45	"POPTR_0010s09960.1"	201	"	"G/A"	"80,0/20,0"	"192/48"	240
stress_42	"POPTR_0018s00850.1"	306	"	"C/A"	"70,7/29,3"	"171/71"	242	stress_45	"POPTR_0018s00850.1"	306	"	"C/A"	"67,2/32,8"	"240/117"	357
stress_42	"POPTR_0009s01320.1"	1263	"	"T/C"	"64,5/35,5"	"171/94"	265	stress_45	"POPTR_0009s01320.1"	1263	"	"T/C"	"61,9/38,1"	"200/123"	323
stress_42	"POPTR_0006s08530.1"	310	"	"A/G"	"55,2/44,6"	"1711/1382"	3100	stress_45	"POPTR_0006s08530.1"	310	"	"G/A"	"50,6/49,3"	"1607/1567"	3176
stress_42	"POPTR_0011s03570.1"	396	"	"C/T"	"68,8/31,2"	"174/79"	253	stress_45	"POPTR_0011s03570.1"	396	"	"C/T"	"66,4/33,6"	"101/51"	152
stress_42	"POPTR_0008s15780.1"	164	"	"A/G"	"78,0/22,0"	"1741/491"	2232	stress_45	"POPTR_0008s15780.1"	164	"	"A/G"	"77,1/22,9"	"2113/629"	2742
stress_42	"POPTR_0014s17400.1"	466	"	"A/G"	"62,9/37,1"	"176/104"	280	stress_45	"POPTR_0014s17400.1"	466	"	"A/G"	"60,3/39,7"	"182/120"	302
stress_42	"POPTR_0006s13310.1"	672	"	"T/C"	"61,1/38,9"	"176/112"	288	stress_45	"POPTR_0006s13310.1"	672	"	"T/C"	"57,7/42,1"	"285/208"	494
stress_42	"POPTR_0014s15960.1"	921	"	"C/T"	"61,1/38,9"	"176/112"	288	stress_45	"POPTR_0014s15960.1"	921	"	"C/T"	"63,6/36,4"	"117/67"	184
stress_42	"POPTR_0006s13310.1"	822	"	"C/T"	"63,3/36,7"	"178/103"	281	stress_45	"POPTR_0006s13310.1"	822	"	"C/T"	"59,3/39,7"	"294/197"	496
stress_42	"POPTR_0006s13310.1"	804	"	"T/C"	"58,9/40,4"	"178/122"	302	stress_45	"POPTR_0006s13310.1"	804	"	"T/C"	"54,3/45,5"	"321/269"	591
stress_42	"POPTR_0002s01080.1"	1428	"	"G/A"	"50,6/49,4"	"178/174"	352	stress_45	"POPTR_0002s01080.1"	1428	"	"A/G"	"50,7/49,3"	"184/179"	363
stress_42	"POPTR_0002s01080.1"	1299	"	"A/G"	"50,1/49,9"	"178/177"	355	stress_45	"POPTR_0002s01080.1"	1299	"	"A/G"	"51,9/48,1"	"200/185"	385
stress_42	"POPTR_0009s12420.1"	825	"	"C/T"	"68,7/31,3"	"178/81"	259	stress_45	"POPTR_0009s12420.1"	825	"	"C/T"	"63,1/36,9"	"149/87"	236
stress_42	"POPTR_0002s18500.1"	930	"	"T/C"	"62,8/37,2"	"179/106"	285	stress_45	"POPTR_0002s18500.1"	930	"	"T/C"	"61,8/38,2"	"175/108"	283
stress_42	"POPTR_0003s08140.1"	639	"	"G/A"	"59,9/40,1"	"179/120"	299	stress_45	"POPTR_0003s08140.1"	639	"	"G/A"	"61,5/38,5"	"227/142"	369
stress_42	"POPTR_0004s09910.1"	248	"	"A/C"	"81,7/18,3"	"179/40"	219	stress_45	"POPTR_0004s09910.1"	248	"	"A/C"	"76,0/24,0"	"209/66"	275
stress_42	"POPTR_0009s05850.1"	70	"	"C/A"	"60,0/40,0"	"18/12"	30	stress_45	"POPTR_0009s05850.1"	70	"	"C/A"	"50,8/49,2"	"63/61"	124
stress_42	"POPTR_0001s32780.1"	558	"	"G/A"	"58,1/41,9"	"18/13"	31	stress_45	"POPTR_0001s32780.1"	558	"	"G/A"	"56,5/43,5"	"70/54"	124
stress_42	"POPTR_0014s14200.1"	1110	"	"T/C"	"51,4/48,6"	"18/17"	35	stress_45	"POPTR_0014s14200.1"	1110	"	"T/C"	"69,7/30,3"	"85/37"	122
stress_42	"POPTR_0002s03020.1"	159	"	"T/C"	"75,6/24,4"	"180/58"	238	stress_45	"POPTR_0002s03020.1"	159	"	"T/C"	"77,6/22,4"	"420/121"	541
stress_42	"POPTR_0010s22950.1"	189	"	"G/A"	"60,7/39,3"	"182/118"	300	stress_45	"POPTR_0010s22950.1"	189	"	"G/A"	"60,4/39,6"	"279/183"	462
stress_42	"POPTR_0010s08290.1"	378	"	"A/T"	"74,9/25,0"	"1821/607"	2430	stress_45	"POPTR_0010s08290.1"	378	"	"A/T"	"74,8/25,1"	"1824/612"	2437
stress_42	"POPTR_0013s00850.1"	432	"	"G/A"	"52,9/47,1"	"185/165"	350	stress_45	"POPTR_0013s00850.1"	432	"	"G/A"	"52,8/47,2"	"124/111"	235
stress_42	"POPTR_0001s38810.1"	369	"	"T/C"	"69,5/30,5"	"185/81"	266	stress_45	"POPTR_0001s38810.1"	369	"	"T/C"	"63,0/36,5"	"243/141"	386
stress_42	"POPTR_0004s17610.1"	441	"	"A/G"	"60,8/39,2"	"186/120"	306	stress_45	"POPTR_0004s17610.1"	441	"	"A/G"	"61,3/38,7"	"201/127"	328
stress_42	"POPTR_0014s15960.1"	1071	"	"T/C"	"65,7/34,3"	"186/97"	283	stress_45	"POPTR_0014s15960.1"	1071	"	"T/C"	"67,7/32,3"	"176/84"	260
stress_42	"POPTR_0003s08140.1"	621	"	"A/T"	"57,5/41,8"	"187/136"	325	stress_45	"POPTR_0003s08140.1"	621	"	"A/T"	"60,9/39,1"	"231/148"	379
stress_42	"POPTR_0013s00850.1"	252	"	"T/C"	"55,7/44,3"	"187/149"	336	stress_45	"POPTR_0013s00850.1"	252	"	"T/C"	"60,0/40,0"	"129/86"	215
stress_42	"POPTR_0006s13310.1"	891	"	"C/T"	"59,3/40,7"	"188/129"	317	stress_45	"POPTR_0006s13310.1"	891	"	"C/T"	"52,0/47,8"	"222/204"	427
stress_42	"POPTR_0004s17610.1"	447	"	"C/T"	"60,2/39,8"	"189/125"	314	stress_45	"POPTR_0004s17610.1"	447	"	"C/T"	"64,0/36,0"	"208/117"	325
stress_42	"POPTR_0016s08520.1"	765	"	"A/G"	"54,3/45,7"	"19/16"	35	stress_45	"POPTR_0016s08520.1"	765	"	"A/G"	"52,3/47,7"	"56/51"	107
stress_42	"POPTR_0014s02550.1"	312	"	"A/C"	"51,4/48,6"	"19/18"	37	stress_45	"POPTR_0014s02550.1"	312	"	"A/C"	"53,2/45,9"	"58/50"	109
stress_42	"POPTR_0014s02410.1"	1263	"	"T/G"	"51,5/48,5"	"191/180"	371	stress_45	"POPTR_0014s02410.1"	1263	"	"T/G"	"51,9/48,1"	"305/283"	588
stress_42	"POPTR_1545s00200.1"	93	"	"A/C"	"66,8/32,9"	"191/94"	286	stress_45	"POPTR_1545s00200.1"	93	"	"A/C"	"62,7/37,3"	"198/118"	316
stress_42	"POPTR_0001s38810.1"	402	"	"G/A"	"59,2/40,8"	"193/133"	326	stress_45	"POPTR_0001s38810.1"	402	"	"G/A"	"60,0/40,0"	"255/170"	425
stress_42	"POPTR_0008s03950.1"	675	"	"A/C"	"64,5/35,2"	"194/106"	301	stress_45	"POPTR_0008s03950.1"	675	"	"A/C"	"68,5/31,5"	"252/116"	368
stress_42	"POPTR_0001s38810.1"	225	"	"T/A"	"63,1/36,9"	"197/115"	312	stress_45	"POPTR_0001s38810.1"	225	"	"T/A"	"61,8/38,0"	"254/156"	411
stress_42	"POPTR_0008s15780.1"	369	"	"C/G"	"65,6/34,4"	"198/104"	302	stress_45	"POPTR_0008s15780.1"	369	"	"C/G"	"77,6/22,4"	"180/52"	232
stress_42	"POPTR_0008s06580.1"	27	"	"A/G"	"61,9/38,1"	"198/122"	320	stress_45	"POPTR_0008s06580.1"	27	"	"A/G"	"60,3/39,5"	"292/191"	484
stress_42	"POPTR_0013s00850.1"	354	"	"A/G"	"60,2/39,8"	"198/131"	329	stress_45	"POPTR_0013s00850.1"	354	"	"A/G"	"61,1/38,4"	"124/78"	203
stress_42	"POPTR_0002s03020.1"	468	"	"T/C"	"77,1/22,9"	"199/59"	258	stress_45	"POPTR_0002s03020.1"	468	"	"T/C"	"72,0/28,0"	"366/142"	508
stress_42	"POPTR_0006s10080.1"	430	"	"T/G"	"58,8/35,3"	"20/12"	34	stress_45	"POPTR_0006s10080.1"	430	"	"G/T"	"51,9/48,1"	"80/74"	154
stress_42	"POPTR_0016s08520.1"	90	"	"C/A"	"58,8/41,2"	"20/14"	34	stress_45	"POPTR_0016s08520.1"	90	"	"C/A"	"54,8/45,2"	"63/52"	115
stress_42	"POPTR_0001s09000.1"	582	"	"C/G"	"50,0/50,0"	"20/20"	40	stress_45	"POPTR_0001s09000.1"	582	"	"G/C"	"61,0/39,0"	"64/41"	105
stress_42	"POPTR_0006s13310.1"	654	"	"T/A"	"62,1/37,9"	"200/122"	322	stress_45	"POPTR_0006s13310.1"	654	"	"T/A"	"56,7/43,1"	"314/239"	554
stress_42	"POPTR_0010s22950.1"	99	"	"A/T"	"63,4/36,6"	"204/118"	322	stress_45	"POPTR_0010s22950.1"	99	"	"A/T"	"62,1/37,9"	"330/201"	531
stress_42	"POPTR_0010s01590.1"	289	"	"G/C"	"59,6/40,4"	"204/138"	342	stress_45	"POPTR_0010s01590.1"	289	"	"G/C"	"52,2/47,8"	"132/121"	253
stress_42	"POPTR_0004s22810.1"	66	"	"G/T"	"52,0/48,0"	"205/189"	394	stress_45	"POPTR_0004s22810.1"	66	"	"G/T"	"57,4/42,4"	"260/192"	453
stress_42	"POPTR_0006s08530.1"	290	"	"A/C"	"59,5/40,5"	"2056/1399"	3455	stress_45	"POPTR_0006s08530.1"	290	"	"A/C"	"55,9/44,0"	"1985/1563"	3550
stress_42	"POPTR_0003s08140.1"	479	"	"T/A"	"64,2/35,5"	"208/115"	324	stress_45	"POPTR_0003s08140.1"	479	"	"T/A"	"66,9/33,1"	"247/122"	369
stress_42	"POPTR_0013s10350.1"	471	"	"A/G"	"69,8/30,2"	"208/90"	298	stress_45	"POPTR_0013s10350.1"	471	"	"A/G"	"81,9/18,1"	"298/66"	364
stress_42	"POPTR_0009s05850.1"	168	"	"A/G"	"65,6/34,4"	"21/11"	32	stress_45	"POPTR_0009s05850.1"	168	"	"A/G"	"56,9/43,1"	"58/44"	102
stress_42	"POPTR_0001s14310.1"	528	"	"C/T"	"61,8/38,2"	"21/13"	34	stress_45	"POPTR_0001s14310.1"	528	"	"C/T"	"81,7/18,3"	"125/28"	153
stress_42	"POPTR_0016s08520.1"	234	"	"C/T"	"56,8/43,2"	"21/16"	37	stress_45	"POPTR_0016s08520.1"	234	"	"T/C"	"52,0/48,0"	"53/49"	102
stress_42	"POPTR_0007s08390.1"	72	"	"T/C"	"55,3/44,7"	"21/17"	38	stress_45	"POPTR_0007s08390.1"	72	"	"T/C"	"59,4/39,6"	"63/42"	106
stress_42	"POPTR_0009s13460.1"	99	"	"C/T"	"51,2/48,8"	"21/20"	41	stress_45	"POPTR_0009s13460.1"	99	"	"T/C"	"50,4/49,6"	"65/64"	129
stress_42	"POPTR_0001s40250.1"	390	"	"C/T"	"80,8/19,2"	"21/5"	26	stress_45	"POPTR_0001s40250.1"	390	"	"C/T"	"75,7/24,3"	"84/27"	111
stress_42	"POPTR_0003s08140.1"	447	"	"C/A"	"60,5/39,5"	"213/139"	352	stress_45	"POPTR_0003s08140.1"	447	"	"C/A"	"62,8/37,2"	"262/155"	417
stress_42	"POPTR_0002s01080.1"	1368	"	"T/C"	"54,8/45,2"	"213/176"	389	stress_45	"POPTR_0002s01080.1"	1368	"	"T/C"	"59,4/40,4"	"262/178"	441
stress_42	"POPTR_0001s38810.1"	576	"	"T/C"	"67,3/32,4"	"216/104"	321	stress_45	"POPTR_0001s38810.1"	576	"	"T/C"	"61,2/38,8"	"237/150"	387
stress_42	"POPTR_0001s38810.1"	560	"	"C/G"	"66,0/34,0"	"217/112"	329	stress_45	"POPTR_0001s38810.1"	560	"	"C/G"	"62,4/37,6"	"266/160"	426
stress_42	"POPTR_0001s38810.1"	550	"	"G/A"	"64,2/35,8"	"217/121"	338	stress_45	"POPTR_0001s38810.1"	550	"	"G/A"	"64,3/35,7"	"272/151"	423
stress_42	"POPTR_0003s08140.1"	688	"	"G/C"	"62,9/37,1"	"217/128"	345	stress_45	"POPTR_0003s08140.1"	688	"	"G/C"	"59,7/40,3"	"250/169"	419
stress_42	"POPTR_0016s08520.1"	702	"	"G/T"	"59,5/40,5"	"22/15"	37	stress_45	"POPTR_0016s08520.1"	702	"	"G/T"	"52,3/47,7"	"57/52"	109
stress_42	"POPTR_0001s37480.1"	694	"	"C/T"	"57,9/42,1"	"22/16"	38	stress_45	"POPTR_0001s37480.1"	694	"	"C/T"	"62,6/37,4"	"72/43"	115
stress_42	"POPTR_0008s12550.1"	153	"	"T/G"	"55,0/42,5"	"22/17"	40	stress_45	"POPTR_0008s12550.1"	153	"	"T/G"	"52,5/47,5"	"53/48"	101
stress_42	"POPTR_0004s23490.1"	794	"	"C/T"	"52,4/47,6"	"22/20"	42	stress_45	"POPTR_0004s23490.1"	794	"	"C/T"	"65,3/34,7"	"66/35"	101
stress_42	"POPTR_0014s06370.1"	86	"	"A/G"	"51,2/48,8"	"22/21"	43	stress_45	"POPTR_0014s06370.1"	86	"	"G/A"	"53,4/46,6"	"62/54"	116
stress_42	"POPTR_0001s09000.1"	584	"	"A/G"	"50,0/50,0"	"22/22"	44	stress_45	"POPTR_0001s09000.1"	584	"	"G/A"	"55,1/44,9"	"59/48"	107
stress_42	"POPTR_0014s14200.1"	756	"	"T/C"	"71,0/29,0"	"22/9"	31	stress_45	"POPTR_0014s14200.1"	756	"	"T/C"	"84,3/15,7"	"102/19"	121
stress_42	"POPTR_0003s08140.1"	423	"	"C/A"	"65,8/34,2"	"221/115"	336	stress_45	"POPTR_0003s08140.1"	423	"	"C/A"	"62,3/37,7"	"231/140"	371
stress_42	"POPTR_0018s00850.1"	285	"	"A/T"	"83,5/16,2"	"222/43"	266	stress_45	"POPTR_0018s00850.1"	285	"	"A/T"	"79,9/19,5"	"263/64"	329
stress_42	"POPTR_0017s14310.3"	217	"	"A/G"	"50,6/49,4"	"224/219"	443	stress_45	"POPTR_0017s14310.3"	217	"	"G/A"	"62,0/38,0"	"75/46"	121
stress_42	"POPTR_0009s12420.1"	882	"	"G/T"	"69,2/30,5"	"227/100"	328	stress_45	"POPTR_0009s12420.1"	882	"	"G/T"	"66,2/33,4"	"210/106"	317
stress_42	"POPTR_0016s14270.1"	34	"	"C/A"	"71,0/29,0"	"228/93"	321	stress_45	"POPTR_0016s14270.1"	34	"	"C/A"	"76,9/23,1"	"440/132"	572
stress_42	"POPTR_0004s17840.1"	108	"	"T/C"	"63,9/36,1"	"23/13"	36	stress_45	"POPTR_0004s17840.1"	108	"	"C/T"	"50,0/50,0"	"64/64"	128
stress_42	"POPTR_0001s37480.1"	328	"	"G/A"	"63,9/36,1"	"23/13"	36	stress_45	"POPTR_0001s37480.1"	328	"	"A/G"	"50,5/49,5"	"56/55"	111
stress_42	"POPTR_0010s21270.1"	333	"	"T/C"	"62,2/37,8"	"23/14"	37	stress_45	"POPTR_0010s21270.1"	333	"	"T/C"	"59,2/40,8"	"74/51"	125
stress_42	"POPTR_0010s19860.1"	465	"	"C/T"	"62,2/37,8"	"23/14"	37	stress_45	"POPTR_0010s19860.1"	465	"	"C/T"	"54,7/45,3"	"58/48"	106
stress_42	"POPTR_0009s05840.1"	501	"	"C/G"	"56,1/43,9"	"23/18"	41	stress_45	"POPTR_0009s05840.1"	501	"	"G/C"	"54,2/45,8"	"64/54"	118
stress_42	"POPTR_0001s47020.1"	1353	"	"C/T"	"56,1/43,9"	"23/18"	41	stress_45	"POPTR_0001s47020.1"	1353	"	"T/C"	"56,0/44,0"	"61/48"	109
stress_42	"POPTR_0016s08520.1"	856	"	"C/T"	"54,8/45,2"	"23/19"	42	stress_45	"POPTR_0016s08520.1"	856	"	"T/C"	"50,9/49,1"	"55/53"	108
stress_42	"POPTR_0014s06370.1"	693	"	"A/G"	"53,5/46,5"	"23/20"	43	stress_45	"POPTR_0014s06370.1"	693	"	"A/G"	"59,5/40,5"	"66/45"	111
stress_42	"POPTR_0002s01320.1"	255	"	"A/T"	"51,1/46,7"	"23/21"	45	stress_45	"POPTR_0002s01320.1"	255	"	"T/A"	"50,5/48,5"	"51/49"	101
stress_42	"POPTR_0009s01320.1"	1752	"	"T/C"	"59,8/40,2"	"231/155"	386	stress_45	"POPTR_0009s01320.1"	1752	"	"T/C"	"58,1/41,9"	"211/152"	363
stress_42	"POPTR_0013s10350.1"	453	"	"T/A"	"69,5/30,5"	"232/102"	334	stress_45	"POPTR_0013s10350.1"	453	"	"T/A"	"80,1/19,6"	"339/83"	423
stress_42	"POPTR_0004s09910.1"	331	"	"T/C"	"65,1/34,6"	"233/124"	358	stress_45	"POPTR_0004s09910.1"	331	"	"T/C"	"62,4/37,1"	"254/151"	407
stress_42	"POPTR_0005s26070.1"	39	"	"A/T"	"57,8/42,2"	"237/173"	410	stress_45	"POPTR_0005s26070.1"	39	"	"A/T"	"57,5/42,5"	"345/255"	600
stress_42	"POPTR_0015s11640.1"	153	"	"A/G"	"57,1/42,9"	"24/18"	42	stress_45	"POPTR_0015s11640.1"	153	"	"G/A"	"65,2/34,8"	"116/62"	178
stress_42	"POPTR_0004s23490.1"	621	"	"A/G"	"53,3/46,7"	"24/21"	45	stress_45	"POPTR_0004s23490.1"	621	"	"G/A"	"51,9/48,1"	"55/51"	106
stress_42	"POPTR_0014s14200.1"	636	"	"T/G"	"75,0/25,0"	"24/8"	32	stress_45	"POPTR_0014s14200.1"	636	"	"T/G"	"65,6/34,4"	"80/42"	122
stress_42	"POPTR_0003s08140.1"	670	"	"G/A"	"66,3/33,7"	"240/122"	362	stress_45	"POPTR_0003s08140.1"	670	"	"G/A"	"64,1/35,9"	"270/151"	421
stress_42	"POPTR_0014s00810.1"	183	"	"T/C"	"75,9/24,1"	"242/77"	319	stress_45	"POPTR_0014s00810.1"	183	"	"T/C"	"81,5/18,5"	"150/34"	184
stress_42	"POPTR_0014s14200.1"	633	"	"G/A"	"71,4/28,6"	"25/10"	35	stress_45	"POPTR_0014s14200.1"	633	"	"G/A"	"64,3/35,7"	"83/46"	129
stress_42	"POPTR_0002s06680.1"	762	"	"T/C"	"61,0/39,0"	"25/16"	41	stress_45	"POPTR_0002s06680.1"	762	"	"C/T"	"51,3/48,7"	"58/55"	113
stress_42	"POPTR_0006s10080.1"	542	"	"G/A"	"55,6/44,4"	"25/20"	45	stress_45	"POPTR_0006s10080.1"	542	"	"G/A"	"53,1/46,9"	"85/75"	160
stress_42	"POPTR_0001s37480.1"	207	"	"C/T"	"55,6/44,4"	"25/20"	45	stress_45	"POPTR_0001s37480.1"	207	"	"C/T"	"50,5/49,5"	"51/50"	101
stress_42	"POPTR_0009s06690.1"	232	"	"G/T"	"54,3/45,7"	"25/21"	46	stress_45	"POPTR_0009s06690.1"	232	"	"T/G"	"54,4/45,6"	"68/57"	125
stress_42	"POPTR_0009s05850.1"	534	"	"C/T"	"52,1/47,9"	"25/23"	48	stress_45	"POPTR_0009s05850.1"	534	"	"T/C"	"60,2/39,8"	"65/43"	108
stress_42	"POPTR_0015s12460.1"	369	"	"G/T"	"50,0/50,0"	"25/25"	50	stress_45	"POPTR_0015s12460.1"	369	"	"G/T"	"55,7/44,3"	"59/47"	106
stress_42	"POPTR_0010s21270.1"	948	"	"T/C"	"78,1/21,9"	"25/7"	32	stress_45	"POPTR_0010s21270.1"	948	"	"T/C"	"72,1/27,9"	"75/29"	104
stress_42	"POPTR_0009s01320.1"	1731	"	"T/A"	"60,0/40,0"	"255/170"	425	stress_45	"POPTR_0009s01320.1"	1731	"	"T/A"	"59,0/41,0"	"222/154"	376
stress_42	"POPTR_0014s14200.1"	519	"	"C/T"	"68,4/31,6"	"26/12"	38	stress_45	"POPTR_0014s14200.1"	519	"	"C/T"	"63,2/36,8"	"74/43"	117
stress_42	"POPTR_0016s08520.1"	415	"	"A/G"	"66,7/33,3"	"26/13"	39	stress_45	"POPTR_0016s08520.1"	415	"	"G/A"	"50,9/49,1"	"55/53"	108
stress_42	"POPTR_0001s14310.1"	564	"	"C/T"	"63,4/36,6"	"26/15"	41	stress_45	"POPTR_0001s14310.1"	564	"	"T/C"	"54,8/45,2"	"86/71"	157
stress_42	"POPTR_0002s06680.1"	759	"	"T/C"	"63,4/36,6"	"26/15"	41	stress_45	"POPTR_0002s06680.1"	759	"	"C/T"	"51,3/48,7"	"58/55"	113
stress_42	"POPTR_0009s05840.1"	168	"	"T/C"	"52,0/48,0"	"26/24"	50	stress_45	"POPTR_0009s05840.1"	168	"	"T/C"	"54,1/45,9"	"59/50"	109
stress_42	"POPTR_0009s05850.1"	804	"	"T/C"	"51,0/49,0"	"26/25"	51	stress_45	"POPTR_0009s05850.1"	804	"	"T/C"	"54,8/45,2"	"92/76"	168
stress_42	"POPTR_0004s22810.1"	240	"	"T/A"	"52,1/47,1"	"269/243"	516	stress_45	"POPTR_0004s22810.1"	240	"	"T/A"	"51,8/47,4"	"317/290"	612
stress_42	"POPTR_0014s00810.1"	153	"	"A/G"	"83,5/16,5"	"269/53"	322	stress_45	"POPTR_0014s00810.1"	153	"	"A/G"	"80,6/19,4"	"199/48"	247
stress_42	"POPTR_0009s05850.1"	246	"	"C/T"	"67,5/32,5"	"27/13"	40	stress_45	"POPTR_0009s05850.1"	246	"	"C/T"	"61,3/38,7"	"65/41"	106
stress_42	"POPTR_0006s10080.1"	487	"	"T/C"	"62,8/37,2"	"27/16"	43	stress_45	"POPTR_0006s10080.1"	487	"	"T/C"	"56,5/43,5"	"96/74"	170
stress_42	"POPTR_0006s10080.1"	601	"	"T/C"	"54,0/46,0"	"27/23"	50	stress_45	"POPTR_0006s10080.1"	601	"	"T/C"	"60,9/39,1"	"84/54"	138
stress_42	"POPTR_0015s11640.1"	93	"	"G/T"	"51,9/46,2"	"27/24"	52	stress_45	"POPTR_0015s11640.1"	93	"	"T/G"	"55,6/44,4"	"100/80"	180
stress_42	"POPTR_0015s11640.1"	95	"	"C/A"	"52,9/47,1"	"27/24"	51	stress_45	"POPTR_0015s11640.1"	95	"	"A/C"	"58,5/41,5"	"103/73"	176
stress_42	"POPTR_0003s16030.1"	942	"	"G/A"	"50,9/49,1"	"27/26"	53	stress_45	"POPTR_0003s16030.1"	942	"	"G/A"	"52,5/47,5"	"53/48"	101
stress_42	"POPTR_0001s37480.1"	786	"	"C/T"	"50,9/49,1"	"27/26"	53	stress_45	"POPTR_0001s37480.1"	786	"	"T/C"	"56,2/43,8"	"68/53"	121
stress_42	"POPTR_0002s22560.1"	169	"	"A/T"	"50,9/49,1"	"27/26"	53	stress_45	"POPTR_0002s22560.1"	169	"	"A/T"	"55,6/44,4"	"79/63"	142
stress_42	"POPTR_0016s08520.1"	1036	"	"G/T"	"50,9/49,1"	"27/26"	53	stress_45	"POPTR_0016s08520.1"	1036	"	"T/G"	"56,6/43,4"	"69/53"	122
stress_42	"POPTR_0013s10350.1"	396	"	"G/A"	"73,9/26,1"	"274/97"	371	stress_45	"POPTR_0013s10350.1"	396	"	"G/A"	"84,3/15,7"	"350/65"	415
stress_42	"POPTR_0006s08530.1"	192	"	"C/T"	"69,1/30,9"	"2751/1233"	3984	stress_45	"POPTR_0006s08530.1"	192	"	"C/T"	"65,0/35,0"	"2616/1406"	4022
stress_42	"POPTR_0001s01350.1"	186	"	"T/A"	"59,6/40,4"	"28/19"	47	stress_45	"POPTR_0001s01350.1"	186	"	"T/A"	"64,1/35,9"	"66/37"	103
stress_42	"POPTR_0003s10720.1"	597	"	"C/T"	"54,9/45,1"	"28/23"	51	stress_45	"POPTR_0003s10720.1"	597	"	"T/C"	"52,9/47,1"	"55/49"	104
stress_42	"POPTR_0010s15190.1"	237	"	"G/C"	"53,8/46,2"	"28/24"	52	stress_45	"POPTR_0010s15190.1"	237	"	"G/C"	"52,9/47,1"	"55/49"	104
stress_42	"POPTR_0010s19860.1"	659	"	"C/T"	"52,8/47,2"	"28/25"	53	stress_45	"POPTR_0010s19860.1"	659	"	"T/C"	"50,0/49,1"	"55/54"	110
stress_42	"POPTR_0001s14280.1"	216	"	"T/C"	"51,9/48,1"	"28/26"	54	stress_45	"POPTR_0001s14280.1"	216	"	"T/C"	"55,8/44,2"	"63/50"	113
stress_42	"POPTR_0009s06690.1"	165	"	"A/C"	"50,9/49,1"	"28/27"	55	stress_45	"POPTR_0009s06690.1"	165	"	"C/A"	"57,0/43,0"	"90/68"	158
stress_42	"POPTR_0015s04140.1"	1541	"	"A/C"	"50,0/50,0"	"28/28"	56	stress_45	"POPTR_0015s04140.1"	1541	"	"A/C"	"50,0/50,0"	"56/56"	112
stress_42	"POPTR_0013s10350.1"	633	"	"G/T"	"72,6/27,4"	"281/106"	387	stress_45	"POPTR_0013s10350.1"	633	"	"G/T"	"78,1/21,9"	"282/79"	361
stress_42	"POPTR_0009s01320.1"	1737	"	"G/T"	"59,4/40,6"	"281/192"	473	stress_45	"POPTR_0009s01320.1"	1737	"	"G/T"	"58,6/41,4"	"249/176"	425
stress_42	"POPTR_0008s06580.1"	241	"	"A/C"	"58,5/40,9"	"283/198"	484	stress_45	"POPTR_0008s06580.1"	241	"	"A/C"	"54,0/46,0"	"354/302"	656
stress_42	"POPTR_0002s03020.1"	683	"	"C/A"	"84,3/15,7"	"285/53"	338	stress_45	"POPTR_0002s03020.1"	683	"	"C/A"	"84,5/15,1"	"448/80"	530
stress_42	"POPTR_0008s06580.1"	242	"	"C/A"	"57,8/42,2"	"286/209"	495	stress_45	"POPTR_0008s06580.1"	242	"	"C/A"	"53,8/46,0"	"366/313"	680
stress_42	"POPTR_0013s10350.1"	739	"	"G/A"	"75,7/24,3"	"289/93"	382	stress_45	"POPTR_0013s10350.1"	739	"	"G/A"	"84,8/15,2"	"257/46"	303
stress_42	"POPTR_0001s01350.1"	288	"	"A/T"	"63,0/37,0"	"29/17"	46	stress_45	"POPTR_0001s01350.1"	288	"	"A/T"	"52,4/47,6"	"54/49"	103
stress_42	"POPTR_0012s09570.1"	126	"	"T/C"	"51,8/48,2"	"29/27"	56	stress_45	"POPTR_0012s09570.1"	126	"	"T/C"	"50,5/49,5"	"52/51"	103
stress_42	"POPTR_0001s12960.1"	169	"	"T/C"	"50,9/49,1"	"29/28"	57	stress_45	"POPTR_0001s12960.1"	169	"	"T/C"	"54,5/44,6"	"55/45"	101
stress_42	"POPTR_0001s09000.1"	253	"	"C/G"	"76,3/23,7"	"29/9"	38	stress_45	"POPTR_0001s09000.1"	253	"	"C/G"	"69,6/30,4"	"87/38"	125
stress_42	"POPTR_0008s06580.1"	687	"	"G/A"	"55,3/44,7"	"291/235"	526	stress_45	"POPTR_0008s06580.1"	687	"	"G/A"	"56,3/43,7"	"374/290"	664
stress_42	"POPTR_0006s08530.1"	231	"	"G/A"	"74,9/25,0"	"2929/980"	3913	stress_45	"POPTR_0006s08530.1"	231	"	"G/A"	"70,5/29,4"	"2760/1152"	3914
stress_42	"POPTR_0004s10660.1"	702	"	"T/C"	"76,2/23,8"	"295/92"	387	stress_45	"POPTR_0004s10660.1"	702	"	"T/C"	"74,2/25,8"	"247/86"	333
stress_42	"POPTR_0004s22810.1"	100	"	"G/T"	"60,2/39,8"	"297/196"	493	stress_45	"POPTR_0004s22810.1"	100	"	"G/T"	"62,3/37,7"	"455/275"	730
stress_42	"POPTR_0001s09570.1"	216	"	"C/T"	"75,0/25,0"	"30/10"	40	stress_45	"POPTR_0001s09570.1"	216	"	"C/T"	"84,6/15,4"	"99/18"	117
stress_42	"POPTR_0014s06370.1"	132	"	"G/C"	"69,8/30,2"	"30/13"	43	stress_45	"POPTR_0014s06370.1"	132	"	"G/C"	"58,3/41,7"	"63/45"	108
stress_42	"POPTR_0004s23490.1"	1023	"	"T/C"	"68,2/31,8"	"30/14"	44	stress_45	"POPTR_0004s23490.1"	1023	"	"T/C"	"60,2/38,0"	"65/41"	108
stress_42	"POPTR_0002s09480.1"	417	"	"C/G"	"65,2/34,8"	"30/16"	46	stress_45	"POPTR_0002s09480.1"	417	"	"C/G"	"57,7/42,3"	"79/58"	137
stress_42	"POPTR_0001s32780.1"	630	"	"C/T"	"57,7/42,3"	"30/22"	52	stress_45	"POPTR_0001s32780.1"	630	"	"C/T"	"52,1/47,9"	"75/69"	144
stress_42	"POPTR_0009s11920.1"	30	"	"C/T"	"56,6/43,4"	"30/23"	53	stress_45	"POPTR_0009s11920.1"	30	"	"T/C"	"57,4/42,6"	"58/43"	101
stress_42	"POPTR_0002s08150.1"	537	"	"T/C"	"53,6/46,4"	"30/26"	56	stress_45	"POPTR_0002s08150.1"	537	"	"C/T"	"53,0/46,3"	"71/62"	134
stress_42	"POPTR_0002s25170.1"	279	"	"T/C"	"51,7/48,3"	"30/28"	58	stress_45	"POPTR_0002s25170.1"	279	"	"T/C"	"58,5/41,5"	"62/44"	106
stress_42	"POPTR_0002s08150.1"	105	"	"A/T"	"50,8/49,2"	"30/29"	59	stress_45	"POPTR_0002s08150.1"	105	"	"A/T"	"52,5/47,5"	"62/56"	118
stress_42	"POPTR_0016s08520.1"	600	"	"G/A"	"67,4/32,6"	"31/15"	46	stress_45	"POPTR_0016s08520.1"	600	"	"G/A"	"59,8/40,2"	"61/41"	102
stress_42	"POPTR_0015s13050.1"	154	"	"C/A"	"60,8/39,2"	"31/20"	51	stress_45	"POPTR_0015s13050.1"	154	"	"C/A"	"69,9/30,1"	"86/37"	123
stress_42	"POPTR_0010s19860.1"	116	"	"A/C"	"59,6/40,4"	"31/21"	52	stress_45	"POPTR_0010s19860.1"	116	"	"C/A"	"56,8/43,2"	"71/54"	125
stress_42	"POPTR_0006s12910.1"	132	"	"A/T"	"58,5/41,5"	"31/22"	53	stress_45	"POPTR_0006s12910.1"	132	"	"T/A"	"50,7/48,6"	"70/67"	138
stress_42	"POPTR_0010s21280.1"	564	"	"C/T"	"57,4/42,6"	"31/23"	54	stress_45	"POPTR_0010s21280.1"	564	"	"C/T"	"52,8/46,5"	"67/59"	127
stress_42	"POPTR_0008s05480.1"	111	"	"T/C"	"56,4/43,6"	"31/24"	55	stress_45	"POPTR_0008s05480.1"	111	"	"T/C"	"53,1/46,9"	"78/69"	147
stress_42	"POPTR_0004s23490.1"	1128	"	"C/T"	"54,4/45,6"	"31/26"	57	stress_45	"POPTR_0004s23490.1"	1128	"	"C/T"	"50,4/49,6"	"57/56"	113
stress_42	"POPTR_0009s05840.1"	210	"	"A/G"	"54,4/45,6"	"31/26"	57	stress_45	"POPTR_0009s05840.1"	210	"	"A/G"	"65,4/34,6"	"83/44"	127
stress_42	"POPTR_0002s14730.1"	831	"	"A/G"	"53,4/46,6"	"31/27"	58	stress_45	"POPTR_0002s14730.1"	831	"	"G/A"	"72,3/27,7"	"86/33"	119
stress_42	"POPTR_0004s09910.1"	270	"	"G/T"	"66,0/34,0"	"310/160"	470	stress_45	"POPTR_0004s09910.1"	270	"	"G/T"	"50,3/49,7"	"231/228"	459
stress_42	"POPTR_1545s00200.1"	61	"	"C/T"	"60,6/39,2"	"317/205"	523	stress_45	"POPTR_1545s00200.1"	61	"	"C/T"	"59,7/40,3"	"350/236"	586
stress_42	"POPTR_0004s22810.1"	126	"	"G/A"	"54,7/45,1"	"318/262"	581	stress_45	"POPTR_0004s22810.1"	126	"	"G/A"	"57,4/42,6"	"491/365"	856
stress_42	"POPTR_0010s01590.1"	270	"	"C/T"	"59,0/41,0"	"319/222"	541	stress_45	"POPTR_0010s01590.1"	270	"	"T/C"	"51,2/48,8"	"192/183"	375
stress_42	"POPTR_0009s13890.1"	264	"	"T/C"	"68,1/31,9"	"32/15"	47	stress_45	"POPTR_0009s13890.1"	264	"	"T/C"	"53,7/46,3"	"58/50"	108
stress_42	"POPTR_0015s13050.1"	168	"	"C/A"	"64,0/36,0"	"32/18"	50	stress_45	"POPTR_0015s13050.1"	168	"	"C/A"	"69,7/30,3"	"83/36"	119
stress_42	"POPTR_0001s40250.1"	1015	"	"G/C"	"64,0/36,0"	"32/18"	50	stress_45	"POPTR_0001s40250.1"	1015	"	"G/C"	"66,1/33,9"	"72/37"	109
stress_42	"POPTR_0008s05480.1"	384	"	"C/T"	"59,3/40,7"	"32/22"	54	stress_45	"POPTR_0008s05480.1"	384	"	"T/C"	"56,5/43,5"	"118/91"	209
stress_42	"POPTR_0002s21340.1"	980	"	"T/C"	"56,1/43,9"	"32/25"	57	stress_45	"POPTR_0002s21340.1"	980	"	"C/T"	"54,2/45,8"	"64/54"	118
stress_42	"POPTR_0015s12460.1"	405	"	"T/C"	"54,2/45,8"	"32/27"	59	stress_45	"POPTR_0015s12460.1"	405	"	"T/C"	"51,0/49,0"	"53/51"	104
stress_42	"POPTR_0002s25170.1"	247	"	"A/G"	"53,3/46,7"	"32/28"	60	stress_45	"POPTR_0002s25170.1"	247	"	"A/G"	"53,4/46,6"	"55/48"	103
stress_42	"POPTR_0016s05530.1"	795	"	"C/T"	"51,6/48,4"	"32/30"	62	stress_45	"POPTR_0016s05530.1"	795	"	"C/T"	"63,2/36,8"	"67/39"	106
stress_42	"POPTR_0008s06580.1"	675	"	"C/G"	"58,6/41,4"	"320/226"	546	stress_45	"POPTR_0008s06580.1"	675	"	"C/G"	"59,3/40,7"	"399/274"	673
stress_42	"POPTR_0008s06580.1"	232	"	"G/T"	"60,7/39,3"	"324/210"	534	stress_45	"POPTR_0008s06580.1"	232	"	"G/T"	"57,8/42,2"	"413/302"	715
stress_42	"POPTR_0010s19860.1"	273	"	"A/G"	"67,3/32,7"	"33/16"	49	stress_45	"POPTR_0010s19860.1"	273	"	"G/A"	"55,4/44,6"	"62/50"	112
stress_42	"POPTR_0010s19860.1"	318	"	"T/C"	"63,5/36,5"	"33/19"	52	stress_45	"POPTR_0010s19860.1"	318	"	"T/C"	"57,3/42,7"	"59/44"	103
stress_42	"POPTR_0006s10080.1"	1024	"	"C/T"	"62,3/37,7"	"33/20"	53	stress_45	"POPTR_0006s10080.1"	1024	"	"C/T"	"58,7/41,3"	"111/78"	189
stress_42	"POPTR_0002s10000.1"	630	"	"G/T"	"62,3/37,7"	"33/20"	53	stress_45	"POPTR_0002s10000.1"	630	"	"G/T"	"72,7/26,4"	"88/32"	121
stress_42	"POPTR_0015s13050.1"	93	"	"A/T"	"60,0/40,0"	"33/22"	55	stress_45	"POPTR_0015s13050.1"	93	"	"A/T"	"58,4/41,6"	"87/62"	149
stress_42	"POPTR_0002s08150.1"	75	"	"T/C"	"58,9/41,1"	"33/23"	56	stress_45	"POPTR_0002s08150.1"	75	"	"T/C"	"53,7/46,3"	"65/56"	121
stress_42	"POPTR_0018s02230.1"	92	"	"T/C"	"56,9/43,1"	"33/25"	58	stress_45	"POPTR_0018s02230.1"	92	"	"T/C"	"60,2/39,8"	"62/41"	103
stress_42	"POPTR_0018s02230.1"	93	"	"C/T"	"55,9/44,1"	"33/26"	59	stress_45	"POPTR_0018s02230.1"	93	"	"C/T"	"60,0/40,0"	"63/42"	105
stress_42	"POPTR_0010s19860.1"	405	"	"A/C"	"54,1/44,3"	"33/27"	61	stress_45	"POPTR_0010s19860.1"	405	"	"A/C"	"56,3/43,7"	"80/62"	142
stress_42	"POPTR_0003s10720.1"	370	"	"A/G"	"53,2/46,8"	"33/29"	62	stress_45	"POPTR_0003s10720.1"	370	"	"G/A"	"52,4/47,6"	"66/60"	126
stress_42	"POPTR_0001s32780.1"	1053	"	"C/T"	"53,2/46,8"	"33/29"	62	stress_45	"POPTR_0001s32780.1"	1053	"	"T/C"	"56,9/43,1"	"78/59"	137
stress_42	"POPTR_0005s11500.1"	196	"	"G/C"	"52,4/47,6"	"33/30"	63	stress_45	"POPTR_0005s11500.1"	196	"	"G/C"	"61,7/38,3"	"74/46"	120
stress_42	"POPTR_0001s12960.1"	159	"	"T/C"	"51,6/48,4"	"33/31"	64	stress_45	"POPTR_0001s12960.1"	159	"	"C/T"	"54,4/45,6"	"56/47"	103
stress_42	"POPTR_0004s10660.1"	690	"	"T/C"	"84,9/15,1"	"332/59"	391	stress_45	"POPTR_0004s10660.1"	690	"	"T/C"	"81,1/18,9"	"270/63"	333
stress_42	"POPTR_0008s15770.1"	122	"	"G/C"	"80,0/19,8"	"336/83"	420	stress_45	"POPTR_0008s15770.1"	122	"	"G/C"	"68,1/31,9"	"358/168"	526
stress_42	"POPTR_0002s08150.1"	589	"	"C/T"	"77,3/22,7"	"34/10"	44	stress_45	"POPTR_0002s08150.1"	589	"	"C/T"	"82,5/17,5"	"104/22"	126
stress_42	"POPTR_0010s19860.1"	294	"	"C/T"	"64,2/35,8"	"34/19"	53	stress_45	"POPTR_0010s19860.1"	294	"	"C/T"	"50,0/50,0"	"55/55"	110
stress_42	"POPTR_0002s06680.1"	543	"	"G/A"	"64,2/35,8"	"34/19"	53	stress_45	"POPTR_0002s06680.1"	543	"	"A/G"	"52,0/48,0"	"53/49"	102
stress_42	"POPTR_0008s12550.1"	102	"	"A/C"	"64,2/35,8"	"34/19"	53	stress_45	"POPTR_0008s12550.1"	102	"	"C/A"	"50,5/49,5"	"53/52"	105
stress_42	"POPTR_0001s14320.1"	1062	"	"C/A"	"63,0/37,0"	"34/20"	54	stress_45	"POPTR_0001s14320.1"	1062	"	"C/A"	"55,6/44,4"	"99/79"	178
stress_42	"POPTR_0017s14470.1"	759	"	"T/A"	"58,6/39,7"	"34/23"	58	stress_45	"POPTR_0017s14470.1"	759	"	"T/A"	"59,0/36,9"	"72/45"	122
stress_42	"POPTR_0015s14510.1"	87	"	"T/C"	"58,6/41,4"	"34/24"	58	stress_45	"POPTR_0015s14510.1"	87	"	"C/T"	"52,9/47,1"	"54/48"	102
stress_42	"POPTR_0003s18530.1"	549	"	"G/A"	"57,6/42,4"	"34/25"	59	stress_45	"POPTR_0003s18530.1"	549	"	"A/G"	"61,3/38,7"	"65/41"	106
stress_42	"POPTR_0008s05480.1"	375	"	"C/T"	"57,6/42,4"	"34/25"	59	stress_45	"POPTR_0008s05480.1"	375	"	"T/C"	"53,0/47,0"	"122/108"	230
stress_42	"POPTR_0002s08150.1"	369	"	"G/C"	"55,7/44,3"	"34/27"	61	stress_45	"POPTR_0002s08150.1"	369	"	"G/C"	"57,3/42,7"	"82/61"	143
stress_42	"POPTR_0006s10130.1"	681	"	"T/G"	"54,8/45,2"	"34/28"	62	stress_45	"POPTR_0006s10130.1"	681	"	"G/T"	"59,4/36,6"	"60/37"	101
stress_42	"POPTR_0016s08520.1"	994	"	"A/T"	"54,8/45,2"	"34/28"	62	stress_45	"POPTR_0016s08520.1"	994	"	"A/T"	"55,0/44,2"	"71/57"	129
stress_42	"POPTR_0002s09480.1"	219	"	"T/C"	"54,0/46,0"	"34/29"	63	stress_45	"POPTR_0002s09480.1"	219	"	"T/C"	"53,8/46,2"	"63/54"	117
stress_42	"POPTR_0014s02550.1"	1077	"	"C/T"	"53,1/46,9"	"34/30"	64	stress_45	"POPTR_0014s02550.1"	1077	"	"C/T"	"55,3/44,7"	"57/46"	103
stress_42	"POPTR_0006s14400.1"	36	"	"T/C"	"73,3/26,7"	"340/124"	464	stress_45	"POPTR_0006s14400.1"	36	"	"T/C"	"79,5/20,5"	"583/150"	733
stress_42	"POPTR_0001s41080.1"	198	"	"T/C"	"52,9/47,1"	"347/309"	656	stress_45	"POPTR_0001s41080.1"	198	"	"T/C"	"53,7/46,3"	"316/272"	588
stress_42	"POPTR_0010s01590.1"	222	"	"C/T"	"60,4/39,6"	"348/228"	576	stress_45	"POPTR_0010s01590.1"	222	"	"C/T"	"55,5/44,5"	"206/165"	371
stress_42	"POPTR_0002s08150.1"	591	"	"C/G"	"72,9/27,1"	"35/13"	48	stress_45	"POPTR_0002s08150.1"	591	"	"C/G"	"80,8/19,2"	"101/24"	125
stress_42	"POPTR_0008s04270.1"	747	"	"A/T"	"71,4/28,6"	"35/14"	49	stress_45	"POPTR_0008s04270.1"	747	"	"A/T"	"76,2/22,8"	"77/23"	101
stress_42	"POPTR_0008s05480.1"	24	"	"T/G"	"66,0/34,0"	"35/18"	53	stress_45	"POPTR_0008s05480.1"	24	"	"T/G"	"68,8/31,2"	"88/40"	128
stress_42	"POPTR_0019s14190.1"	231	"	"A/C"	"60,3/39,7"	"35/23"	58	stress_45	"POPTR_0019s14190.1"	231	"	"A/C"	"53,4/46,6"	"62/54"	116
stress_42	"POPTR_0006s12910.1"	124	"	"A/C"	"59,3/40,7"	"35/24"	59	stress_45	"POPTR_0006s12910.1"	124	"	"C/A"	"51,6/48,4"	"65/61"	126
stress_42	"POPTR_0002s04420.1"	97	"	"C/T"	"55,6/42,9"	"35/27"	63	stress_45	"POPTR_0002s04420.1"	97	"	"C/T"	"53,0/47,0"	"62/55"	117
stress_42	"POPTR_0005s11780.1"	184	"	"A/T"	"54,7/45,3"	"35/29"	64	stress_45	"POPTR_0005s11780.1"	184	"	"T/A"	"56,9/43,1"	"74/56"	130
stress_42	"POPTR_0010s19860.1"	60	"	"C/A"	"53,8/46,2"	"35/30"	65	stress_45	"POPTR_0010s19860.1"	60	"	"C/A"	"51,5/47,8"	"70/65"	136
stress_42	"POPTR_0002s19060.1"	1143	"	"A/C"	"53,8/46,2"	"35/30"	65	stress_45	"POPTR_0002s19060.1"	1143	"	"C/A"	"51,4/48,6"	"56/53"	109
stress_42	"POPTR_0001s32780.1"	60	"	"C/T"	"53,0/47,0"	"35/31"	66	stress_45	"POPTR_0001s32780.1"	60	"	"T/C"	"52,3/47,7"	"80/73"	153
stress_42	"POPTR_0007s06220.1"	108	"	"C/G"	"52,2/47,8"	"35/32"	67	stress_45	"POPTR_0007s06220.1"	108	"	"C/G"	"63,6/36,4"	"89/51"	140
stress_42	"POPTR_0005s11780.1"	390	"	"G/T"	"49,3/46,5"	"35/33"	71	stress_45	"POPTR_0005s11780.1"	390	"	"G/T"	"51,5/46,9"	"67/61"	130
stress_42	"POPTR_0008s12550.1"	1638	"	"T/C"	"51,5/48,5"	"35/33"	68	stress_45	"POPTR_0008s12550.1"	1638	"	"T/C"	"50,9/49,1"	"57/55"	112
stress_42	"POPTR_0014s02550.1"	1482	"	"C/T"	"50,0/50,0"	"35/35"	70	stress_45	"POPTR_0014s02550.1"	1482	"	"C/T"	"54,0/46,0"	"75/64"	139
stress_42	"POPTR_0004s22810.1"	197	"	"C/A"	"56,5/43,5"	"350/269"	619	stress_45	"POPTR_0004s22810.1"	197	"	"C/A"	"54,0/46,0"	"398/339"	737
stress_42	"POPTR_0004s22810.1"	196	"	"G/A"	"56,5/43,3"	"351/269"	621	stress_45	"POPTR_0004s22810.1"	196	"	"G/A"	"54,4/45,6"	"406/341"	747
stress_42	"POPTR_0004s08500.1"	87	"	"T/A"	"70,4/29,6"	"356/150"	506	stress_45	"POPTR_0004s08500.1"	87	"	"T/A"	"68,0/32,0"	"332/156"	488
stress_42	"POPTR_0004s09910.1"	351	"	"A/C"	"57,8/42,2"	"356/260"	616	stress_45	"POPTR_0004s09910.1"	351	"	"A/C"	"69,8/30,2"	"437/189"	626
stress_42	"POPTR_0001s40250.1"	1830	"	"A/G"	"78,3/21,7"	"36/10"	46	stress_45	"POPTR_0001s40250.1"	1830	"	"A/G"	"80,2/19,8"	"97/24"	121
stress_42	"POPTR_0013s07050.1"	1155	"	"G/A"	"66,7/33,3"	"36/18"	54	stress_45	"POPTR_0013s07050.1"	1155	"	"G/A"	"60,5/39,5"	"72/47"	119
stress_42	"POPTR_0001s47020.1"	1257	"	"C/T"	"63,2/36,8"	"36/21"	57	stress_45	"POPTR_0001s47020.1"	1257	"	"C/T"	"50,4/49,6"	"62/61"	123
stress_42	"POPTR_0006s08980.1"	153	"	"A/C"	"62,1/37,9"	"36/22"	58	stress_45	"POPTR_0006s08980.1"	153	"	"A/C"	"66,0/34,0"	"70/36"	106
stress_42	"POPTR_0003s12160.1"	201	"	"C/T"	"62,1/37,9"	"36/22"	58	stress_45	"POPTR_0003s12160.1"	201	"	"T/C"	"55,3/44,7"	"57/46"	103
stress_42	"POPTR_0001s37480.1"	717	"	"T/C"	"61,0/39,0"	"36/23"	59	stress_45	"POPTR_0001s37480.1"	717	"	"T/C"	"67,8/32,2"	"101/48"	149
stress_42	"POPTR_0002s08150.1"	354	"	"T/C"	"58,1/41,9"	"36/26"	62	stress_45	"POPTR_0002s08150.1"	354	"	"T/C"	"50,8/49,2"	"67/65"	132
stress_42	"POPTR_0002s09480.1"	373	"	"T/C"	"56,2/43,8"	"36/28"	64	stress_45	"POPTR_0002s09480.1"	373	"	"T/C"	"53,1/46,1"	"68/59"	128
stress_42	"POPTR_0010s10140.1"	282	"	"C/T"	"55,4/44,6"	"36/29"	65	stress_45	"POPTR_0010s10140.1"	282	"	"C/T"	"56,4/43,6"	"62/48"	110
stress_42	"POPTR_0014s11040.1"	168	"	"C/T"	"54,5/45,5"	"36/30"	66	stress_45	"POPTR_0014s11040.1"	168	"	"T/C"	"56,4/43,6"	"57/44"	101
stress_42	"POPTR_0002s14730.1"	837	"	"C/T"	"53,7/44,8"	"36/30"	67	stress_45	"POPTR_0002s14730.1"	837	"	"C/T"	"75,2/24,8"	"106/35"	141
stress_42	"POPTR_0015s13050.1"	295	"	"A/T"	"53,7/46,3"	"36/31"	67	stress_45	"POPTR_0015s13050.1"	295	"	"T/A"	"62,1/37,9"	"90/55"	145
stress_42	"POPTR_0005s11500.1"	188	"	"T/C"	"52,9/47,1"	"36/32"	68	stress_45	"POPTR_0005s11500.1"	188	"	"T/C"	"66,0/34,0"	"68/35"	103
stress_42	"POPTR_0011s14150.1"	867	"	"G/T"	"52,9/47,1"	"36/32"	68	stress_45	"POPTR_0011s14150.1"	867	"	"G/T"	"51,9/48,1"	"54/50"	104
stress_42	"POPTR_0014s11040.1"	63	"	"T/C"	"51,4/48,6"	"36/34"	70	stress_45	"POPTR_0014s11040.1"	63	"	"C/T"	"52,1/47,9"	"61/56"	117
stress_42	"POPTR_0003s18530.1"	936	"	"A/G"	"50,7/49,3"	"36/35"	71	stress_45	"POPTR_0003s18530.1"	936	"	"A/G"	"51,9/48,1"	"54/50"	104
stress_42	"POPTR_0004s00480.1"	47	"	"A/C"	"50,7/49,3"	"36/35"	71	stress_45	"POPTR_0004s00480.1"	47	"	"C/A"	"61,4/38,6"	"70/44"	114
stress_42	"POPTR_0003s18530.1"	932	"	"A/C"	"50,0/50,0"	"36/36"	72	stress_45	"POPTR_0003s18530.1"	932	"	"A/C"	"50,9/49,1"	"54/52"	106
stress_42	"POPTR_0010s01590.1"	185	"	"C/T"	"71,9/27,9"	"369/143"	513	stress_45	"POPTR_0010s01590.1"	185	"	"C/T"	"73,9/26,1"	"266/94"	360
stress_42	"POPTR_0001s40250.1"	2034	"	"T/C"	"74,0/26,0"	"37/13"	50	stress_45	"POPTR_0001s40250.1"	2034	"	"T/C"	"70,5/29,5"	"79/33"	112
stress_42	"POPTR_0002s08150.1"	462	"	"T/C"	"67,3/32,7"	"37/18"	55	stress_45	"POPTR_0002s08150.1"	462	"	"C/T"	"56,7/43,3"	"68/52"	120
stress_42	"POPTR_0005s24500.1"	168	"	"T/C"	"62,7/37,3"	"37/22"	59	stress_45	"POPTR_0005s24500.1"	168	"	"T/C"	"82,1/17,0"	"87/18"	106
stress_42	"POPTR_0011s05250.1"	510	"	"G/A"	"57,8/42,2"	"37/27"	64	stress_45	"POPTR_0011s05250.1"	510	"	"G/A"	"64,7/35,3"	"110/60"	170
stress_42	"POPTR_0002s09480.1"	375	"	"T/G"	"57,8/42,2"	"37/27"	64	stress_45	"POPTR_0002s09480.1"	375	"	"T/G"	"54,5/45,5"	"73/61"	134
stress_42	"POPTR_0008s12550.1"	936	"	"T/C"	"57,8/42,2"	"37/27"	64	stress_45	"POPTR_0008s12550.1"	936	"	"T/C"	"53,1/46,9"	"69/61"	130
stress_42	"POPTR_0009s05840.1"	318	"	"A/T"	"56,9/43,1"	"37/28"	65	stress_45	"POPTR_0009s05840.1"	318	"	"A/T"	"58,8/41,2"	"104/73"	177
stress_42	"POPTR_0001s32770.1"	852	"	"C/T"	"56,9/43,1"	"37/28"	65	stress_45	"POPTR_0001s32770.1"	852	"	"C/T"	"50,4/49,6"	"63/62"	125
stress_42	"POPTR_0001s32770.1"	894	"	"C/T"	"55,2/44,8"	"37/30"	67	stress_45	"POPTR_0001s32770.1"	894	"	"C/T"	"52,4/47,6"	"54/49"	103
stress_42	"POPTR_0002s08150.1"	500	"	"C/A"	"55,2/44,8"	"37/30"	67	stress_45	"POPTR_0002s08150.1"	500	"	"A/C"	"51,5/48,5"	"85/80"	165
stress_42	"POPTR_0002s14730.1"	1638	"	"A/T"	"53,6/46,4"	"37/32"	69	stress_45	"POPTR_0002s14730.1"	1638	"	"A/T"	"54,7/45,3"	"58/48"	106
stress_42	"POPTR_0014s06370.1"	668	"	"T/C"	"52,1/47,9"	"37/34"	71	stress_45	"POPTR_0014s06370.1"	668	"	"T/C"	"58,5/41,5"	"83/59"	142
stress_42	"POPTR_0009s05840.1"	334	"	"A/G"	"52,1/47,9"	"37/34"	71	stress_45	"POPTR_0009s05840.1"	334	"	"A/G"	"55,9/44,1"	"90/71"	161
stress_42	"POPTR_0018s01420.1"	156	"	"C/G"	"50,7/49,3"	"37/36"	73	stress_45	"POPTR_0018s01420.1"	156	"	"G/C"	"52,4/47,6"	"54/49"	103
stress_42	"POPTR_0002s22560.1"	678	"	"C/T"	"50,7/49,3"	"37/36"	73	stress_45	"POPTR_0002s22560.1"	678	"	"C/T"	"56,3/43,7"	"89/69"	158
stress_42	"POPTR_0004s08500.1"	96	"	"G/A"	"50,1/49,9"	"374/373"	747	stress_45	"POPTR_0004s08500.1"	96	"	"G/A"	"54,1/45,9"	"426/361"	787
stress_42	"POPTR_0004s22810.1"	342	"	"C/T"	"55,0/45,0"	"376/308"	684	stress_45	"POPTR_0004s22810.1"	342	"	"C/T"	"58,7/41,3"	"474/334"	808
stress_42	"POPTR_0001s40250.1"	1608	"	"C/G"	"79,2/20,8"	"38/10"	48	stress_45	"POPTR_0001s40250.1"	1608	"	"C/G"	"76,9/23,1"	"83/25"	108
stress_42	"POPTR_0001s32950.1"	124	"	"T/A"	"69,1/29,1"	"38/16"	55	stress_45	"POPTR_0001s32950.1"	124	"	"A/T"	"50,4/49,6"	"60/59"	119
stress_42	"POPTR_0014s06370.1"	165	"	"C/A"	"67,9/32,1"	"38/18"	56	stress_45	"POPTR_0014s06370.1"	165	"	"C/A"	"62,0/38,0"	"67/41"	108
stress_42	"POPTR_0001s47020.1"	1273	"	"A/T"	"67,9/32,1"	"38/18"	56	stress_45	"POPTR_0001s47020.1"	1273	"	"T/A"	"53,1/46,9"	"60/53"	113
stress_42	"POPTR_0002s22560.1"	136	"	"A/T"	"63,3/36,7"	"38/22"	60	stress_45	"POPTR_0002s22560.1"	136	"	"A/T"	"53,9/46,1"	"55/47"	102
stress_42	"POPTR_0001s32770.1"	1011	"	"T/A"	"57,6/42,4"	"38/28"	66	stress_45	"POPTR_0001s32770.1"	1011	"	"A/T"	"53,6/45,5"	"59/50"	110
stress_42	"POPTR_0010s11780.1"	495	"	"A/G"	"52,1/47,9"	"38/35"	73	stress_45	"POPTR_0010s11780.1"	495	"	"G/A"	"58,4/41,6"	"73/52"	125
stress_42	"POPTR_0009s02070.1"	516	"	"C/T"	"51,4/48,6"	"38/36"	74	stress_45	"POPTR_0009s02070.1"	516	"	"T/C"	"61,6/38,4"	"77/48"	125
stress_42	"POPTR_0001s10040.1"	516	"	"A/G"	"51,4/48,6"	"38/36"	74	stress_45	"POPTR_0001s10040.1"	516	"	"A/G"	"59,1/40,9"	"65/45"	110
stress_42	"POPTR_0014s05640.1"	477	"	"A/G"	"50,7/49,3"	"38/37"	75	stress_45	"POPTR_0014s05640.1"	477	"	"G/A"	"55,3/44,7"	"78/63"	141
stress_42	"POPTR_0008s15780.1"	376	"	"A/T"	"76,7/23,3"	"385/117"	502	stress_45	"POPTR_0008s15780.1"	376	"	"A/T"	"68,1/31,9"	"286/134"	420
stress_42	"POPTR_0001s37480.1"	585	"	"C/T"	"70,9/29,1"	"39/16"	55	stress_45	"POPTR_0001s37480.1"	585	"	"C/T"	"66,9/33,1"	"97/48"	145
stress_42	"POPTR_0001s40250.1"	1899	"	"A/G"	"65,0/35,0"	"39/21"	60	stress_45	"POPTR_0001s40250.1"	1899	"	"A/G"	"78,6/21,4"	"110/30"	140
stress_42	"POPTR_0007s06220.1"	363	"	"A/G"	"59,1/40,9"	"39/27"	66	stress_45	"POPTR_0007s06220.1"	363	"	"A/G"	"54,0/46,0"	"61/52"	113
stress_42	"POPTR_0001s09000.1"	550	"	"A/G"	"58,2/41,8"	"39/28"	67	stress_45	"POPTR_0001s09000.1"	550	"	"A/G"	"59,6/40,4"	"87/59"	146
stress_42	"POPTR_0002s01320.1"	456	"	"C/T"	"58,2/41,8"	"39/28"	67	stress_45	"POPTR_0002s01320.1"	456	"	"T/C"	"50,9/49,1"	"54/52"	106
stress_42	"POPTR_0006s12910.1"	106	"	"A/T"	"55,7/44,3"	"39/31"	70	stress_45	"POPTR_0006s12910.1"	106	"	"T/A"	"56,9/42,2"	"62/46"	109
stress_42	"POPTR_0004s00480.1"	233	"	"G/T"	"55,7/44,3"	"39/31"	70	stress_45	"POPTR_0004s00480.1"	233	"	"G/T"	"66,9/31,5"	"87/41"	130
stress_42	"POPTR_0001s21740.1"	387	"	"C/T"	"52,7/47,3"	"39/35"	74	stress_45	"POPTR_0001s21740.1"	387	"	"C/T"	"54,8/45,2"	"68/56"	124
stress_42	"POPTR_0010s11780.1"	679	"	"C/G"	"50,0/50,0"	"39/39"	78	stress_45	"POPTR_0010s11780.1"	679	"	"G/C"	"56,2/43,8"	"73/57"	130
stress_42	"POPTR_0010s21280.1"	741	"	"T/C"	"78,4/21,6"	"40/11"	51	stress_45	"POPTR_0010s21280.1"	741	"	"T/C"	"71,3/28,7"	"124/50"	174
stress_42	"POPTR_0007s08400.1"	1824	"	"T/C"	"76,9/23,1"	"40/12"	52	stress_45	"POPTR_0007s08400.1"	1824	"	"T/C"	"71,0/29,0"	"98/40"	138
stress_42	"POPTR_0019s15250.1"	87	"	"A/T"	"75,5/24,5"	"40/13"	53	stress_45	"POPTR_0019s15250.1"	87	"	"A/T"	"78,2/21,8"	"97/27"	124
stress_42	"POPTR_0014s11040.1"	138	"	"C/T"	"63,5/36,5"	"40/23"	63	stress_45	"POPTR_0014s11040.1"	138	"	"C/T"	"50,0/50,0"	"59/59"	118
stress_42	"POPTR_0010s21270.1"	1197	"	"A/T"	"62,5/37,5"	"40/24"	64	stress_45	"POPTR_0010s21270.1"	1197	"	"A/T"	"56,2/43,8"	"81/63"	144
stress_42	"POPTR_0001s47020.1"	2022	"	"T/C"	"60,6/39,4"	"40/26"	66	stress_45	"POPTR_0001s47020.1"	2022	"	"T/C"	"51,3/48,7"	"58/55"	113
stress_42	"POPTR_0002s09480.1"	877	"	"C/T"	"60,6/39,4"	"40/26"	66	stress_45	"POPTR_0002s09480.1"	877	"	"C/T"	"67,0/33,0"	"77/38"	115
stress_42	"POPTR_0007s06220.1"	366	"	"T/A"	"59,7/40,3"	"40/27"	67	stress_45	"POPTR_0007s06220.1"	366	"	"T/A"	"56,6/43,4"	"73/56"	129
stress_42	"POPTR_0005s11500.1"	218	"	"T/A"	"57,1/42,9"	"40/30"	70	stress_45	"POPTR_0005s11500.1"	218	"	"T/A"	"60,8/39,2"	"62/40"	102
stress_42	"POPTR_0012s07060.1"	1230	"	"A/T"	"55,6/44,4"	"40/32"	72	stress_45	"POPTR_0012s07060.1"	1230	"	"T/A"	"59,0/41,0"	"62/43"	105
stress_42	"POPTR_0005s11780.1"	165	"	"A/G"	"54,8/45,2"	"40/33"	73	stress_45	"POPTR_0005s11780.1"	165	"	"G/A"	"55,4/44,6"	"72/58"	130
stress_42	"POPTR_0012s07060.1"	1380	"	"G/A"	"52,6/47,4"	"40/36"	76	stress_45	"POPTR_0012s07060.1"	1380	"	"A/G"	"58,3/41,7"	"67/48"	115
stress_42	"POPTR_0008s06720.1"	26	"	"C/T"	"52,6/47,4"	"40/36"	76	stress_45	"POPTR_0008s06720.1"	26	"	"C/T"	"63,7/36,3"	"65/37"	102
stress_42	"POPTR_0010s22610.1"	75	"	"A/G"	"51,9/48,1"	"40/37"	77	stress_45	"POPTR_0010s22610.1"	75	"	"G/A"	"57,6/42,4"	"76/56"	132
stress_42	"POPTR_0011s12680.1"	519	"	"C/G"	"50,0/50,0"	"40/40"	80	stress_45	"POPTR_0011s12680.1"	519	"	"G/C"	"53,4/45,6"	"55/47"	103
stress_42	"POPTR_0001s36050.1"	735	"	"C/T"	"50,0/50,0"	"40/40"	80	stress_45	"POPTR_0001s36050.1"	735	"	"C/T"	"56,2/42,9"	"59/45"	105
stress_42	"POPTR_0001s37480.1"	652	"	"G/A"	"73,2/26,8"	"41/15"	56	stress_45	"POPTR_0001s37480.1"	652	"	"G/A"	"69,2/30,8"	"74/33"	107
stress_42	"POPTR_0006s06770.1"	177	"	"T/C"	"67,2/32,8"	"41/20"	61	stress_45	"POPTR_0006s06770.1"	177	"	"T/C"	"78,5/21,5"	"106/29"	135
stress_42	"POPTR_0006s06770.1"	693	"	"A/G"	"65,1/34,9"	"41/22"	63	stress_45	"POPTR_0006s06770.1"	693	"	"A/G"	"73,2/26,8"	"90/33"	123
stress_42	"POPTR_0014s02550.1"	1252	"	"A/T"	"58,6/41,4"	"41/29"	70	stress_45	"POPTR_0014s02550.1"	1252	"	"T/A"	"56,3/43,7"	"58/45"	103
stress_42	"POPTR_0001s32780.1"	1164	"	"T/C"	"58,6/41,4"	"41/29"	70	stress_45	"POPTR_0001s32780.1"	1164	"	"T/C"	"64,2/35,8"	"79/44"	123
stress_42	"POPTR_0007s08400.1"	1827	"	"C/A"	"58,6/41,4"	"41/29"	70	stress_45	"POPTR_0007s08400.1"	1827	"	"C/A"	"56,1/43,9"	"92/72"	164
stress_42	"POPTR_0002s21340.1"	1083	"	"T/C"	"58,6/41,4"	"41/29"	70	stress_45	"POPTR_0002s21340.1"	1083	"	"T/C"	"50,5/49,5"	"54/53"	107
stress_42	"POPTR_0009s11920.1"	477	"	"C/A"	"56,9/43,1"	"41/31"	72	stress_45	"POPTR_0009s11920.1"	477	"	"C/A"	"55,7/44,3"	"59/47"	106
stress_42	"POPTR_0011s05250.1"	1428	"	"G/T"	"56,9/43,1"	"41/31"	72	stress_45	"POPTR_0011s05250.1"	1428	"	"G/T"	"59,8/40,2"	"67/45"	112
stress_42	"POPTR_0001s32950.1"	138	"	"T/G"	"56,9/43,1"	"41/31"	72	stress_45	"POPTR_0001s32950.1"	138	"	"T/G"	"51,5/48,5"	"68/64"	132
stress_42	"POPTR_0001s47020.1"	2032	"	"G/T"	"56,9/43,1"	"41/31"	72	stress_45	"POPTR_0001s47020.1"	2032	"	"G/T"	"55,8/44,2"	"63/50"	113
stress_42	"POPTR_0014s02550.1"	1368	"	"G/T"	"56,2/43,8"	"41/32"	73	stress_45	"POPTR_0014s02550.1"	1368	"	"G/T"	"59,2/40,8"	"74/51"	125
stress_42	"POPTR_0006s10130.1"	555	"	"G/T"	"53,9/44,7"	"41/34"	76	stress_45	"POPTR_0006s10130.1"	555	"	"G/T"	"58,0/42,0"	"98/71"	169
stress_42	"POPTR_0014s02550.1"	1125	"	"C/A"	"54,7/45,3"	"41/34"	75	stress_45	"POPTR_0014s02550.1"	1125	"	"C/A"	"50,5/49,5"	"54/53"	107
stress_42	"POPTR_0002s06680.1"	1044	"	"A/C"	"54,7/45,3"	"41/34"	75	stress_45	"POPTR_0002s06680.1"	1044	"	"A/C"	"54,1/45,9"	"60/51"	111
stress_42	"POPTR_0001s28970.1"	61	"	"C/T"	"53,9/46,1"	"41/35"	76	stress_45	"POPTR_0001s28970.1"	61	"	"T/C"	"52,7/47,3"	"78/70"	148
stress_42	"POPTR_0001s47020.1"	1500	"	"T/C"	"53,9/46,1"	"41/35"	76	stress_45	"POPTR_0001s47020.1"	1500	"	"C/T"	"57,4/42,6"	"74/55"	129
stress_42	"POPTR_0002s09480.1"	467	"	"C/A"	"53,9/46,1"	"41/35"	76	stress_45	"POPTR_0002s09480.1"	467	"	"C/A"	"53,2/46,8"	"82/72"	154
stress_42	"POPTR_0014s02550.1"	1647	"	"A/G"	"53,2/46,8"	"41/36"	77	stress_45	"POPTR_0014s02550.1"	1647	"	"A/G"	"52,4/47,6"	"65/59"	124
stress_42	"POPTR_0002s06680.1"	900	"	"C/T"	"53,2/46,8"	"41/36"	77	stress_45	"POPTR_0002s06680.1"	900	"	"T/C"	"55,5/43,7"	"66/52"	119
stress_42	"POPTR_0002s01320.1"	292	"	"C/A"	"53,2/46,8"	"41/36"	77	stress_45	"POPTR_0002s01320.1"	292	"	"A/C"	"54,9/45,1"	"84/69"	153
stress_42	"POPTR_0014s02550.1"	1515	"	"G/T"	"51,9/48,1"	"41/38"	79	stress_45	"POPTR_0014s02550.1"	1515	"	"G/T"	"62,0/38,0"	"75/46"	121
stress_42	"POPTR_0010s01700.1"	243	"	"G/A"	"58,3/41,7"	"410/293"	703	stress_45	"POPTR_0010s01700.1"	243	"	"G/A"	"55,6/44,4"	"439/351"	790
stress_42	"POPTR_0008s06580.1"	645	"	"G/T"	"63,5/36,2"	"412/235"	649	stress_45	"POPTR_0008s06580.1"	645	"	"G/T"	"64,9/35,1"	"472/255"	727
stress_42	"POPTR_0010s24290.1"	141	"	"C/T"	"56,1/43,9"	"413/323"	736	stress_45	"POPTR_0010s24290.1"	141	"	"C/T"	"57,9/42,1"	"293/213"	506
stress_42	"POPTR_0008s06580.1"	336	"	"T/C"	"58,1/41,7"	"419/301"	721	stress_45	"POPTR_0008s06580.1"	336	"	"T/C"	"57,9/42,1"	"546/397"	943
stress_42	"POPTR_0013s13220.1"	471	"	"T/C"	"60,9/39,1"	"42/27"	69	stress_45	"POPTR_0013s13220.1"	471	"	"T/C"	"58,0/42,0"	"65/47"	112
stress_42	"POPTR_0002s22560.1"	465	"	"T/C"	"60,9/39,1"	"42/27"	69	stress_45	"POPTR_0002s22560.1"	465	"	"T/C"	"54,7/45,3"	"76/63"	139
stress_42	"POPTR_0005s11500.1"	702	"	"T/C"	"56,8/43,2"	"42/32"	74	stress_45	"POPTR_0005s11500.1"	702	"	"T/C"	"53,7/46,3"	"65/56"	121
stress_42	"POPTR_0014s15710.1"	405	"	"C/T"	"56,8/43,2"	"42/32"	74	stress_45	"POPTR_0014s15710.1"	405	"	"C/T"	"66,9/33,1"	"89/44"	133
stress_42	"POPTR_0002s21340.1"	1448	"	"G/A"	"56,8/43,2"	"42/32"	74	stress_45	"POPTR_0002s21340.1"	1448	"	"G/A"	"56,4/43,6"	"57/44"	101
stress_42	"POPTR_0011s05250.1"	846	"	"T/C"	"54,5/45,5"	"42/35"	77	stress_45	"POPTR_0011s05250.1"	846	"	"T/C"	"57,5/42,5"	"73/54"	127
stress_42	"POPTR_0001s41460.1"	963	"	"T/A"	"53,8/46,2"	"42/36"	78	stress_45	"POPTR_0001s41460.1"	963	"	"T/A"	"54,5/45,5"	"55/46"	101
stress_42	"POPTR_0006s11570.1"	690	"	"G/C"	"53,2/46,8"	"42/37"	79	stress_45	"POPTR_0006s11570.1"	690	"	"G/C"	"55,4/44,6"	"56/45"	101
stress_42	"POPTR_0001s12630.1"	255	"	"C/T"	"53,2/46,8"	"42/37"	79	stress_45	"POPTR_0001s12630.1"	255	"	"C/T"	"56,0/44,0"	"61/48"	109
stress_42	"POPTR_0002s18500.1"	840	"	"C/T"	"49,4/48,2"	"42/41"	85	stress_45	"POPTR_0002s18500.1"	840	"	"T/C"	"56,8/41,6"	"71/52"	125
stress_42	"POPTR_0008s20590.1"	492	"	"A/T"	"50,0/50,0"	"42/42"	84	stress_45	"POPTR_0008s20590.1"	492	"	"T/A"	"51,7/48,3"	"74/69"	143
stress_42	"POPTR_0019s08450.1"	538	"	"G/C"	"82,4/17,6"	"42/9"	51	stress_45	"POPTR_0019s08450.1"	538	"	"G/C"	"72,3/27,7"	"73/28"	101
stress_42	"POPTR_0008s06580.1"	294	"	"A/G"	"61,7/38,1"	"421/260"	682	stress_45	"POPTR_0008s06580.1"	294	"	"A/G"	"58,4/41,5"	"518/368"	887
stress_42	"POPTR_0013s10350.1"	884	"	"A/G"	"75,9/24,1"	"422/134"	556	stress_45	"POPTR_0013s10350.1"	884	"	"A/G"	"83,4/16,6"	"361/72"	433
stress_42	"POPTR_0006s14400.1"	621	"	"G/A"	"78,6/21,4"	"426/116"	542	stress_45	"POPTR_0006s14400.1"	621	"	"G/A"	"79,9/20,1"	"631/159"	790
stress_42	"POPTR_0014s08210.1"	348	"	"G/C"	"75,4/24,6"	"43/14"	57	stress_45	"POPTR_0014s08210.1"	348	"	"G/C"	"72,0/28,0"	"77/30"	107
stress_42	"POPTR_0010s21280.1"	1852	"	"G/C"	"68,3/31,7"	"43/20"	63	stress_45	"POPTR_0010s21280.1"	1852	"	"G/C"	"65,2/34,8"	"75/40"	115
stress_42	"POPTR_0001s35230.1"	321	"	"T/A"	"66,2/33,8"	"43/22"	65	stress_45	"POPTR_0001s35230.1"	321	"	"T/A"	"66,1/33,9"	"84/43"	127
stress_42	"POPTR_0010s20810.1"	93	"	"T/A"	"64,2/35,8"	"43/24"	67	stress_45	"POPTR_0010s20810.1"	93	"	"T/A"	"62,3/37,7"	"76/46"	122
stress_42	"POPTR_0001s32780.1"	48	"	"T/C"	"58,9/41,1"	"43/30"	73	stress_45	"POPTR_0001s32780.1"	48	"	"C/T"	"52,2/47,8"	"97/89"	186
stress_42	"POPTR_0010s22790.1"	418	"	"G/A"	"55,1/44,9"	"43/35"	78	stress_45	"POPTR_0010s22790.1"	418	"	"A/G"	"58,7/41,3"	"61/43"	104
stress_42	"POPTR_0002s01320.1"	1830	"	"C/T"	"53,8/46,2"	"43/37"	80	stress_45	"POPTR_0002s01320.1"	1830	"	"C/T"	"57,0/43,0"	"81/61"	142
stress_42	"POPTR_0001s47020.1"	1569	"	"T/A"	"53,1/46,9"	"43/38"	81	stress_45	"POPTR_0001s47020.1"	1569	"	"T/A"	"55,8/44,2"	"101/80"	181
stress_42	"POPTR_0008s09150.1"	186	"	"A/G"	"51,2/48,8"	"43/41"	84	stress_45	"POPTR_0008s09150.1"	186	"	"A/G"	"51,4/48,6"	"95/90"	185
stress_42	"POPTR_0002s14730.1"	1791	"	"A/T"	"50,0/50,0"	"43/43"	86	stress_45	"POPTR_0002s14730.1"	1791	"	"A/T"	"59,4/40,6"	"63/43"	106
stress_42	"POPTR_0004s09910.1"	348	"	"G/C"	"69,8/30,0"	"432/186"	619	stress_45	"POPTR_0004s09910.1"	348	"	"G/C"	"65,9/34,1"	"414/214"	628
stress_42	"POPTR_0011s11960.1"	20	"	"A/C"	"71,4/28,5"	"4337/1731"	6071	stress_45	"POPTR_0011s11960.1"	20	"	"A/C"	"68,7/31,2"	"3548/1611"	5161
stress_42	"POPTR_0006s14400.1"	231	"	"A/G"	"73,1/26,7"	"438/160"	599	stress_45	"POPTR_0006s14400.1"	231	"	"A/G"	"77,0/23,0"	"772/231"	1003
stress_42	"POPTR_0008s06580.1"	495	"	"T/A"	"63,2/36,8"	"439/256"	695	stress_45	"POPTR_0008s06580.1"	495	"	"T/A"	"64,6/35,0"	"553/300"	856
stress_42	"POPTR_0019s15250.1"	108	"	"C/T"	"78,6/21,4"	"44/12"	56	stress_45	"POPTR_0019s15250.1"	108	"	"C/T"	"72,5/27,5"	"100/38"	138
stress_42	"POPTR_0010s21280.1"	702	"	"T/A"	"78,6/21,4"	"44/12"	56	stress_45	"POPTR_0010s21280.1"	702	"	"T/A"	"79,3/20,7"	"96/25"	121
stress_42	"POPTR_0001s37480.1"	645	"	"A/T"	"75,9/22,4"	"44/13"	58	stress_45	"POPTR_0001s37480.1"	645	"	"A/T"	"73,6/26,4"	"81/29"	110
stress_42	"POPTR_0002s14730.1"	601	"	"G/A"	"77,2/22,8"	"44/13"	57	stress_45	"POPTR_0002s14730.1"	601	"	"G/A"	"70,8/29,2"	"75/31"	106
stress_42	"POPTR_0010s15270.1"	91	"	"A/C"	"72,1/27,9"	"44/17"	61	stress_45	"POPTR_0010s15270.1"	91	"	"A/C"	"68,3/31,7"	"71/33"	104
stress_42	"POPTR_0001s09570.1"	390	"	"G/A"	"67,7/32,3"	"44/21"	65	stress_45	"POPTR_0001s09570.1"	390	"	"G/A"	"73,2/26,8"	"93/34"	127
stress_42	"POPTR_0013s13220.1"	570	"	"A/G"	"64,7/35,3"	"44/24"	68	stress_45	"POPTR_0013s13220.1"	570	"	"G/A"	"51,5/48,5"	"69/65"	134
stress_42	"POPTR_0009s13890.1"	455	"	"C/T"	"63,8/36,2"	"44/25"	69	stress_45	"POPTR_0009s13890.1"	455	"	"C/T"	"65,0/35,0"	"91/49"	140
stress_42	"POPTR_0006s12910.1"	379	"	"G/A"	"62,9/37,1"	"44/26"	70	stress_45	"POPTR_0006s12910.1"	379	"	"G/A"	"59,9/40,1"	"82/55"	137
stress_42	"POPTR_0011s08940.1"	786	"	"G/T"	"61,1/38,9"	"44/28"	72	stress_45	"POPTR_0011s08940.1"	786	"	"G/T"	"66,4/33,6"	"91/46"	137
stress_42	"POPTR_0001s32950.1"	1002	"	"C/T"	"61,1/38,9"	"44/28"	72	stress_45	"POPTR_0001s32950.1"	1002	"	"C/T"	"54,7/45,3"	"82/68"	150
stress_42	"POPTR_0002s19060.1"	1097	"	"T/A"	"60,3/39,7"	"44/29"	73	stress_45	"POPTR_0002s19060.1"	1097	"	"T/A"	"57,1/42,9"	"72/54"	126
stress_42	"POPTR_0014s02550.1"	1461	"	"C/G"	"56,4/41,0"	"44/32"	78	stress_45	"POPTR_0014s02550.1"	1461	"	"G/C"	"52,7/47,3"	"78/70"	148
stress_42	"POPTR_0008s16670.1"	531	"	"T/C"	"57,9/42,1"	"44/32"	76	stress_45	"POPTR_0008s16670.1"	531	"	"C/T"	"62,5/37,5"	"85/51"	136
stress_42	"POPTR_0002s22220.1"	210	"	"C/T"	"53,7/46,3"	"44/38"	82	stress_45	"POPTR_0002s22220.1"	210	"	"T/C"	"51,2/48,8"	"85/81"	166
stress_42	"POPTR_0008s16670.1"	219	"	"T/C"	"53,7/46,3"	"44/38"	82	stress_45	"POPTR_0008s16670.1"	219	"	"T/C"	"56,5/43,5"	"65/50"	115
stress_42	"POPTR_0002s22220.1"	378	"	"C/T"	"53,0/47,0"	"44/39"	83	stress_45	"POPTR_0002s22220.1"	378	"	"C/T"	"60,6/39,4"	"106/69"	175
stress_42	"POPTR_0001s47020.1"	2043	"	"A/C"	"51,8/47,1"	"44/40"	85	stress_45	"POPTR_0001s47020.1"	2043	"	"A/C"	"50,4/48,9"	"67/65"	133
stress_42	"POPTR_0018s02230.1"	153	"	"A/C"	"51,8/48,2"	"44/41"	85	stress_45	"POPTR_0018s02230.1"	153	"	"A/C"	"50,0/50,0"	"74/74"	148
stress_42	"POPTR_0002s14730.1"	1836	"	"A/T/	"36,7/34,2/29,2"	"44/41/35"	120	stress_45	"POPTR_0002s14730.1"	1836	"	"A/T/	"38,7/33,5/27,7"	"60/52/43"	155
stress_42	"POPTR_0006s14400.1"	218	"	"A/G"	"73,9/25,6"	"445/154"	602	stress_45	"POPTR_0006s14400.1"	218	"	"A/G"	"77,6/22,3"	"801/230"	1032
stress_42	"POPTR_0010s21280.1"	1449	"	"C/T"	"80,4/19,6"	"45/11"	56	stress_45	"POPTR_0010s21280.1"	1449	"	"C/T"	"73,0/27,0"	"92/34"	126
stress_42	"POPTR_0006s06770.1"	360	"	"A/G"	"70,3/29,7"	"45/19"	64	stress_45	"POPTR_0006s06770.1"	360	"	"A/G"	"75,0/25,0"	"84/28"	112
stress_42	"POPTR_0019s08500.1"	123	"	"G/A"	"69,2/30,8"	"45/20"	65	stress_45	"POPTR_0019s08500.1"	123	"	"G/A"	"54,7/45,3"	"64/53"	117
stress_42	"POPTR_0002s09480.1"	585	"	"A/G"	"65,2/34,8"	"45/24"	69	stress_45	"POPTR_0002s09480.1"	585	"	"A/G"	"50,9/49,1"	"54/52"	106
stress_42	"POPTR_0005s11780.1"	453	"	"T/A"	"63,4/36,6"	"45/26"	71	stress_45	"POPTR_0005s11780.1"	453	"	"T/A"	"55,4/43,6"	"56/44"	101
stress_42	"POPTR_0014s15580.1"	1274	"	"C/G"	"63,4/36,6"	"45/26"	71	stress_45	"POPTR_0014s15580.1"	1274	"	"C/G"	"55,0/45,0"	"60/49"	109
stress_42	"POPTR_0001s32950.1"	927	"	"T/C"	"62,5/37,5"	"45/27"	72	stress_45	"POPTR_0001s32950.1"	927	"	"T/C"	"56,2/43,8"	"59/46"	105
stress_42	"POPTR_0002s01320.1"	849	"	"T/G"	"61,6/38,4"	"45/28"	73	stress_45	"POPTR_0002s01320.1"	849	"	"T/G"	"54,9/45,1"	"62/51"	113
stress_42	"POPTR_0014s13660.1"	897	"	"C/T"	"57,7/42,3"	"45/33"	78	stress_45	"POPTR_0014s13660.1"	897	"	"C/T"	"57,4/42,6"	"58/43"	101
stress_42	"POPTR_0002s14730.1"	902	"	"A/C"	"55,6/44,4"	"45/36"	81	stress_45	"POPTR_0002s14730.1"	902	"	"A/C"	"58,7/41,3"	"61/43"	104
stress_42	"POPTR_0016s05530.1"	318	"	"C/T"	"54,9/45,1"	"45/37"	82	stress_45	"POPTR_0016s05530.1"	318	"	"C/T"	"54,9/45,1"	"89/73"	162
stress_42	"POPTR_0004s11780.1"	144	"	"C/A"	"54,2/45,8"	"45/38"	83	stress_45	"POPTR_0004s11780.1"	144	"	"C/A"	"57,7/42,3"	"60/44"	104
stress_42	"POPTR_0010s00900.1"	128	"	"A/G"	"54,2/45,8"	"45/38"	83	stress_45	"POPTR_0010s00900.1"	128	"	"A/G"	"53,1/46,9"	"60/53"	113
stress_42	"POPTR_0008s09150.1"	42	"	"C/T"	"54,2/45,8"	"45/38"	83	stress_45	"POPTR_0008s09150.1"	42	"	"C/T"	"58,1/41,9"	"68/49"	117
stress_42	"POPTR_0006s12910.1"	250	"	"C/G"	"53,6/46,4"	"45/39"	84	stress_45	"POPTR_0006s12910.1"	250	"	"G/C"	"52,3/47,7"	"79/72"	151
stress_42	"POPTR_0012s07270.1"	683	"	"T/C"	"52,3/47,7"	"45/41"	86	stress_45	"POPTR_0012s07270.1"	683	"	"C/T"	"56,7/43,3"	"59/45"	104
stress_42	"POPTR_0006s12910.1"	700	"	"A/G"	"51,1/48,9"	"45/43"	88	stress_45	"POPTR_0006s12910.1"	700	"	"A/G"	"56,5/43,5"	"83/64"	147
stress_42	"POPTR_0004s18190.1"	711	"	"A/C"	"48,9/47,8"	"45/44"	92	stress_45	"POPTR_0004s18190.1"	711	"	"A/C"	"53,8/45,2"	"56/47"	104
stress_42	"POPTR_0004s16740.1"	681	"	"C/T"	"50,0/50,0"	"45/45"	90	stress_45	"POPTR_0004s16740.1"	681	"	"T/C"	"58,3/41,7"	"60/43"	103
stress_42	"POPTR_0004s17020.1"	231	"	"G/T"	"74,2/25,8"	"46/16"	62	stress_45	"POPTR_0004s17020.1"	231	"	"G/T"	"77,1/22,9"	"101/30"	131
stress_42	"POPTR_0006s06180.1"	1938	"	"A/G"	"71,9/28,1"	"46/18"	64	stress_45	"POPTR_0006s06180.1"	1938	"	"A/G"	"76,4/23,6"	"84/26"	110
stress_42	"POPTR_0006s10130.1"	600	"	"C/A"	"64,8/35,2"	"46/25"	71	stress_45	"POPTR_0006s10130.1"	600	"	"A/C"	"63,9/36,1"	"69/39"	108
stress_42	"POPTR_0006s23580.1"	204	"	"C/T"	"62,2/37,8"	"46/28"	74	stress_45	"POPTR_0006s23580.1"	204	"	"C/T"	"63,2/36,8"	"72/42"	114
stress_42	"POPTR_0017s14470.1"	1245	"	"A/T"	"61,3/38,7"	"46/29"	75	stress_45	"POPTR_0017s14470.1"	1245	"	"A/T"	"64,0/36,0"	"73/41"	114
stress_42	"POPTR_0013s13220.1"	696	"	"A/G"	"61,3/38,7"	"46/29"	75	stress_45	"POPTR_0013s13220.1"	696	"	"G/A"	"50,5/48,6"	"53/51"	105
stress_42	"POPTR_0009s06690.1"	276	"	"T/A"	"61,3/38,7"	"46/29"	75	stress_45	"POPTR_0009s06690.1"	276	"	"T/A"	"50,6/49,4"	"78/76"	154
stress_42	"POPTR_0011s05250.1"	837	"	"C/T"	"61,3/38,7"	"46/29"	75	stress_45	"POPTR_0011s05250.1"	837	"	"C/T"	"56,6/43,4"	"73/56"	129
stress_42	"POPTR_0008s20590.1"	525	"	"A/T"	"60,5/39,5"	"46/30"	76	stress_45	"POPTR_0008s20590.1"	525	"	"A/T"	"64,3/35,7"	"72/40"	112
stress_42	"POPTR_0005s27390.1"	237	"	"A/G"	"59,0/41,0"	"46/32"	78	stress_45	"POPTR_0005s27390.1"	237	"	"A/G"	"52,3/47,7"	"68/62"	130
stress_42	"POPTR_0011s12400.1"	135	"	"C/A"	"55,4/44,6"	"46/37"	83	stress_45	"POPTR_0011s12400.1"	135	"	"A/C"	"52,0/48,0"	"64/59"	123
stress_42	"POPTR_0001s10040.1"	325	"	"T/C"	"55,4/44,6"	"46/37"	83	stress_45	"POPTR_0001s10040.1"	325	"	"T/C"	"50,4/49,6"	"63/62"	125
stress_42	"POPTR_0016s02540.1"	339	"	"T/C"	"52,9/47,1"	"46/41"	87	stress_45	"POPTR_0016s02540.1"	339	"	"T/C"	"50,8/49,2"	"64/62"	126
stress_42	"POPTR_0012s07060.1"	1257	"	"A/G"	"51,7/48,3"	"46/43"	89	stress_45	"POPTR_0012s07060.1"	1257	"	"G/A"	"57,6/42,4"	"68/50"	118
stress_42	"POPTR_0002s05660.1"	131	"	"T/C"	"51,1/47,8"	"46/43"	90	stress_45	"POPTR_0002s05660.1"	131	"	"C/T"	"50,9/48,1"	"54/51"	106
stress_42	"POPTR_0017s08610.1"	1431	"	"C/T"	"77,0/23,0"	"47/14"	61	stress_45	"POPTR_0017s08610.1"	1431	"	"C/T"	"80,9/19,1"	"89/21"	110
stress_42	"POPTR_0006s06770.1"	511	"	"A/T"	"71,2/28,8"	"47/19"	66	stress_45	"POPTR_0006s06770.1"	511	"	"A/T"	"74,2/25,8"	"118/41"	159
stress_42	"POPTR_0016s14270.1"	7	"	"A/G"	"70,1/29,9"	"47/20"	67	stress_45	"POPTR_0016s14270.1"	7	"	"A/G"	"78,7/21,3"	"85/23"	108
stress_42	"POPTR_0019s14190.1"	312	"	"C/T"	"68,1/31,9"	"47/22"	69	stress_45	"POPTR_0019s14190.1"	312	"	"C/T"	"55,1/44,9"	"70/57"	127
stress_42	"POPTR_0013s13220.1"	258	"	"C/T"	"65,3/34,7"	"47/25"	72	stress_45	"POPTR_0013s13220.1"	258	"	"C/T"	"59,7/40,3"	"92/62"	154
stress_42	"POPTR_0001s07520.1"	1161	"	"A/T"	"65,3/34,7"	"47/25"	72	stress_45	"POPTR_0001s07520.1"	1161	"	"A/T"	"63,6/35,6"	"75/42"	118
stress_42	"POPTR_0013s13220.1"	288	"	"T/C"	"61,0/39,0"	"47/30"	77	stress_45	"POPTR_0013s13220.1"	288	"	"T/C"	"50,7/49,3"	"73/71"	144
stress_42	"POPTR_0007s13110.1"	372	"	"C/T"	"60,3/39,7"	"47/31"	78	stress_45	"POPTR_0007s13110.1"	372	"	"C/T"	"55,7/44,3"	"59/47"	106
stress_42	"POPTR_0009s14850.1"	81	"	"C/T"	"58,8/41,2"	"47/33"	80	stress_45	"POPTR_0009s14850.1"	81	"	"C/T"	"55,8/44,2"	"58/46"	104
stress_42	"POPTR_0017s08610.1"	487	"	"C/T"	"58,0/42,0"	"47/34"	81	stress_45	"POPTR_0017s08610.1"	487	"	"C/T"	"56,9/43,1"	"74/56"	130
stress_42	"POPTR_0009s11920.1"	210	"	"T/C"	"58,0/42,0"	"47/34"	81	stress_45	"POPTR_0009s11920.1"	210	"	"T/C"	"53,2/46,8"	"66/58"	124
stress_42	"POPTR_0014s02550.1"	1611	"	"T/C"	"57,3/42,7"	"47/35"	82	stress_45	"POPTR_0014s02550.1"	1611	"	"C/T"	"52,7/47,3"	"58/52"	110
stress_42	"POPTR_0002s08150.1"	815	"	"G/A"	"57,3/42,7"	"47/35"	82	stress_45	"POPTR_0002s08150.1"	815	"	"A/G"	"50,8/49,2"	"66/64"	130
stress_42	"POPTR_0003s18530.1"	903	"	"A/T"	"56,6/43,4"	"47/36"	83	stress_45	"POPTR_0003s18530.1"	903	"	"A/T"	"52,1/47,9"	"63/58"	121
stress_42	"POPTR_0001s10040.1"	327	"	"A/G"	"56,0/44,0"	"47/37"	84	stress_45	"POPTR_0001s10040.1"	327	"	"A/G"	"50,8/49,2"	"63/61"	124
stress_42	"POPTR_0017s14470.1"	993	"	"T/C"	"55,3/44,7"	"47/38"	85	stress_45	"POPTR_0017s14470.1"	993	"	"T/C"	"57,1/42,9"	"76/57"	133
stress_42	"POPTR_0009s06690.1"	501	"	"T/C"	"55,3/44,7"	"47/38"	85	stress_45	"POPTR_0009s06690.1"	501	"	"T/C"	"51,2/48,8"	"65/62"	127
stress_42	"POPTR_0009s12710.1"	511	"	"T/A"	"54,7/45,3"	"47/39"	86	stress_45	"POPTR_0009s12710.1"	511	"	"T/A"	"62,4/37,6"	"83/50"	133
stress_42	"POPTR_0018s01420.1"	444	"	"G/A"	"53,4/46,6"	"47/41"	88	stress_45	"POPTR_0018s01420.1"	444	"	"G/A"	"52,3/47,7"	"56/51"	107
stress_42	"POPTR_0001s47020.1"	1545	"	"T/C"	"51,6/48,4"	"47/44"	91	stress_45	"POPTR_0001s47020.1"	1545	"	"T/C"	"50,6/49,4"	"89/87"	176
stress_42	"POPTR_0012s09570.1"	753	"	"T/C"	"80,0/20,0"	"48/12"	60	stress_45	"POPTR_0012s09570.1"	753	"	"T/C"	"60,2/39,8"	"71/47"	118
stress_42	"POPTR_0011s05250.1"	625	"	"T/C"	"76,2/23,8"	"48/15"	63	stress_45	"POPTR_0011s05250.1"	625	"	"T/C"	"65,3/34,7"	"79/42"	121
stress_42	"POPTR_0009s05840.1"	411	"	"T/C"	"68,6/31,4"	"48/22"	70	stress_45	"POPTR_0009s05840.1"	411	"	"T/C"	"59,3/40,7"	"83/57"	140
stress_42	"POPTR_0015s11640.2"	429	"	"T/C"	"66,7/33,3"	"48/24"	72	stress_45	"POPTR_0015s11640.2"	429	"	"T/C"	"60,2/39,8"	"106/70"	176
stress_42	"POPTR_0012s09570.1"	717	"	"T/C"	"60,0/40,0"	"48/32"	80	stress_45	"POPTR_0012s09570.1"	717	"	"T/C"	"50,9/48,5"	"85/81"	167
stress_42	"POPTR_0001s47020.1"	1719	"	"T/C"	"60,0/40,0"	"48/32"	80	stress_45	"POPTR_0001s47020.1"	1719	"	"C/T"	"55,9/44,1"	"81/64"	145
stress_42	"POPTR_0014s02410.1"	53	"	"T/A"	"57,1/42,9"	"48/36"	84	stress_45	"POPTR_0014s02410.1"	53	"	"T/A"	"54,6/45,4"	"106/88"	194
stress_42	"POPTR_0009s06690.1"	418	"	"G/A"	"55,8/44,2"	"48/38"	86	stress_45	"POPTR_0009s06690.1"	418	"	"G/A"	"59,3/40,7"	"99/68"	167
stress_42	"POPTR_0001s35230.1"	305	"	"G/C"	"55,2/44,8"	"48/39"	87	stress_45	"POPTR_0001s35230.1"	305	"	"G/C"	"56,6/43,4"	"82/63"	145
stress_42	"POPTR_0016s05530.1"	723	"	"C/T"	"55,2/44,8"	"48/39"	87	stress_45	"POPTR_0016s05530.1"	723	"	"C/T"	"49,7/49,7"	"74/74"	149
stress_42	"POPTR_0014s02550.1"	1530	"	"C/T"	"52,7/47,3"	"48/43"	91	stress_45	"POPTR_0014s02550.1"	1530	"	"C/T"	"58,8/41,2"	"70/49"	119
stress_42	"POPTR_0009s06690.1"	420	"	"G/T"	"52,2/47,8"	"48/44"	92	stress_45	"POPTR_0009s06690.1"	420	"	"G/T"	"58,8/41,2"	"100/70"	170
stress_42	"POPTR_0009s11920.1"	165	"	"T/C"	"52,2/47,8"	"48/44"	92	stress_45	"POPTR_0009s11920.1"	165	"	"C/T"	"52,6/47,4"	"100/90"	190
stress_42	"POPTR_0014s13660.1"	306	"	"C/T"	"50,5/49,5"	"48/47"	95	stress_45	"POPTR_0014s13660.1"	306	"	"C/T"	"50,9/49,1"	"57/55"	112
stress_42	"POPTR_0016s11670.1"	257	"	"G/C"	"50,5/49,5"	"48/47"	95	stress_45	"POPTR_0016s11670.1"	257	"	"G/C"	"57,0/43,0"	"61/46"	107
stress_42	"POPTR_0010s22790.1"	228	"	"C/T"	"50,0/50,0"	"48/48"	96	stress_45	"POPTR_0010s22790.1"	228	"	"T/C"	"57,5/42,5"	"73/54"	127
stress_42	"POPTR_0008s06580.1"	348	"	"C/T"	"62,5/37,5"	"481/289"	770	stress_45	"POPTR_0008s06580.1"	348	"	"C/T"	"59,2/40,8"	"623/430"	1053
stress_42	"POPTR_0008s06580.1"	378	"	"G/A"	"62,8/37,2"	"484/287"	771	stress_45	"POPTR_0008s06580.1"	378	"	"G/A"	"60,0/39,9"	"576/383"	960
stress_42	"POPTR_0011s05250.1"	1611	"	"C/G"	"66,2/33,8"	"49/25"	74	stress_45	"POPTR_0011s05250.1"	1611	"	"C/G"	"60,4/39,6"	"81/53"	134
stress_42	"POPTR_0010s21270.1"	1908	"	"T/A"	"62,0/38,0"	"49/30"	79	stress_45	"POPTR_0010s21270.1"	1908	"	"T/A"	"61,4/38,6"	"78/49"	127
stress_42	"POPTR_0006s10130.1"	531	"	"T/A"	"60,5/39,5"	"49/32"	81	stress_45	"POPTR_0006s10130.1"	531	"	"T/A"	"55,5/44,5"	"106/85"	191
stress_42	"POPTR_0010s19860.1"	756	"	"G/A"	"59,0/41,0"	"49/34"	83	stress_45	"POPTR_0010s19860.1"	756	"	"G/A"	"56,0/44,0"	"75/59"	134
stress_42	"POPTR_0017s08610.1"	495	"	"C/T"	"58,3/41,7"	"49/35"	84	stress_45	"POPTR_0017s08610.1"	495	"	"C/T"	"54,7/45,3"	"75/62"	137
stress_42	"POPTR_0012s11630.1"	383	"	"T/C"	"58,3/41,7"	"49/35"	84	stress_45	"POPTR_0012s11630.1"	383	"	"T/C"	"56,2/43,8"	"63/49"	112
stress_42	"POPTR_0016s02540.1"	399	"	"T/C"	"55,1/43,8"	"49/39"	89	stress_45	"POPTR_0016s02540.1"	399	"	"T/C"	"55,9/43,2"	"62/48"	111
stress_42	"POPTR_0009s06690.1"	745	"	"A/G"	"54,4/45,6"	"49/41"	90	stress_45	"POPTR_0009s06690.1"	745	"	"G/A"	"51,9/48,1"	"83/77"	160
stress_42	"POPTR_0009s11920.1"	126	"	"T/G"	"54,4/45,6"	"49/41"	90	stress_45	"POPTR_0009s11920.1"	126	"	"G/T"	"53,1/46,9"	"95/84"	179
stress_42	"POPTR_0009s06690.1"	759	"	"C/T"	"53,3/46,7"	"49/43"	92	stress_45	"POPTR_0009s06690.1"	759	"	"T/C"	"59,9/40,1"	"103/69"	172
stress_42	"POPTR_0006s10130.1"	510	"	"C/G"	"52,7/47,3"	"49/44"	93	stress_45	"POPTR_0006s10130.1"	510	"	"C/G"	"57,2/42,8"	"87/65"	152
stress_42	"POPTR_0006s10080.1"	1182	"	"A/G"	"51,6/48,4"	"49/46"	95	stress_45	"POPTR_0006s10080.1"	1182	"	"A/G"	"58,2/41,8"	"110/79"	189
stress_42	"POPTR_0004s08500.1"	192	"	"G/A"	"50,7/49,3"	"496/482"	978	stress_45	"POPTR_0004s08500.1"	192	"	"A/G"	"50,0/49,9"	"511/510"	1022
stress_42	"POPTR_0008s15780.1"	428	"	"C/T"	"53,7/46,3"	"498/429"	927	stress_45	"POPTR_0008s15780.1"	428	"	"C/T"	"52,6/47,4"	"543/490"	1033
stress_42	"POPTR_0009s05840.1"	405	"	"T/C"	"70,4/29,6"	"50/21"	71	stress_45	"POPTR_0009s05840.1"	405	"	"T/C"	"61,7/38,3"	"87/54"	141
stress_42	"POPTR_0011s08940.1"	794	"	"C/G"	"64,1/35,9"	"50/28"	78	stress_45	"POPTR_0011s08940.1"	794	"	"C/G"	"67,8/32,2"	"103/49"	152
stress_42	"POPTR_0007s08390.1"	1380	"	"T/C"	"61,0/39,0"	"50/32"	82	stress_45	"POPTR_0007s08390.1"	1380	"	"T/C"	"56,6/43,4"	"116/89"	205
stress_42	"POPTR_0001s12960.1"	543	"	"C/T"	"58,1/41,9"	"50/36"	86	stress_45	"POPTR_0001s12960.1"	543	"	"C/T"	"54,5/44,6"	"61/50"	112
stress_42	"POPTR_0016s08580.1"	615	"	"T/G"	"58,1/41,9"	"50/36"	86	stress_45	"POPTR_0016s08580.1"	615	"	"T/G"	"59,2/40,8"	"74/51"	125
stress_42	"POPTR_0007s13110.1"	219	"	"C/T"	"56,8/43,2"	"50/38"	88	stress_45	"POPTR_0007s13110.1"	219	"	"T/C"	"51,8/48,2"	"59/55"	114
stress_42	"POPTR_0008s22310.1"	92	"	"C/T"	"54,3/45,7"	"50/42"	92	stress_45	"POPTR_0008s22310.1"	92	"	"C/T"	"59,1/40,9"	"81/56"	137
stress_42	"POPTR_0014s02550.1"	1911	"	"A/G"	"53,8/46,2"	"50/43"	93	stress_45	"POPTR_0014s02550.1"	1911	"	"A/G"	"54,8/45,2"	"57/47"	104
stress_42	"POPTR_0005s11500.1"	873	"	"G/A"	"52,6/47,4"	"50/45"	95	stress_45	"POPTR_0005s11500.1"	873	"	"A/G"	"50,0/50,0"	"66/66"	132
stress_42	"POPTR_0006s24770.1"	258	"	"G/T"	"52,1/47,9"	"50/46"	96	stress_45	"POPTR_0006s24770.1"	258	"	"G/T"	"50,0/50,0"	"71/71"	142
stress_42	"POPTR_0006s28990.1"	2841	"	"C/T"	"51,0/49,0"	"50/48"	98	stress_45	"POPTR_0006s28990.1"	2841	"	"C/T"	"57,3/42,7"	"67/50"	117
stress_42	"POPTR_0010s11780.1"	647	"	"C/A"	"51,0/49,0"	"50/48"	98	stress_45	"POPTR_0010s11780.1"	647	"	"C/A"	"63,9/36,1"	"92/52"	144
stress_42	"POPTR_0006s14400.1"	415	"	"C/G"	"76,1/23,9"	"502/158"	660	stress_45	"POPTR_0006s14400.1"	415	"	"C/G"	"74,3/25,7"	"728/252"	980
stress_42	"POPTR_0009s05840.1"	382	"	"T/C"	"65,4/34,6"	"51/27"	78	stress_45	"POPTR_0009s05840.1"	382	"	"T/C"	"59,0/41,0"	"92/64"	156
stress_42	"POPTR_0011s05250.1"	1350	"	"G/A"	"64,6/35,4"	"51/28"	79	stress_45	"POPTR_0011s05250.1"	1350	"	"G/A"	"61,4/38,6"	"94/59"	153
stress_42	"POPTR_0010s20810.1"	173	"	"T/C"	"60,7/39,3"	"51/33"	84	stress_45	"POPTR_0010s20810.1"	173	"	"T/C"	"63,3/36,7"	"88/51"	139
stress_42	"POPTR_0010s21270.1"	1842	"	"C/G"	"60,0/40,0"	"51/34"	85	stress_45	"POPTR_0010s21270.1"	1842	"	"C/G"	"50,8/49,2"	"65/63"	128
stress_42	"POPTR_0014s02410.1"	55	"	"G/A"	"58,6/41,4"	"51/36"	87	stress_45	"POPTR_0014s02410.1"	55	"	"G/A"	"53,8/46,2"	"107/92"	199
stress_42	"POPTR_0012s07060.1"	1053	"	"C/T"	"54,8/44,1"	"51/41"	93	stress_45	"POPTR_0012s07060.1"	1053	"	"C/T"	"56,0/44,0"	"79/62"	141
stress_42	"POPTR_0008s20590.1"	486	"	"T/C"	"54,8/45,2"	"51/42"	93	stress_45	"POPTR_0008s20590.1"	486	"	"T/C"	"52,6/47,4"	"80/72"	152
stress_42	"POPTR_0008s09150.1"	59	"	"A/T"	"54,8/45,2"	"51/42"	93	stress_45	"POPTR_0008s09150.1"	59	"	"A/T"	"54,0/46,0"	"75/64"	139
stress_42	"POPTR_0012s07270.1"	501	"	"T/C"	"54,3/45,7"	"51/43"	94	stress_45	"POPTR_0012s07270.1"	501	"	"T/C"	"50,5/48,6"	"53/51"	105
stress_42	"POPTR_0001s36050.1"	315	"	"G/A"	"54,3/45,7"	"51/43"	94	stress_45	"POPTR_0001s36050.1"	315	"	"G/A"	"51,5/48,5"	"53/50"	103
stress_42	"POPTR_0004s08380.1"	928	"	"A/G"	"52,6/46,4"	"51/45"	97	stress_45	"POPTR_0004s08380.1"	928	"	"G/A"	"51,4/48,6"	"54/51"	105
stress_42	"POPTR_0011s05250.1"	1644	"	"C/T"	"53,1/46,9"	"51/45"	96	stress_45	"POPTR_0011s05250.1"	1644	"	"C/T"	"57,1/42,9"	"80/60"	140
stress_42	"POPTR_0014s01970.1"	462	"	"T/G"	"52,6/47,4"	"51/46"	97	stress_45	"POPTR_0014s01970.1"	462	"	"T/G"	"50,5/49,5"	"53/52"	105
stress_42	"POPTR_0006s28990.1"	2460	"	"T/C"	"50,0/49,0"	"51/50"	102	stress_45	"POPTR_0006s28990.1"	2460	"	"C/T"	"57,7/42,3"	"60/44"	104
stress_42	"POPTR_0004s00480.1"	152	"	"C/A"	"80,0/20,0"	"52/13"	65	stress_45	"POPTR_0004s00480.1"	152	"	"C/A"	"82,6/17,4"	"95/20"	115
stress_42	"POPTR_0006s06770.1"	508	"	"G/A"	"75,4/24,6"	"52/17"	69	stress_45	"POPTR_0006s06770.1"	508	"	"G/A"	"75,8/24,2"	"125/40"	165
stress_42	"POPTR_0014s15710.1"	156	"	"A/G"	"71,2/28,8"	"52/21"	73	stress_45	"POPTR_0014s15710.1"	156	"	"A/G"	"71,3/28,7"	"82/33"	115
stress_42	"POPTR_0007s15300.1"	495	"	"G/T"	"66,7/33,3"	"52/26"	78	stress_45	"POPTR_0007s15300.1"	495	"	"G/T"	"65,1/34,9"	"71/38"	109
stress_42	"POPTR_0017s14470.1"	492	"	"G/T"	"65,8/34,2"	"52/27"	79	stress_45	"POPTR_0017s14470.1"	492	"	"G/T"	"59,7/40,3"	"71/48"	119
stress_42	"POPTR_0015s13050.1"	554	"	"A/C"	"64,2/35,8"	"52/29"	81	stress_45	"POPTR_0015s13050.1"	554	"	"A/C"	"59,3/40,7"	"80/55"	135
stress_42	"POPTR_0010s07020.1"	346	"	"A/T"	"64,2/35,8"	"52/29"	81	stress_45	"POPTR_0010s07020.1"	346	"	"A/T"	"61,3/38,7"	"73/46"	119
stress_42	"POPTR_0001s32780.1"	1143	"	"T/C"	"63,4/36,6"	"52/30"	82	stress_45	"POPTR_0001s32780.1"	1143	"	"T/C"	"60,9/38,4"	"84/53"	138
stress_42	"POPTR_0001s47020.1"	1972	"	"C/A"	"62,7/37,3"	"52/31"	83	stress_45	"POPTR_0001s47020.1"	1972	"	"C/A"	"53,9/46,1"	"83/71"	154
stress_42	"POPTR_0001s31700.1"	174	"	"T/C"	"61,2/38,8"	"52/33"	85	stress_45	"POPTR_0001s31700.1"	174	"	"T/C"	"64,3/35,0"	"90/49"	140
stress_42	"POPTR_0016s08580.1"	616	"	"A/T"	"59,8/40,2"	"52/35"	87	stress_45	"POPTR_0016s08580.1"	616	"	"A/T"	"59,2/40,8"	"74/51"	125
stress_42	"POPTR_0014s01970.1"	250	"	"G/A"	"57,1/42,9"	"52/39"	91	stress_45	"POPTR_0014s01970.1"	250	"	"G/A"	"68,2/31,8"	"73/34"	107
stress_42	"POPTR_0007s11960.1"	507	"	"T/A"	"56,5/43,5"	"52/40"	92	stress_45	"POPTR_0007s11960.1"	507	"	"T/A"	"59,4/40,6"	"63/43"	106
stress_42	"POPTR_0008s06720.1"	41	"	"C/G"	"54,7/45,3"	"52/43"	95	stress_45	"POPTR_0008s06720.1"	41	"	"C/G"	"64,4/35,6"	"76/42"	118
stress_42	"POPTR_0016s11670.1"	261	"	"C/T"	"54,2/45,8"	"52/44"	96	stress_45	"POPTR_0016s11670.1"	261	"	"C/T"	"60,0/40,0"	"66/44"	110
stress_42	"POPTR_0014s01970.1"	922	"	"A/T"	"53,6/46,4"	"52/45"	97	stress_45	"POPTR_0014s01970.1"	922	"	"A/T"	"53,3/46,7"	"65/57"	122
stress_42	"POPTR_0010s11780.1"	703	"	"G/C"	"53,6/46,4"	"52/45"	97	stress_45	"POPTR_0010s11780.1"	703	"	"C/G"	"54,4/45,6"	"62/52"	114
stress_42	"POPTR_0018s01420.1"	108	"	"C/A"	"52,5/47,5"	"52/47"	99	stress_45	"POPTR_0018s01420.1"	108	"	"C/A"	"53,4/46,6"	"62/54"	116
stress_42	"POPTR_0010s09960.1"	588	"	"G/A"	"51,5/47,5"	"52/48"	101	stress_45	"POPTR_0010s09960.1"	588	"	"G/A"	"53,0/47,0"	"53/47"	100
stress_42	"POPTR_0006s10130.1"	321	"	"G/A"	"51,0/49,0"	"52/50"	102	stress_45	"POPTR_0006s10130.1"	321	"	"G/A"	"56,3/43,7"	"71/55"	126
stress_42	"POPTR_0008s20770.1"	303	"	"A/G"	"50,5/48,5"	"52/50"	103	stress_45	"POPTR_0008s20770.1"	303	"	"A/G"	"56,4/43,6"	"75/58"	133
stress_42	"POPTR_0002s01320.1"	1761	"	"A/T"	"50,0/49,0"	"52/51"	104	stress_45	"POPTR_0002s01320.1"	1761	"	"T/A"	"53,9/46,1"	"83/71"	154
stress_42	"POPTR_0006s14400.1"	504	"	"C/T"	"77,2/22,8"	"522/154"	676	stress_45	"POPTR_0006s14400.1"	504	"	"C/T"	"78,3/21,7"	"734/204"	938
stress_42	"POPTR_0004s08500.1"	249	"	"T/C"	"60,3/39,7"	"526/347"	873	stress_45	"POPTR_0004s08500.1"	249	"	"T/C"	"61,2/38,8"	"567/359"	926
stress_42	"POPTR_0006s06770.1"	337	"	"G/A"	"75,7/24,3"	"53/17"	70	stress_45	"POPTR_0006s06770.1"	337	"	"G/A"	"77,5/22,5"	"100/29"	129
stress_42	"POPTR_0008s05480.1"	162	"	"A/C"	"74,6/25,4"	"53/18"	71	stress_45	"POPTR_0008s05480.1"	162	"	"A/C"	"77,5/22,0"	"169/48"	218
stress_42	"POPTR_0017s14470.1"	1371	"	"G/A"	"70,7/28,0"	"53/21"	75	stress_45	"POPTR_0017s14470.1"	1371	"	"G/A"	"57,8/42,2"	"59/43"	102
stress_42	"POPTR_0002s25260.1"	481	"	"A/G"	"64,6/35,4"	"53/29"	82	stress_45	"POPTR_0002s25260.1"	481	"	"A/G"	"51,8/48,2"	"57/53"	110
stress_42	"POPTR_0004s00480.1"	261	"	"T/G"	"63,1/36,9"	"53/31"	84	stress_45	"POPTR_0004s00480.1"	261	"	"T/G"	"55,0/45,0"	"66/54"	120
stress_42	"POPTR_0014s05640.1"	552	"	"A/G"	"61,6/38,4"	"53/33"	86	stress_45	"POPTR_0014s05640.1"	552	"	"A/G"	"66,7/33,3"	"86/43"	129
stress_42	"POPTR_0001s47020.1"	1869	"	"T/G"	"59,6/40,4"	"53/36"	89	stress_45	"POPTR_0001s47020.1"	1869	"	"G/T"	"50,0/50,0"	"81/81"	162
stress_42	"POPTR_0001s47020.1"	1757	"	"G/A"	"56,4/43,6"	"53/41"	94	stress_45	"POPTR_0001s47020.1"	1757	"	"G/A"	"54,6/45,4"	"95/79"	174
stress_42	"POPTR_0016s05530.1"	717	"	"G/T"	"56,4/43,6"	"53/41"	94	stress_45	"POPTR_0016s05530.1"	717	"	"T/G"	"51,3/48,7"	"79/75"	154
stress_42	"POPTR_0001s14280.1"	243	"	"A/G"	"55,8/44,2"	"53/42"	95	stress_45	"POPTR_0001s14280.1"	243	"	"A/G"	"50,6/49,4"	"87/85"	172
stress_42	"POPTR_0006s12910.1"	658	"	"T/A"	"54,6/45,4"	"53/44"	97	stress_45	"POPTR_0006s12910.1"	658	"	"A/T"	"56,5/43,5"	"78/60"	138
stress_42	"POPTR_0014s02410.1"	70	"	"T/C"	"53,0/47,0"	"53/47"	100	stress_45	"POPTR_0014s02410.1"	70	"	"C/T"	"50,5/49,5"	"104/102"	206
stress_42	"POPTR_0006s12910.1"	551	"	"A/G"	"52,0/48,0"	"53/49"	102	stress_45	"POPTR_0006s12910.1"	551	"	"G/A"	"52,8/47,2"	"66/59"	125
stress_42	"POPTR_0001s12960.1"	588	"	"T/C"	"52,0/48,0"	"53/49"	102	stress_45	"POPTR_0001s12960.1"	588	"	"T/C"	"60,3/39,7"	"82/54"	136
stress_42	"POPTR_0001s35230.1"	267	"	"G/A"	"52,0/48,0"	"53/49"	102	stress_45	"POPTR_0001s35230.1"	267	"	"G/A"	"57,0/43,0"	"69/52"	121
stress_42	"POPTR_0014s02410.1"	94	"	"C/G"	"51,5/48,5"	"53/50"	103	stress_45	"POPTR_0014s02410.1"	94	"	"G/C"	"52,1/47,9"	"135/124"	259
stress_42	"POPTR_0008s04210.1"	1299	"	"T/A"	"50,5/49,5"	"53/52"	105	stress_45	"POPTR_0008s04210.1"	1299	"	"A/T"	"59,9/40,1"	"88/59"	147
stress_42	"POPTR_0001s40250.1"	2166	"	"G/A"	"76,1/23,9"	"54/17"	71	stress_45	"POPTR_0001s40250.1"	2166	"	"G/A"	"80,7/19,3"	"146/35"	181
stress_42	"POPTR_0005s24500.1"	621	"	"C/T"	"67,5/32,5"	"54/26"	80	stress_45	"POPTR_0005s24500.1"	621	"	"T/C"	"63,5/36,5"	"80/46"	126
stress_42	"POPTR_0004s16920.1"	42	"	"C/T"	"66,7/33,3"	"54/27"	81	stress_45	"POPTR_0004s16920.1"	42	"	"C/T"	"68,5/31,5"	"98/45"	143
stress_42	"POPTR_0009s13890.1"	697	"	"G/A"	"65,9/34,1"	"54/28"	82	stress_45	"POPTR_0009s13890.1"	697	"	"G/A"	"66,7/33,3"	"84/42"	126
stress_42	"POPTR_0019s15250.1"	216	"	"C/T"	"65,1/34,9"	"54/29"	83	stress_45	"POPTR_0019s15250.1"	216	"	"C/T"	"63,4/36,6"	"64/37"	101
stress_42	"POPTR_0010s21270.1"	1785	"	"C/A"	"62,8/37,2"	"54/32"	86	stress_45	"POPTR_0010s21270.1"	1785	"	"C/A"	"60,2/39,8"	"115/76"	191
stress_42	"POPTR_0008s22310.1"	168	"	"C/G"	"62,8/37,2"	"54/32"	86	stress_45	"POPTR_0008s22310.1"	168	"	"C/G"	"51,3/48,7"	"58/55"	113
stress_42	"POPTR_0005s21750.1"	367	"	"A/G"	"58,1/41,9"	"54/39"	93	stress_45	"POPTR_0005s21750.1"	367	"	"A/G"	"55,6/44,4"	"60/48"	108
stress_42	"POPTR_0006s24570.1"	2988	"	"A/G"	"53,5/46,5"	"54/47"	101	stress_45	"POPTR_0006s24570.1"	2988	"	"A/G"	"50,6/49,4"	"45/44"	89
stress_42	"POPTR_0006s10040.1"	198	"	"C/A"	"52,9/47,1"	"54/48"	102	stress_45	"POPTR_0006s10040.1"	198	"	"C/A"	"51,1/48,9"	"48/46"	94
stress_42	"POPTR_0002s19060.1"	1201	"	"G/A"	"52,9/47,1"	"54/48"	102	stress_45	"POPTR_0002s19060.1"	1201	"	"A/G"	"50,8/49,2"	"63/61"	124
stress_42	"POPTR_0006s24770.1"	43	"	"A/C"	"51,4/48,6"	"54/51"	105	stress_45	"POPTR_0006s24770.1"	43	"	"C/A"	"54,4/45,6"	"81/68"	149
stress_42	"POPTR_0008s09150.1"	180	"	"C/T"	"51,4/48,6"	"54/51"	105	stress_45	"POPTR_0008s09150.1"	180	"	"C/T"	"50,5/49,5"	"105/103"	208
stress_42	"POPTR_0001s40250.1"	2232	"	"A/T"	"78,6/21,4"	"55/15"	70	stress_45	"POPTR_0001s40250.1"	2232	"	"A/T"	"72,0/28,0"	"121/47"	168
stress_42	"POPTR_0015s13050.1"	207	"	"T/G"	"77,5/22,5"	"55/16"	71	stress_45	"POPTR_0015s13050.1"	207	"	"T/G"	"68,8/31,2"	"132/60"	192
stress_42	"POPTR_0017s14470.1"	1372	"	"C/A"	"73,3/26,7"	"55/20"	75	stress_45	"POPTR_0017s14470.1"	1372	"	"C/A"	"59,8/40,2"	"61/41"	102
stress_42	"POPTR_0014s13560.1"	1092	"	"T/C"	"70,5/29,5"	"55/23"	78	stress_45	"POPTR_0014s13560.1"	1092	"	"T/C"	"62,1/37,9"	"64/39"	103
stress_42	"POPTR_0002s22220.1"	477	"	"C/A"	"66,3/31,3"	"55/26"	83	stress_45	"POPTR_0002s22220.1"	477	"	"C/A"	"67,0/33,0"	"69/34"	103
stress_42	"POPTR_0001s40250.1"	2370	"	"G/C"	"66,3/33,7"	"55/28"	83	stress_45	"POPTR_0001s40250.1"	2370	"	"G/C"	"76,0/24,0"	"152/48"	200
stress_42	"POPTR_0013s13220.1"	757	"	"G/C"	"58,5/41,5"	"55/39"	94	stress_45	"POPTR_0013s13220.1"	757	"	"G/C"	"54,3/45,7"	"70/59"	129
stress_42	"POPTR_0004s00480.1"	298	"	"G/A"	"57,3/42,7"	"55/41"	96	stress_45	"POPTR_0004s00480.1"	298	"	"G/A"	"56,8/43,2"	"63/48"	111
stress_42	"POPTR_0001s47020.1"	1908	"	"T/C"	"57,3/42,7"	"55/41"	96	stress_45	"POPTR_0001s47020.1"	1908	"	"T/C"	"53,6/46,4"	"74/64"	138
stress_42	"POPTR_0012s07060.1"	1272	"	"A/G"	"56,7/43,3"	"55/42"	97	stress_45	"POPTR_0012s07060.1"	1272	"	"A/G"	"59,5/40,5"	"72/49"	121
stress_42	"POPTR_0009s11920.1"	135	"	"A/T"	"55,6/44,4"	"55/44"	99	stress_45	"POPTR_0009s11920.1"	135	"	"T/A"	"53,4/46,1"	"103/89"	193
stress_42	"POPTR_0001s30310.1"	84	"	"C/T"	"55,0/45,0"	"55/45"	100	stress_45	"POPTR_0001s30310.1"	84	"	"T/C"	"58,1/41,9"	"61/44"	105
stress_42	"POPTR_0004s18190.1"	654	"	"C/G"	"53,9/45,1"	"55/46"	102	stress_45	"POPTR_0004s18190.1"	654	"	"C/G"	"53,0/47,0"	"62/55"	117
stress_42	"POPTR_0007s12070.1"	687	"	"T/A"	"53,9/46,1"	"55/47"	102	stress_45	"POPTR_0007s12070.1"	687	"	"A/T"	"50,0/50,0"	"50/50"	100
stress_42	"POPTR_0004s02080.1"	411	"	"A/T"	"51,4/48,6"	"55/52"	107	stress_45	"POPTR_0004s02080.1"	411	"	"T/A"	"56,3/43,7"	"107/83"	190
stress_42	"POPTR_0001s25670.1"	153	"	"C/T"	"51,4/48,6"	"55/52"	107	stress_45	"POPTR_0001s25670.1"	153	"	"C/T"	"55,1/44,9"	"38/31"	69
stress_42	"POPTR_0010s01700.1"	135	"	"T/C"	"58,7/41,2"	"559/393"	953	stress_45	"POPTR_0010s01700.1"	135	"	"T/C"	"58,6/41,4"	"587/414"	1001
stress_42	"POPTR_0017s14470.1"	810	"	"C/A"	"67,5/31,3"	"56/26"	83	stress_45	"POPTR_0017s14470.1"	810	"	"C/A"	"63,5/36,5"	"99/57"	156
stress_42	"POPTR_0014s15710.1"	453	"	"C/T"	"65,1/34,9"	"56/30"	86	stress_45	"POPTR_0014s15710.1"	453	"	"C/T"	"72,4/27,6"	"84/32"	116
stress_42	"POPTR_0007s08400.1"	1566	"	"T/C"	"64,4/34,5"	"56/30"	87	stress_45	"POPTR_0007s08400.1"	1566	"	"T/C"	"63,3/36,7"	"152/88"	240
stress_42	"POPTR_0018s02230.1"	132	"	"A/C"	"64,4/35,6"	"56/31"	87	stress_45	"POPTR_0018s02230.1"	132	"	"A/C"	"59,4/40,6"	"98/67"	165
stress_42	"POPTR_0009s12420.1"	40	"	"T/C"	"62,9/37,1"	"56/33"	89	stress_45	"POPTR_0009s12420.1"	40	"	"T/C"	"72,3/27,7"	"94/36"	130
stress_42	"POPTR_0011s12400.1"	389	"	"C/G"	"61,5/38,5"	"56/35"	91	stress_45	"POPTR_0011s12400.1"	389	"	"G/C"	"52,7/47,3"	"58/52"	110
stress_42	"POPTR_0006s12910.1"	780	"	"G/A"	"54,4/45,6"	"56/47"	103	stress_45	"POPTR_0006s12910.1"	780	"	"G/A"	"58,5/41,5"	"72/51"	123
stress_42	"POPTR_0014s01970.1"	499	"	"A/T"	"53,3/46,7"	"56/49"	105	stress_45	"POPTR_0014s01970.1"	499	"	"T/A"	"53,8/46,2"	"63/54"	117
stress_42	"POPTR_0006s23580.1"	315	"	"T/G"	"51,9/46,3"	"56/50"	108	stress_45	"POPTR_0006s23580.1"	315	"	"T/G"	"51,9/48,1"	"69/64"	133
stress_42	"POPTR_0001s35230.1"	42	"	"A/C"	"52,8/47,2"	"56/50"	106	stress_45	"POPTR_0001s35230.1"	42	"	"A/C"	"50,4/49,6"	"68/67"	135
stress_42	"POPTR_0015s06060.1"	288	"	"A/T"	"50,5/48,6"	"56/54"	111	stress_45	"POPTR_0015s06060.1"	288	"	"T/A"	"52,3/46,8"	"58/52"	111
stress_42	"POPTR_0004s08500.1"	153	"	"T/C"	"58,5/41,4"	"566/400"	967	stress_45	"POPTR_0004s08500.1"	153	"	"T/C"	"55,6/44,3"	"596/475"	1072
stress_42	"POPTR_0009s13890.1"	669	"	"G/A"	"67,9/32,1"	"57/27"	84	stress_45	"POPTR_0009s13890.1"	669	"	"G/A"	"65,2/34,8"	"86/46"	132
stress_42	"POPTR_0007s15300.1"	867	"	"T/A"	"67,9/32,1"	"57/27"	84	stress_45	"POPTR_0007s15300.1"	867	"	"T/A"	"70,2/29,8"	"87/37"	124
stress_42	"POPTR_0013s10250.1"	96	"	"C/T"	"67,1/32,9"	"57/28"	85	stress_45	"POPTR_0013s10250.1"	96	"	"C/T"	"67,5/32,5"	"77/37"	114
stress_42	"POPTR_0001s40250.1"	2542	"	"C/G"	"63,3/36,7"	"57/33"	90	stress_45	"POPTR_0001s40250.1"	2542	"	"C/G"	"65,7/34,3"	"94/49"	143
stress_42	"POPTR_0006s24770.1"	655	"	"G/A"	"62,0/38,0"	"57/35"	92	stress_45	"POPTR_0006s24770.1"	655	"	"G/A"	"61,5/38,5"	"64/40"	104
stress_42	"POPTR_0011s05250.1"	1146	"	"A/G"	"62,0/38,0"	"57/35"	92	stress_45	"POPTR_0011s05250.1"	1146	"	"A/G"	"56,6/42,8"	"94/71"	166
stress_42	"POPTR_0002s22220.1"	562	"	"C/A"	"60,6/39,4"	"57/37"	94	stress_45	"POPTR_0002s22220.1"	562	"	"A/C"	"56,2/42,3"	"77/58"	137
stress_42	"POPTR_0006s23580.1"	464	"	"T/C"	"58,2/41,8"	"57/41"	98	stress_45	"POPTR_0006s23580.1"	464	"	"T/C"	"58,7/41,3"	"74/52"	126
stress_42	"POPTR_0006s23580.1"	297	"	"T/C"	"57,6/42,4"	"57/42"	99	stress_45	"POPTR_0006s23580.1"	297	"	"C/T"	"51,9/48,1"	"54/50"	104
stress_42	"POPTR_0002s25620.1"	543	"	"T/C"	"57,6/42,4"	"57/42"	99	stress_45	"POPTR_0002s25620.1"	543	"	"T/C"	"60,3/39,7"	"73/48"	121
stress_42	"POPTR_0004s01470.1"	187	"	"G/C"	"56,4/43,6"	"57/44"	101	stress_45	"POPTR_0004s01470.1"	187	"	"G/C"	"59,5/40,5"	"75/51"	126
stress_42	"POPTR_0014s15910.1"	219	"	"C/G"	"55,9/44,1"	"57/45"	102	stress_45	"POPTR_0014s15910.1"	219	"	"G/C"	"53,1/46,9"	"43/38"	81
stress_42	"POPTR_0005s26610.1"	480	"	"C/G"	"54,8/45,2"	"57/47"	104	stress_45	"POPTR_0005s26610.1"	480	"	"C/G"	"50,5/49,5"	"53/52"	105
stress_42	"POPTR_0012s09570.1"	804	"	"T/C"	"53,8/46,2"	"57/49"	106	stress_45	"POPTR_0012s09570.1"	804	"	"C/T"	"51,1/48,9"	"95/91"	186
stress_42	"POPTR_0006s12350.1"	270	"	"C/T"	"53,3/46,7"	"57/50"	107	stress_45	"POPTR_0006s12350.1"	270	"	"C/T"	"62,4/37,6"	"63/38"	101
stress_42	"POPTR_0005s11780.1"	615	"	"T/C"	"52,8/47,2"	"57/51"	108	stress_45	"POPTR_0005s11780.1"	615	"	"T/C"	"53,6/46,4"	"75/65"	140
stress_42	"POPTR_0001s41460.1"	770	"	"G/A"	"52,8/47,2"	"57/51"	108	stress_45	"POPTR_0001s41460.1"	770	"	"A/G"	"52,3/47,7"	"46/42"	88
stress_42	"POPTR_0006s10080.1"	1158	"	"T/C"	"51,4/48,6"	"57/54"	111	stress_45	"POPTR_0006s10080.1"	1158	"	"T/C"	"53,4/46,6"	"103/90"	193
stress_42	"POPTR_0006s11570.1"	1116	"	"T/C"	"51,4/48,6"	"57/54"	111	stress_45	"POPTR_0006s11570.1"	1116	"	"C/T"	"50,6/49,4"	"79/77"	156
stress_42	"POPTR_0016s05530.1"	681	"	"G/C"	"51,4/48,6"	"57/54"	111	stress_45	"POPTR_0016s05530.1"	681	"	"C/G"	"50,6/49,4"	"85/83"	168
stress_42	"POPTR_0010s00900.1"	117	"	"C/T"	"50,0/50,0"	"57/57"	114	stress_45	"POPTR_0010s00900.1"	117	"	"C/T"	"57,0/43,0"	"86/65"	151
stress_42	"POPTR_0008s12550.1"	1335	"	"C/G"	"50,0/50,0"	"57/57"	114	stress_45	"POPTR_0008s12550.1"	1335	"	"G/C"	"53,5/46,5"	"84/73"	157
stress_42	"POPTR_0017s14470.1"	1377	"	"T/C"	"70,7/29,3"	"58/24"	82	stress_45	"POPTR_0017s14470.1"	1377	"	"T/C"	"66,0/34,0"	"70/36"	106
stress_42	"POPTR_0006s10040.1"	126	"	"G/A"	"70,7/29,3"	"58/24"	82	stress_45	"POPTR_0006s10040.1"	126	"	"G/A"	"63,3/36,7"	"81/47"	128
stress_42	"POPTR_0002s22220.1"	489	"	"C/T"	"69,9/30,1"	"58/25"	83	stress_45	"POPTR_0002s22220.1"	489	"	"C/T"	"77,9/22,1"	"88/25"	113
stress_42	"POPTR_0013s10250.1"	99	"	"C/A"	"69,0/31,0"	"58/26"	84	stress_45	"POPTR_0013s10250.1"	99	"	"C/A"	"67,0/33,0"	"75/37"	112
stress_42	"POPTR_0018s02230.1"	119	"	"A/C"	"67,4/32,6"	"58/28"	86	stress_45	"POPTR_0018s02230.1"	119	"	"A/C"	"61,1/38,9"	"99/63"	162
stress_42	"POPTR_0010s12680.1"	1536	"	"G/A"	"65,9/34,1"	"58/30"	88	stress_45	"POPTR_0010s12680.1"	1536	"	"G/A"	"58,2/41,8"	"78/56"	134
stress_42	"POPTR_0002s19060.1"	1062	"	"T/C"	"65,9/34,1"	"58/30"	88	stress_45	"POPTR_0002s19060.1"	1062	"	"T/C"	"51,4/48,6"	"57/54"	111
stress_42	"POPTR_0014s06380.1"	286	"	"T/C"	"64,4/35,6"	"58/32"	90	stress_45	"POPTR_0014s06380.1"	286	"	"T/C"	"63,5/36,5"	"87/50"	137
stress_42	"POPTR_0008s05480.1"	246	"	"T/C"	"63,7/36,3"	"58/33"	91	stress_45	"POPTR_0008s05480.1"	246	"	"T/C"	"51,2/48,8"	"152/145"	297
stress_42	"POPTR_0011s12400.1"	383	"	"G/C"	"63,0/37,0"	"58/34"	92	stress_45	"POPTR_0011s12400.1"	383	"	"G/C"	"50,5/49,5"	"55/54"	109
stress_42	"POPTR_0011s05250.1"	1602	"	"G/T"	"61,7/38,3"	"58/36"	94	stress_45	"POPTR_0011s05250.1"	1602	"	"G/T"	"53,4/46,6"	"79/69"	148
stress_42	"POPTR_0010s21270.1"	1776	"	"C/T"	"61,7/38,3"	"58/36"	94	stress_45	"POPTR_0010s21270.1"	1776	"	"C/T"	"58,4/41,1"	"118/83"	202
stress_42	"POPTR_0002s14730.1"	1647	"	"A/G"	"60,4/39,6"	"58/38"	96	stress_45	"POPTR_0002s14730.1"	1647	"	"A/G"	"65,8/34,2"	"98/51"	149
stress_42	"POPTR_0001s09030.1"	534	"	"T/C"	"59,8/40,2"	"58/39"	97	stress_45	"POPTR_0001s09030.1"	534	"	"T/C"	"66,7/33,3"	"98/49"	147
stress_42	"POPTR_0014s15960.1"	228	"	"T/C"	"58,6/41,4"	"58/41"	99	stress_45	"POPTR_0014s15960.1"	228	"	"T/C"	"59,0/40,2"	"72/49"	122
stress_42	"POPTR_0006s10040.1"	363	"	"G/A"	"54,2/45,8"	"58/49"	107	stress_45	"POPTR_0006s10040.1"	363	"	"G/A"	"59,6/40,4"	"65/44"	109
stress_42	"POPTR_0001s14280.1"	483	"	"T/C"	"53,7/46,3"	"58/50"	108	stress_45	"POPTR_0001s14280.1"	483	"	"C/T"	"51,2/48,8"	"66/63"	129
stress_42	"POPTR_0014s17070.1"	157	"	"A/G"	"53,2/46,8"	"58/51"	109	stress_45	"POPTR_0014s17070.1"	157	"	"A/G"	"53,1/46,9"	"77/68"	145
stress_42	"POPTR_0014s01970.1"	1044	"	"A/G"	"51,8/48,2"	"58/54"	112	stress_45	"POPTR_0014s01970.1"	1044	"	"A/G"	"58,6/41,4"	"65/46"	111
stress_42	"POPTR_0008s15770.1"	93	"	"T/C"	"79,0/21,0"	"588/156"	744	stress_45	"POPTR_0008s15770.1"	93	"	"T/C"	"70,6/29,4"	"660/275"	935
stress_42	"POPTR_0009s07210.1"	1372	"	"C/G"	"78,7/21,3"	"59/16"	75	stress_45	"POPTR_0009s07210.1"	1372	"	"C/G"	"83,4/16,0"	"146/28"	175
stress_42	"POPTR_0001s40250.1"	1938	"	"T/C"	"69,4/29,4"	"59/25"	85	stress_45	"POPTR_0001s40250.1"	1938	"	"T/C"	"75,2/23,6"	"124/39"	165
stress_42	"POPTR_0001s40250.1"	2575	"	"G/A"	"69,4/30,6"	"59/26"	85	stress_45	"POPTR_0001s40250.1"	2575	"	"G/A"	"68,2/31,8"	"101/47"	148
stress_42	"POPTR_0002s05840.1"	210	"	"A/T"	"67,8/32,2"	"59/28"	87	stress_45	"POPTR_0002s05840.1"	210	"	"A/T"	"56,4/43,6"	"62/48"	110
stress_42	"POPTR_0002s19060.1"	1053	"	"G/A"	"67,0/33,0"	"59/29"	88	stress_45	"POPTR_0002s19060.1"	1053	"	"G/A"	"52,8/47,2"	"57/51"	108
stress_42	"POPTR_0017s05700.1"	276	"	"G/A"	"66,3/33,7"	"59/30"	89	stress_45	"POPTR_0017s05700.1"	276	"	"G/A"	"73,2/26,8"	"82/30"	112
stress_42	"POPTR_0004s00480.1"	441	"	"T/C"	"61,5/38,5"	"59/37"	96	stress_45	"POPTR_0004s00480.1"	441	"	"T/C"	"58,5/41,5"	"72/51"	123
stress_42	"POPTR_0012s04550.1"	370	"	"T/C"	"60,2/38,8"	"59/38"	98	stress_45	"POPTR_0012s04550.1"	370	"	"T/C"	"62,5/36,5"	"65/38"	104
stress_42	"POPTR_0004s16920.1"	328	"	"G/A"	"57,8/42,2"	"59/43"	102	stress_45	"POPTR_0004s16920.1"	328	"	"G/A"	"64,5/34,9"	"98/53"	152
stress_42	"POPTR_0007s15300.1"	600	"	"A/G"	"57,3/42,7"	"59/44"	103	stress_45	"POPTR_0007s15300.1"	600	"	"A/G"	"63,3/36,7"	"57/33"	90
stress_42	"POPTR_0004s01470.1"	597	"	"A/T"	"55,7/44,3"	"59/47"	106	stress_45	"POPTR_0004s01470.1"	597	"	"A/T"	"60,0/40,0"	"75/50"	125
stress_42	"POPTR_0001s32780.1"	810	"	"C/T"	"52,2/47,8"	"59/54"	113	stress_45	"POPTR_0001s32780.1"	810	"	"T/C"	"56,8/43,2"	"105/80"	185
stress_42	"POPTR_0014s01970.1"	400	"	"G/T"	"51,8/48,2"	"59/55"	114	stress_45	"POPTR_0014s01970.1"	400	"	"G/T"	"61,0/39,0"	"86/55"	141
stress_42	"POPTR_0001s38810.1"	84	"	"T/C"	"50,4/49,6"	"59/58"	117	stress_45	"POPTR_0001s38810.1"	84	"	"C/T"	"52,6/47,4"	"92/83"	175
stress_42	"POPTR_0005s15660.1"	256	"	"C/A"	"64,2/34,9"	"596/324"	929	stress_45	"POPTR_0005s15660.1"	256	"	"C/A"	"58,3/40,4"	"459/318"	787
stress_42	"POPTR_0001s09570.1"	519	"	"C/T"	"82,2/17,8"	"60/13"	73	stress_45	"POPTR_0001s09570.1"	519	"	"C/T"	"81,5/18,5"	"88/20"	108
stress_42	"POPTR_0006s27170.1"	234	"	"A/G"	"77,9/22,1"	"60/17"	77	stress_45	"POPTR_0006s27170.1"	234	"	"A/G"	"80,0/20,0"	"88/22"	110
stress_42	"POPTR_0006s13310.1"	1332	"	"G/A"	"69,8/29,1"	"60/25"	86	stress_45	"POPTR_0006s13310.1"	1332	"	"G/A"	"55,7/44,3"	"73/58"	131
stress_42	"POPTR_0017s08610.1"	204	"	"C/T"	"64,5/35,5"	"60/33"	93	stress_45	"POPTR_0017s08610.1"	204	"	"C/T"	"65,6/33,9"	"126/65"	192
stress_42	"POPTR_0017s14470.1"	534	"	"T/A"	"63,8/35,1"	"60/33"	94	stress_45	"POPTR_0017s14470.1"	534	"	"T/A"	"66,9/32,5"	"105/51"	157
stress_42	"POPTR_0004s16740.1"	843	"	"C/T"	"63,8/36,2"	"60/34"	94	stress_45	"POPTR_0004s16740.1"	843	"	"C/T"	"72,1/27,9"	"93/36"	129
stress_42	"POPTR_0006s28990.1"	1671	"	"T/C"	"62,5/37,5"	"60/36"	96	stress_45	"POPTR_0006s28990.1"	1671	"	"T/C"	"50,8/49,2"	"63/61"	124
stress_42	"POPTR_0004s16740.1"	786	"	"A/G"	"60,6/39,4"	"60/39"	99	stress_45	"POPTR_0004s16740.1"	786	"	"A/G"	"74,4/25,6"	"90/31"	121
stress_42	"POPTR_0013s13220.1"	378	"	"G/A"	"59,4/40,6"	"60/41"	101	stress_45	"POPTR_0013s13220.1"	378	"	"G/A"	"62,8/37,2"	"98/58"	156
stress_42	"POPTR_0012s08330.1"	411	"	"T/C"	"58,3/40,8"	"60/42"	103	stress_45	"POPTR_0012s08330.1"	411	"	"T/C"	"69,2/29,0"	"74/31"	107
stress_42	"POPTR_0017s00850.1"	779	"	"A/C"	"57,1/41,9"	"60/44"	105	stress_45	"POPTR_0017s00850.1"	779	"	"C/A"	"51,7/48,3"	"60/56"	116
stress_42	"POPTR_0006s12910.1"	798	"	"T/C"	"56,6/43,4"	"60/46"	106	stress_45	"POPTR_0006s12910.1"	798	"	"T/C"	"59,1/40,9"	"68/47"	115
stress_42	"POPTR_0006s10080.1"	1234	"	"A/T"	"55,6/44,4"	"60/48"	108	stress_45	"POPTR_0006s10080.1"	1234	"	"A/T"	"51,7/48,3"	"119/111"	230
stress_42	"POPTR_0010s19860.1"	738	"	"C/T"	"55,6/44,4"	"60/48"	108	stress_45	"POPTR_0010s19860.1"	738	"	"C/T"	"56,5/43,5"	"83/64"	147
stress_42	"POPTR_0013s05790.1"	699	"	"G/A"	"53,1/46,9"	"60/53"	113	stress_45	"POPTR_0013s05790.1"	699	"	"A/G"	"54,7/45,3"	"47/39"	86
stress_42	"POPTR_0012s09570.1"	279	"	"A/C"	"52,2/47,0"	"60/54"	115	stress_45	"POPTR_0012s09570.1"	279	"	"A/C"	"50,8/49,2"	"101/98"	199
stress_42	"POPTR_0005s26610.1"	645	"	"G/T"	"51,7/48,3"	"60/56"	116	stress_45	"POPTR_0005s26610.1"	645	"	"G/T"	"66,7/33,3"	"64/32"	96
stress_42	"POPTR_0007s12070.1"	813	"	"G/A"	"50,8/49,2"	"60/58"	118	stress_45	"POPTR_0007s12070.1"	813	"	"A/G"	"52,0/48,0"	"51/47"	98
stress_42	"POPTR_0001s37480.1"	569	"	"C/T"	"77,2/22,8"	"61/18"	79	stress_45	"POPTR_0001s37480.1"	569	"	"C/T"	"67,1/32,9"	"110/54"	164
stress_42	"POPTR_0014s13560.1"	1659	"	"T/C"	"71,8/27,1"	"61/23"	85	stress_45	"POPTR_0014s13560.1"	1659	"	"T/C"	"74,6/24,6"	"94/31"	126
stress_42	"POPTR_0011s17170.1"	97	"	"A/C"	"67,0/31,9"	"61/29"	91	stress_45	"POPTR_0011s17170.1"	97	"	"A/C"	"66,4/33,6"	"71/36"	107
stress_42	"POPTR_0014s06380.1"	274	"	"A/T"	"62,2/37,8"	"61/37"	98	stress_45	"POPTR_0014s06380.1"	274	"	"A/T"	"61,6/38,4"	"77/48"	125
stress_42	"POPTR_0016s11670.1"	163	"	"C/T"	"61,0/39,0"	"61/39"	100	stress_45	"POPTR_0016s11670.1"	163	"	"C/T"	"54,9/45,1"	"62/51"	113
stress_42	"POPTR_0006s10040.1"	324	"	"G/A"	"60,4/39,6"	"61/40"	101	stress_45	"POPTR_0006s10040.1"	324	"	"G/A"	"51,5/48,5"	"51/48"	99
stress_42	"POPTR_0004s00480.1"	95	"	"T/C"	"58,7/41,3"	"61/43"	104	stress_45	"POPTR_0004s00480.1"	95	"	"T/C"	"56,7/43,3"	"97/74"	171
stress_42	"POPTR_0012s07270.1"	663	"	"G/A"	"58,1/41,9"	"61/44"	105	stress_45	"POPTR_0012s07270.1"	663	"	"A/G"	"51,3/48,7"	"58/55"	113
stress_42	"POPTR_0008s16670.1"	648	"	"T/C"	"58,1/41,9"	"61/44"	105	stress_45	"POPTR_0008s16670.1"	648	"	"T/C"	"56,8/43,2"	"79/60"	139
stress_42	"POPTR_0013s15560.1"	390	"	"G/A"	"56,0/44,0"	"61/48"	109	stress_45	"POPTR_0013s15560.1"	390	"	"A/G"	"52,1/47,0"	"61/55"	117
stress_42	"POPTR_0008s06720.1"	51	"	"T/G"	"55,0/45,0"	"61/50"	111	stress_45	"POPTR_0008s06720.1"	51	"	"T/G"	"63,2/36,8"	"86/50"	136
stress_42	"POPTR_0008s16670.1"	676	"	"G/A"	"55,0/45,0"	"61/50"	111	stress_45	"POPTR_0008s16670.1"	676	"	"G/A"	"55,3/44,7"	"83/67"	150
stress_42	"POPTR_0006s10080.1"	1206	"	"C/T"	"52,1/47,9"	"61/56"	117	stress_45	"POPTR_0006s10080.1"	1206	"	"C/T"	"51,4/48,6"	"107/101"	208
stress_42	"POPTR_0012s04550.1"	184	"	"C/T"	"77,5/22,5"	"62/18"	80	stress_45	"POPTR_0012s04550.1"	184	"	"C/T"	"70,1/29,9"	"75/32"	107
stress_42	"POPTR_0018s01420.1"	576	"	"C/T"	"73,8/26,2"	"62/22"	84	stress_45	"POPTR_0018s01420.1"	576	"	"C/T"	"58,2/41,8"	"85/61"	146
stress_42	"POPTR_0009s13890.1"	735	"	"T/C"	"69,7/30,3"	"62/27"	89	stress_45	"POPTR_0009s13890.1"	735	"	"T/C"	"67,8/32,2"	"82/39"	121
stress_42	"POPTR_0009s13890.1"	609	"	"T/C"	"68,1/31,9"	"62/29"	91	stress_45	"POPTR_0009s13890.1"	609	"	"T/C"	"69,3/30,7"	"95/42"	137
stress_42	"POPTR_0011s08940.1"	888	"	"T/C"	"59,0/41,0"	"62/43"	105	stress_45	"POPTR_0011s08940.1"	888	"	"T/C"	"57,8/42,2"	"115/84"	199
stress_42	"POPTR_0002s22600.1"	843	"	"A/G"	"55,9/44,1"	"62/49"	111	stress_45	"POPTR_0002s22600.1"	843	"	"A/G"	"55,0/45,0"	"82/67"	149
stress_42	"POPTR_0007s12070.1"	892	"	"G/A"	"53,9/46,1"	"62/53"	115	stress_45	"POPTR_0007s12070.1"	892	"	"G/A"	"59,6/40,4"	"62/42"	104
stress_42	"POPTR_0001s10700.1"	684	"	"T/A"	"53,4/46,6"	"62/54"	116	stress_45	"POPTR_0001s10700.1"	684	"	"T/A"	"64,6/35,4"	"51/28"	79
stress_42	"POPTR_0008s15100.1"	149	"	"T/C"	"51,7/48,3"	"62/58"	120	stress_45	"POPTR_0008s15100.1"	149	"	"C/T"	"57,5/42,5"	"77/57"	134
stress_42	"POPTR_0005s24120.1"	249	"	"C/T"	"79,7/20,3"	"63/16"	79	stress_45	"POPTR_0005s24120.1"	249	"	"C/T"	"80,3/19,7"	"106/26"	132
stress_42	"POPTR_0012s08330.1"	156	"	"C/T"	"71,6/28,4"	"63/25"	88	stress_45	"POPTR_0012s08330.1"	156	"	"C/T"	"66,0/34,0"	"93/48"	141
stress_42	"POPTR_0011s11390.1"	549	"	"C/T"	"69,2/30,8"	"63/28"	91	stress_45	"POPTR_0011s11390.1"	549	"	"C/T"	"57,8/42,2"	"59/43"	102
stress_42	"POPTR_0008s05480.1"	879	"	"C/G"	"69,2/30,8"	"63/28"	91	stress_45	"POPTR_0008s05480.1"	879	"	"C/G"	"69,8/30,2"	"162/70"	232
stress_42	"POPTR_0015s13050.1"	514	"	"G/A"	"64,3/35,7"	"63/35"	98	stress_45	"POPTR_0015s13050.1"	514	"	"G/A"	"61,5/38,5"	"107/67"	174
stress_42	"POPTR_0002s19060.1"	1431	"	"C/T"	"61,8/38,2"	"63/39"	102	stress_45	"POPTR_0002s19060.1"	1431	"	"C/T"	"59,2/40,8"	"61/42"	103
stress_42	"POPTR_0008s04270.1"	900	"	"T/G"	"60,6/39,4"	"63/41"	104	stress_45	"POPTR_0008s04270.1"	900	"	"T/G"	"70,1/29,9"	"138/59"	197
stress_42	"POPTR_0014s06380.1"	130	"	"G/A"	"60,0/40,0"	"63/42"	105	stress_45	"POPTR_0014s06380.1"	130	"	"G/A"	"60,0/40,0"	"72/48"	120
stress_42	"POPTR_0004s16740.1"	783	"	"T/C"	"60,0/40,0"	"63/42"	105	stress_45	"POPTR_0004s16740.1"	783	"	"T/C"	"72,7/27,3"	"88/33"	121
stress_42	"POPTR_0007s14750.1"	101	"	"G/T"	"57,8/42,2"	"63/46"	109	stress_45	"POPTR_0007s14750.1"	101	"	"G/T"	"65,2/34,8"	"73/39"	112
stress_42	"POPTR_0014s00810.1"	83	"	"G/A"	"57,3/42,7"	"63/47"	110	stress_45	"POPTR_0014s00810.1"	83	"	"G/A"	"57,3/42,7"	"47/35"	82
stress_42	"POPTR_0001s10700.1"	918	"	"A/T"	"57,3/42,7"	"63/47"	110	stress_45	"POPTR_0001s10700.1"	918	"	"A/T"	"67,9/32,1"	"36/17"	53
stress_42	"POPTR_0010s07340.1"	1536	"	"T/C"	"57,3/42,7"	"63/47"	110	stress_45	"POPTR_0010s07340.1"	1536	"	"C/T"	"51,8/48,2"	"44/41"	85
stress_42	"POPTR_0017s00850.1"	780	"	"T/C"	"56,8/43,2"	"63/48"	111	stress_45	"POPTR_0017s00850.1"	780	"	"C/T"	"52,8/46,3"	"65/57"	123
stress_42	"POPTR_0018s09030.1"	87	"	"A/G"	"55,8/44,2"	"63/50"	113	stress_45	"POPTR_0018s09030.1"	87	"	"A/G"	"57,3/42,7"	"63/47"	110
stress_42	"POPTR_0014s01970.1"	837	"	"A/G"	"53,8/46,2"	"63/54"	117	stress_45	"POPTR_0014s01970.1"	837	"	"A/G"	"56,6/43,4"	"69/53"	122
stress_42	"POPTR_0013s05790.1"	442	"	"T/C"	"52,9/47,1"	"63/56"	119	stress_45	"POPTR_0013s05790.1"	442	"	"T/C"	"51,5/48,5"	"50/47"	97
stress_42	"POPTR_0006s27170.1"	100	"	"C/T"	"72,7/27,3"	"64/24"	88	stress_45	"POPTR_0006s27170.1"	100	"	"C/T"	"68,8/31,2"	"75/34"	109
stress_42	"POPTR_0014s15710.1"	624	"	"A/G"	"69,6/30,4"	"64/28"	92	stress_45	"POPTR_0014s15710.1"	624	"	"A/G"	"70,3/29,7"	"78/33"	111
stress_42	"POPTR_0014s13560.1"	1437	"	"T/C"	"67,4/32,6"	"64/31"	95	stress_45	"POPTR_0014s13560.1"	1437	"	"T/C"	"71,3/28,7"	"77/31"	108
stress_42	"POPTR_0001s40250.1"	2554	"	"C/G"	"66,7/33,3"	"64/32"	96	stress_45	"POPTR_0001s40250.1"	2554	"	"C/G"	"72,6/27,4"	"122/46"	168
stress_42	"POPTR_0008s05410.1"	1386	"	"T/A"	"64,0/36,0"	"64/36"	100	stress_45	"POPTR_0008s05410.1"	1386	"	"A/T"	"54,7/45,3"	"94/78"	172
stress_42	"POPTR_0012s11630.1"	669	"	"A/G"	"62,1/37,9"	"64/39"	103	stress_45	"POPTR_0012s11630.1"	669	"	"A/G"	"52,2/47,8"	"36/33"	69
stress_42	"POPTR_0008s20770.1"	436	"	"A/G"	"62,1/37,9"	"64/39"	103	stress_45	"POPTR_0008s20770.1"	436	"	"A/G"	"59,6/40,4"	"102/69"	171
stress_42	"POPTR_0017s14470.1"	552	"	"C/T"	"61,5/38,5"	"64/40"	104	stress_45	"POPTR_0017s14470.1"	552	"	"C/T"	"60,7/38,7"	"105/67"	173
stress_42	"POPTR_0004s16920.1"	561	"	"C/T"	"61,0/39,0"	"64/41"	105	stress_45	"POPTR_0004s16920.1"	561	"	"C/T"	"63,4/36,6"	"90/52"	142
stress_42	"POPTR_0001s18210.1"	165	"	"T/A"	"61,0/39,0"	"64/41"	105	stress_45	"POPTR_0001s18210.1"	165	"	"T/A"	"61,5/38,5"	"72/45"	117
stress_42	"POPTR_0004s01470.1"	581	"	"G/A"	"60,4/39,6"	"64/42"	106	stress_45	"POPTR_0004s01470.1"	581	"	"G/A"	"60,3/39,7"	"73/48"	121
stress_42	"POPTR_0017s00850.1"	773	"	"G/A"	"58,7/41,3"	"64/45"	109	stress_45	"POPTR_0017s00850.1"	773	"	"A/G"	"51,2/48,8"	"63/60"	123
stress_42	"POPTR_0011s11390.1"	924	"	"T/C"	"58,2/40,9"	"64/45"	110	stress_45	"POPTR_0011s11390.1"	924	"	"T/C"	"54,2/45,8"	"58/49"	107
stress_42	"POPTR_0010s00900.1"	480	"	"C/A"	"55,2/44,8"	"64/52"	116	stress_45	"POPTR_0010s00900.1"	480	"	"C/A"	"55,1/44,9"	"59/48"	107
stress_42	"POPTR_0002s05660.1"	615	"	"G/A"	"54,2/45,8"	"64/54"	118	stress_45	"POPTR_0002s05660.1"	615	"	"G/A"	"57,3/42,7"	"82/61"	143
stress_42	"POPTR_0006s11570.1"	1218	"	"G/A"	"53,3/46,7"	"64/56"	120	stress_45	"POPTR_0006s11570.1"	1218	"	"G/A"	"59,2/40,8"	"74/51"	125
stress_42	"POPTR_0008s18230.1"	118	"	"C/A"	"52,5/47,5"	"64/58"	122	stress_45	"POPTR_0008s18230.1"	118	"	"C/A"	"52,5/47,5"	"42/38"	80
stress_42	"POPTR_0005s26610.1"	465	"	"G/A"	"51,6/48,4"	"64/60"	124	stress_45	"POPTR_0005s26610.1"	465	"	"G/A"	"50,9/49,1"	"59/57"	116
stress_42	"POPTR_0001s14280.1"	629	"	"T/A"	"50,4/48,0"	"64/61"	127	stress_45	"POPTR_0001s14280.1"	629	"	"A/T"	"57,9/40,9"	"92/65"	159
stress_42	"POPTR_0005s26610.1"	1236	"	"T/C"	"50,8/49,2"	"64/62"	126	stress_45	"POPTR_0005s26610.1"	1236	"	"C/T"	"74,7/25,3"	"56/19"	75
stress_42	"POPTR_0006s14400.1"	756	"	"C/G"	"77,9/22,0"	"641/181"	823	stress_45	"POPTR_0006s14400.1"	756	"	"C/G"	"78,8/21,1"	"794/212"	1007
stress_42	"POPTR_0006s06770.1"	821	"	"C/T"	"81,2/18,8"	"65/15"	80	stress_45	"POPTR_0006s06770.1"	821	"	"C/T"	"73,3/26,7"	"110/40"	150
stress_42	"POPTR_0014s08210.1"	1014	"	"G/C"	"79,3/20,7"	"65/17"	82	stress_45	"POPTR_0014s08210.1"	1014	"	"G/C"	"78,1/21,9"	"89/25"	114
stress_42	"POPTR_0016s09280.1"	2212	"	"G/T"	"78,3/21,7"	"65/18"	83	stress_45	"POPTR_0016s09280.1"	2212	"	"G/T"	"76,7/22,3"	"79/23"	103
stress_42	"POPTR_0014s13560.1"	1989	"	"C/G"	"67,7/32,3"	"65/31"	96	stress_45	"POPTR_0014s13560.1"	1989	"	"C/G"	"70,2/29,8"	"73/31"	104
stress_42	"POPTR_0004s00480.1"	708	"	"G/C"	"67,0/33,0"	"65/32"	97	stress_45	"POPTR_0004s00480.1"	708	"	"G/C"	"62,6/37,4"	"87/52"	139
stress_42	"POPTR_0006s28990.1"	1656	"	"G/A"	"60,2/39,8"	"65/43"	108	stress_45	"POPTR_0006s28990.1"	1656	"	"A/G"	"50,4/49,6"	"68/67"	135
stress_42	"POPTR_0005s22830.1"	269	"	"C/A"	"58,6/41,4"	"65/46"	111	stress_45	"POPTR_0005s22830.1"	269	"	"C/A"	"56,1/42,9"	"55/42"	98
stress_42	"POPTR_0005s22830.1"	270	"	"G/A"	"58,6/41,4"	"65/46"	111	stress_45	"POPTR_0005s22830.1"	270	"	"G/A"	"56,4/43,6"	"53/41"	94
stress_42	"POPTR_0013s05790.1"	370	"	"T/G"	"56,0/43,1"	"65/50"	116	stress_45	"POPTR_0013s05790.1"	370	"	"T/G"	"52,0/48,0"	"39/36"	75
stress_42	"POPTR_0008s20770.1"	291	"	"G/A"	"54,6/45,4"	"65/54"	119	stress_45	"POPTR_0008s20770.1"	291	"	"G/A"	"51,6/48,4"	"83/78"	161
stress_42	"POPTR_0002s05660.1"	318	"	"T/C"	"52,8/47,2"	"65/58"	123	stress_45	"POPTR_0002s05660.1"	318	"	"C/T"	"50,4/49,6"	"70/69"	139
stress_42	"POPTR_0006s08530.1"	131	"	"T/G"	"53,6/46,4"	"651/563"	1214	stress_45	"POPTR_0006s08530.1"	131	"	"T/G"	"63,5/36,5"	"948/545"	1493
stress_42	"POPTR_0005s15660.1"	493	"	"A/G"	"50,1/49,8"	"654/650"	1305	stress_45	"POPTR_0005s15660.1"	493	"	"A/G"	"50,1/49,9"	"558/556"	1114
stress_42	"POPTR_0009s05240.1"	803	"	"C/A"	"73,3/26,7"	"66/24"	90	stress_45	"POPTR_0009s05240.1"	803	"	"C/A"	"74,3/24,8"	"75/25"	101
stress_42	"POPTR_0002s18500.1"	78	"	"G/A"	"72,5/27,5"	"66/25"	91	stress_45	"POPTR_0002s18500.1"	78	"	"G/A"	"67,2/32,8"	"78/38"	116
stress_42	"POPTR_0002s25620.1"	417	"	"C/T"	"71,7/28,3"	"66/26"	92	stress_45	"POPTR_0002s25620.1"	417	"	"C/T"	"69,4/30,6"	"75/33"	108
stress_42	"POPTR_0008s20590.1"	271	"	"C/A"	"68,0/32,0"	"66/31"	97	stress_45	"POPTR_0008s20590.1"	271	"	"C/A"	"61,8/38,2"	"94/58"	152
stress_42	"POPTR_0002s05840.1"	582	"	"T/C"	"62,9/36,2"	"66/38"	105	stress_45	"POPTR_0002s05840.1"	582	"	"T/C"	"67,7/31,6"	"107/50"	158
stress_42	"POPTR_0002s03990.1"	123	"	"C/T"	"61,1/38,9"	"66/42"	108	stress_45	"POPTR_0002s03990.1"	123	"	"C/T"	"71,6/28,4"	"48/19"	67
stress_42	"POPTR_0001s12630.1"	222	"	"C/T"	"55,9/44,1"	"66/52"	118	stress_45	"POPTR_0001s12630.1"	222	"	"T/C"	"53,8/45,5"	"71/60"	132
stress_42	"POPTR_0008s18230.1"	120	"	"G/A"	"52,8/47,2"	"66/59"	125	stress_45	"POPTR_0008s18230.1"	120	"	"A/G"	"53,2/46,8"	"41/36"	77
stress_42	"POPTR_0005s22830.1"	541	"	"A/C"	"51,6/48,4"	"66/62"	128	stress_45	"POPTR_0005s22830.1"	541	"	"C/A"	"53,5/46,5"	"53/46"	99
stress_42	"POPTR_0006s28990.1"	2830	"	"C/T"	"51,2/48,1"	"66/62"	129	stress_45	"POPTR_0006s28990.1"	2830	"	"C/T"	"59,4/40,6"	"98/67"	165
stress_42	"POPTR_0014s13560.1"	1638	"	"A/T"	"73,6/26,4"	"67/24"	91	stress_45	"POPTR_0014s13560.1"	1638	"	"A/T"	"72,8/27,2"	"75/28"	103
stress_42	"POPTR_0014s11210.1"	513	"	"T/C"	"69,8/30,2"	"67/29"	96	stress_45	"POPTR_0014s11210.1"	513	"	"T/C"	"71,4/28,6"	"85/34"	119
stress_42	"POPTR_0017s14470.1"	870	"	"G/T"	"63,8/36,2"	"67/38"	105	stress_45	"POPTR_0017s14470.1"	870	"	"G/T"	"63,6/36,4"	"105/60"	165
stress_42	"POPTR_0001s10700.1"	936	"	"A/G"	"61,5/38,5"	"67/42"	109	stress_45	"POPTR_0001s10700.1"	936	"	"A/G"	"68,4/31,6"	"39/18"	57
stress_42	"POPTR_0010s01590.1"	316	"	"C/A"	"60,9/39,1"	"67/43"	110	stress_45	"POPTR_0010s01590.1"	316	"	"C/A"	"68,8/31,2"	"55/25"	80
stress_42	"POPTR_0006s24770.1"	615	"	"T/C"	"56,3/43,7"	"67/52"	119	stress_45	"POPTR_0006s24770.1"	615	"	"T/C"	"57,3/42,7"	"82/61"	143
stress_42	"POPTR_0009s06690.1"	903	"	"A/C"	"55,8/44,2"	"67/53"	120	stress_45	"POPTR_0009s06690.1"	903	"	"A/C"	"56,7/43,3"	"119/91"	210
stress_42	"POPTR_0002s05660.1"	525	"	"C/T"	"50,8/49,2"	"67/65"	132	stress_45	"POPTR_0002s05660.1"	525	"	"T/C"	"55,6/44,4"	"79/63"	142
stress_42	"POPTR_0005s15660.1"	494	"	"C/T"	"51,4/48,6"	"677/641"	1318	stress_45	"POPTR_0005s15660.1"	494	"	"C/T"	"51,1/48,9"	"569/544"	1113
stress_42	"POPTR_0012s04550.1"	439	"	"A/T"	"74,7/25,3"	"68/23"	91	stress_45	"POPTR_0012s04550.1"	439	"	"A/T"	"79,2/20,8"	"84/22"	106
stress_42	"POPTR_0001s07520.1"	1110	"	"C/G"	"70,8/29,2"	"68/28"	96	stress_45	"POPTR_0001s07520.1"	1110	"	"C/G"	"69,7/30,3"	"85/37"	122
stress_42	"POPTR_0008s06720.1"	79	"	"A/G"	"67,3/32,7"	"68/33"	101	stress_45	"POPTR_0008s06720.1"	79	"	"A/G"	"65,0/35,0"	"78/42"	120
stress_42	"POPTR_0008s20370.1"	576	"	"A/G"	"66,7/33,3"	"68/34"	102	stress_45	"POPTR_0008s20370.1"	576	"	"A/G"	"62,5/37,5"	"60/36"	96
stress_42	"POPTR_0002s25260.1"	405	"	"T/C"	"66,0/34,0"	"68/35"	103	stress_45	"POPTR_0002s25260.1"	405	"	"C/T"	"50,0/50,0"	"75/75"	150
stress_42	"POPTR_0008s22310.1"	121	"	"C/G"	"64,8/35,2"	"68/37"	105	stress_45	"POPTR_0008s22310.1"	121	"	"C/G"	"51,8/48,2"	"73/68"	141
stress_42	"POPTR_0004s16920.1"	94	"	"G/A"	"58,6/41,4"	"68/48"	116	stress_45	"POPTR_0004s16920.1"	94	"	"G/A"	"64,8/35,2"	"129/70"	199
stress_42	"POPTR_0010s00900.1"	162	"	"G/A"	"58,1/41,9"	"68/49"	117	stress_45	"POPTR_0010s00900.1"	162	"	"G/A"	"53,6/46,4"	"90/78"	168
stress_42	"POPTR_0007s13110.1"	498	"	"C/T"	"58,1/41,9"	"68/49"	117	stress_45	"POPTR_0007s13110.1"	498	"	"C/T"	"61,0/39,0"	"83/53"	136
stress_42	"POPTR_0006s23580.1"	470	"	"G/C"	"55,7/44,3"	"68/54"	122	stress_45	"POPTR_0006s23580.1"	470	"	"G/C"	"58,9/41,1"	"86/60"	146
stress_42	"POPTR_0014s11210.1"	899	"	"A/T"	"54,4/45,6"	"68/57"	125	stress_45	"POPTR_0014s11210.1"	899	"	"A/T"	"54,8/45,2"	"68/56"	124
stress_42	"POPTR_0008s15100.1"	291	"	"A/T"	"53,1/46,9"	"68/60"	128	stress_45	"POPTR_0008s15100.1"	291	"	"A/T"	"58,7/41,3"	"71/50"	121
stress_42	"POPTR_0011s11390.1"	993	"	"T/A"	"51,9/46,6"	"68/61"	131	stress_45	"POPTR_0011s11390.1"	993	"	"T/A"	"69,4/29,8"	"84/36"	121
stress_42	"POPTR_0006s14400.1"	740	"	"A/G"	"76,2/23,6"	"682/211"	895	stress_45	"POPTR_0006s14400.1"	740	"	"A/G"	"75,8/24,2"	"816/261"	1077
stress_42	"POPTR_0019s08450.1"	1032	"	"C/T"	"83,1/16,9"	"69/14"	83	stress_45	"POPTR_0019s08450.1"	1032	"	"C/T"	"78,1/21,9"	"89/25"	114
stress_42	"POPTR_0017s05700.1"	240	"	"T/C"	"78,4/21,6"	"69/19"	88	stress_45	"POPTR_0017s05700.1"	240	"	"T/C"	"74,8/25,2"	"92/31"	123
stress_42	"POPTR_0004s17020.1"	702	"	"G/A"	"75,8/24,2"	"69/22"	91	stress_45	"POPTR_0004s17020.1"	702	"	"G/A"	"66,2/33,8"	"102/52"	154
stress_42	"POPTR_0001s41460.1"	843	"	"G/A"	"68,3/31,7"	"69/32"	101	stress_45	"POPTR_0001s41460.1"	843	"	"G/A"	"63,5/36,5"	"54/31"	85
stress_42	"POPTR_0011s08940.1"	1008	"	"C/T"	"66,3/33,7"	"69/35"	104	stress_45	"POPTR_0011s08940.1"	1008	"	"C/T"	"61,9/38,1"	"99/61"	160
stress_42	"POPTR_0012s08330.1"	342	"	"G/A"	"64,5/34,6"	"69/37"	107	stress_45	"POPTR_0012s08330.1"	342	"	"G/A"	"54,4/45,6"	"62/52"	114
stress_42	"POPTR_0011s08940.1"	1259	"	"A/G"	"64,5/35,5"	"69/38"	107	stress_45	"POPTR_0011s08940.1"	1259	"	"A/G"	"66,9/33,1"	"117/58"	175
stress_42	"POPTR_0004s16740.1"	974	"	"T/A"	"58,5/41,5"	"69/49"	118	stress_45	"POPTR_0004s16740.1"	974	"	"T/A"	"64,9/34,2"	"72/38"	111
stress_42	"POPTR_0004s01470.1"	642	"	"G/A"	"56,1/43,9"	"69/54"	123	stress_45	"POPTR_0004s01470.1"	642	"	"G/A"	"56,3/43,7"	"80/62"	142
stress_42	"POPTR_0013s05790.1"	460	"	"T/A"	"52,7/47,3"	"69/62"	131	stress_45	"POPTR_0013s05790.1"	460	"	"T/A"	"52,0/48,0"	"52/48"	100
stress_42	"POPTR_0008s20770.1"	324	"	"T/C"	"50,7/49,3"	"69/67"	136	stress_45	"POPTR_0008s20770.1"	324	"	"T/C"	"50,8/49,2"	"98/95"	193
stress_42	"POPTR_0006s14400.1"	1068	"	"G/T"	"50,0/49,3"	"69/68"	138	stress_45	"POPTR_0006s14400.1"	1068	"	"T/G"	"54,5/44,7"	"67/55"	123
stress_42	"POPTR_0006s06770.1"	1216	"	"A/G"	"81,4/18,6"	"70/16"	86	stress_45	"POPTR_0006s06770.1"	1216	"	"A/G"	"68,5/31,5"	"100/46"	146
stress_42	"POPTR_0016s12370.1"	573	"	"G/A"	"76,1/23,9"	"70/22"	92	stress_45	"POPTR_0016s12370.1"	573	"	"G/A"	"74,6/25,4"	"91/31"	122
stress_42	"POPTR_0001s07520.1"	1111	"	"A/G"	"71,4/28,6"	"70/28"	98	stress_45	"POPTR_0001s07520.1"	1111	"	"A/G"	"69,9/30,1"	"86/37"	123
stress_42	"POPTR_0015s04140.1"	2012	"	"T/C"	"70,7/29,3"	"70/29"	99	stress_45	"POPTR_0015s04140.1"	2012	"	"T/C"	"67,2/32,8"	"78/38"	116
stress_42	"POPTR_0008s20590.1"	295	"	"A/G"	"64,8/35,2"	"70/38"	108	stress_45	"POPTR_0008s20590.1"	295	"	"A/G"	"59,9/40,1"	"94/63"	157
stress_42	"POPTR_0008s06720.1"	162	"	"T/G"	"64,2/34,9"	"70/38"	109	stress_45	"POPTR_0008s06720.1"	162	"	"T/G"	"63,0/35,2"	"102/57"	162
stress_42	"POPTR_0005s23590.1"	602	"	"C/A"	"61,9/38,1"	"70/43"	113	stress_45	"POPTR_0005s23590.1"	602	"	"C/A"	"58,8/41,2"	"57/40"	97
stress_42	"POPTR_0001s31220.1"	600	"	"G/A"	"61,9/38,1"	"70/43"	113	stress_45	"POPTR_0001s31220.1"	600	"	"G/A"	"62,2/37,8"	"61/37"	98
stress_42	"POPTR_0009s06690.1"	984	"	"C/T"	"59,8/40,2"	"70/47"	117	stress_45	"POPTR_0009s06690.1"	984	"	"T/C"	"51,7/48,3"	"92/86"	178
stress_42	"POPTR_0006s14630.1"	138	"	"T/G"	"59,3/40,7"	"70/48"	118	stress_45	"POPTR_0006s14630.1"	138	"	"T/G"	"52,0/48,0"	"39/36"	75
stress_42	"POPTR_0001s31220.1"	609	"	"A/G"	"58,8/41,2"	"70/49"	119	stress_45	"POPTR_0001s31220.1"	609	"	"A/G"	"60,2/39,8"	"59/39"	98
stress_42	"POPTR_0005s23590.1"	796	"	"A/T"	"56,5/43,5"	"70/54"	124	stress_45	"POPTR_0005s23590.1"	796	"	"A/T"	"60,9/39,1"	"98/63"	161
stress_42	"POPTR_0013s15560.1"	294	"	"A/T"	"56,5/43,5"	"70/54"	124	stress_45	"POPTR_0013s15560.1"	294	"	"A/T"	"62,3/37,7"	"101/61"	162
stress_42	"POPTR_0014s01970.1"	1063	"	"G/A"	"53,8/46,2"	"70/60"	130	stress_45	"POPTR_0014s01970.1"	1063	"	"G/A"	"51,6/48,4"	"64/60"	124
stress_42	"POPTR_0001s12630.1"	141	"	"C/T"	"50,7/48,6"	"70/67"	138	stress_45	"POPTR_0001s12630.1"	141	"	"T/C"	"54,3/45,7"	"101/85"	186
stress_42	"POPTR_0014s06380.1"	157	"	"T/A"	"66,4/33,6"	"71/36"	107	stress_45	"POPTR_0014s06380.1"	157	"	"T/A"	"66,7/33,3"	"88/44"	132
stress_42	"POPTR_0002s05840.1"	405	"	"C/T"	"62,3/37,7"	"71/43"	114	stress_45	"POPTR_0002s05840.1"	405	"	"C/T"	"61,1/38,9"	"66/42"	108
stress_42	"POPTR_0018s02230.1"	487	"	"A/G"	"61,7/38,3"	"71/44"	115	stress_45	"POPTR_0018s02230.1"	487	"	"A/G"	"62,5/37,5"	"65/39"	104
stress_42	"POPTR_0004s02080.1"	219	"	"C/T"	"60,2/39,8"	"71/47"	118	stress_45	"POPTR_0004s02080.1"	219	"	"C/T"	"55,3/44,7"	"120/97"	217
stress_42	"POPTR_0006s19870.1"	45	"	"A/C"	"57,7/42,3"	"71/52"	123	stress_45	"POPTR_0006s19870.1"	45	"	"A/C"	"62,2/37,8"	"74/45"	119
stress_42	"POPTR_0002s22600.1"	354	"	"C/T"	"56,8/43,2"	"71/54"	125	stress_45	"POPTR_0002s22600.1"	354	"	"C/T"	"55,2/44,3"	"107/86"	194
stress_42	"POPTR_0004s09910.1"	46	"	"C/A"	"55,5/44,5"	"71/57"	128	stress_45	"POPTR_0004s09910.1"	46	"	"A/C"	"55,2/44,8"	"117/95"	212
stress_42	"POPTR_0006s27030.1"	174	"	"G/A"	"52,6/47,4"	"71/64"	135	stress_45	"POPTR_0006s27030.1"	174	"	"A/G"	"52,0/48,0"	"52/48"	100
stress_42	"POPTR_0014s13560.1"	915	"	"C/T"	"82,8/17,2"	"72/15"	87	stress_45	"POPTR_0014s13560.1"	915	"	"C/T"	"64,5/35,5"	"80/44"	124
stress_42	"POPTR_0009s07210.1"	1398	"	"A/T"	"75,0/25,0"	"72/24"	96	stress_45	"POPTR_0009s07210.1"	1398	"	"A/T"	"75,8/24,2"	"138/44"	182
stress_42	"POPTR_0004s17020.1"	1431	"	"G/A"	"66,7/33,3"	"72/36"	108	stress_45	"POPTR_0004s17020.1"	1431	"	"G/A"	"60,0/40,0"	"90/60"	150
stress_42	"POPTR_0009s13890.1"	346	"	"A/C"	"66,7/33,3"	"72/36"	108	stress_45	"POPTR_0009s13890.1"	346	"	"A/C"	"69,3/29,9"	"95/41"	137
stress_42	"POPTR_0012s04550.1"	435	"	"T/C"	"66,7/33,3"	"72/36"	108	stress_45	"POPTR_0012s04550.1"	435	"	"T/C"	"71,2/28,8"	"79/32"	111
stress_42	"POPTR_0008s20590.1"	293	"	"G/A"	"65,5/33,6"	"72/37"	110	stress_45	"POPTR_0008s20590.1"	293	"	"G/A"	"61,1/38,9"	"99/63"	162
stress_42	"POPTR_0008s20590.1"	462	"	"C/T"	"65,5/34,5"	"72/38"	110	stress_45	"POPTR_0008s20590.1"	462	"	"C/T"	"59,7/40,3"	"77/52"	129
stress_42	"POPTR_0010s19930.1"	846	"	"T/C"	"58,5/38,2"	"72/47"	123	stress_45	"POPTR_0010s19930.1"	846	"	"T/C"	"55,8/42,3"	"58/44"	104
stress_42	"POPTR_0015s06060.1"	369	"	"A/T"	"57,6/42,4"	"72/53"	125	stress_45	"POPTR_0015s06060.1"	369	"	"A/T"	"56,2/43,8"	"68/53"	121
stress_42	"POPTR_0008s20770.1"	402	"	"T/A"	"56,2/43,8"	"72/56"	128	stress_45	"POPTR_0008s20770.1"	402	"	"T/A"	"63,4/36,6"	"109/63"	172
stress_42	"POPTR_0004s01470.1"	1086	"	"A/G"	"55,8/44,2"	"72/57"	129	stress_45	"POPTR_0004s01470.1"	1086	"	"A/G"	"66,1/33,9"	"80/41"	121
stress_42	"POPTR_0004s18190.1"	1064	"	"G/A"	"55,8/44,2"	"72/57"	129	stress_45	"POPTR_0004s18190.1"	1064	"	"G/A"	"55,3/44,7"	"47/38"	85
stress_42	"POPTR_0009s06690.1"	687	"	"T/A"	"54,1/44,4"	"72/59"	133	stress_45	"POPTR_0009s06690.1"	687	"	"T/A"	"54,7/44,8"	"111/91"	203
stress_42	"POPTR_0001s12630.1"	144	"	"T/C"	"52,2/47,8"	"72/66"	138	stress_45	"POPTR_0001s12630.1"	144	"	"T/C"	"54,9/45,1"	"101/83"	184
stress_42	"POPTR_0005s15660.1"	469	"	"A/G"	"57,3/42,7"	"728/543"	1271	stress_45	"POPTR_0005s15660.1"	469	"	"A/G"	"57,6/42,4"	"592/435"	1027
stress_42	"POPTR_0001s09570.1"	409	"	"A/G"	"77,7/22,3"	"73/21"	94	stress_45	"POPTR_0001s09570.1"	409	"	"A/G"	"80,7/19,3"	"142/34"	176
stress_42	"POPTR_0016s11670.1"	561	"	"C/T"	"68,9/30,2"	"73/32"	106	stress_45	"POPTR_0016s11670.1"	561	"	"C/T"	"58,8/41,2"	"47/33"	80
stress_42	"POPTR_0005s26220.1"	24	"	"A/G"	"67,0/33,0"	"73/36"	109	stress_45	"POPTR_0005s26220.1"	24	"	"A/G"	"73,5/26,5"	"83/30"	113
stress_42	"POPTR_0004s16920.1"	132	"	"C/T"	"63,5/36,5"	"73/42"	115	stress_45	"POPTR_0004s16920.1"	132	"	"C/T"	"65,0/35,0"	"141/76"	217
stress_42	"POPTR_0002s22600.1"	246	"	"C/T"	"61,9/38,1"	"73/45"	118	stress_45	"POPTR_0002s22600.1"	246	"	"C/T"	"56,7/43,3"	"97/74"	171
stress_42	"POPTR_0008s20590.1"	342	"	"G/T"	"59,8/40,2"	"73/49"	122	stress_45	"POPTR_0008s20590.1"	342	"	"G/T"	"61,0/39,0"	"72/46"	118
stress_42	"POPTR_0005s24030.1"	128	"	"A/G"	"59,3/40,7"	"73/50"	123	stress_45	"POPTR_0005s24030.1"	128	"	"A/G"	"55,0/45,0"	"55/45"	100
stress_42	"POPTR_0009s02070.1"	624	"	"A/G"	"59,3/40,7"	"73/50"	123	stress_45	"POPTR_0009s02070.1"	624	"	"A/G"	"54,9/45,1"	"101/83"	184
stress_42	"POPTR_0001s14280.1"	1365	"	"G/C"	"57,0/43,0"	"73/55"	128	stress_45	"POPTR_0001s14280.1"	1365	"	"G/C"	"58,6/41,4"	"65/46"	111
stress_42	"POPTR_0006s24770.1"	87	"	"A/C"	"52,9/47,1"	"73/65"	138	stress_45	"POPTR_0006s24770.1"	87	"	"C/A"	"52,7/47,3"	"128/115"	243
stress_42	"POPTR_0009s02070.1"	705	"	"C/T"	"52,1/47,9"	"73/67"	140	stress_45	"POPTR_0009s02070.1"	705	"	"C/T"	"58,4/41,6"	"97/69"	166
stress_42	"POPTR_0018s09030.1"	268	"	"C/A"	"50,7/49,3"	"73/71"	144	stress_45	"POPTR_0018s09030.1"	268	"	"A/C"	"58,5/39,6"	"62/42"	106
stress_42	"POPTR_0001s31700.1"	564	"	"C/T"	"50,3/49,7"	"73/72"	145	stress_45	"POPTR_0001s31700.1"	564	"	"C/T"	"61,2/38,8"	"145/92"	237
stress_42	"POPTR_0004s08500.1"	138	"	"G/A"	"78,5/21,5"	"739/202"	941	stress_45	"POPTR_0004s08500.1"	138	"	"G/A"	"83,7/16,1"	"889/171"	1062
stress_42	"POPTR_0018s02230.1"	389	"	"A/C"	"71,2/28,8"	"74/30"	104	stress_45	"POPTR_0018s02230.1"	389	"	"A/C"	"70,1/29,9"	"82/35"	117
stress_42	"POPTR_0008s20590.1"	459	"	"T/A"	"65,5/34,5"	"74/39"	113	stress_45	"POPTR_0008s20590.1"	459	"	"T/A"	"58,7/41,3"	"81/57"	138
stress_42	"POPTR_0007s15300.1"	1164	"	"G/T"	"64,3/35,7"	"74/41"	115	stress_45	"POPTR_0007s15300.1"	1164	"	"G/T"	"68,1/29,7"	"62/27"	91
stress_42	"POPTR_0006s23890.1"	107	"	"T/C"	"63,2/35,9"	"74/42"	117	stress_45	"POPTR_0006s23890.1"	107	"	"T/C"	"65,1/34,9"	"82/44"	126
stress_42	"POPTR_0008s20590.1"	333	"	"G/A"	"60,7/39,3"	"74/48"	122	stress_45	"POPTR_0008s20590.1"	333	"	"G/A"	"61,0/39,0"	"83/53"	136
stress_42	"POPTR_0004s16740.1"	966	"	"A/T"	"60,2/39,8"	"74/49"	123	stress_45	"POPTR_0004s16740.1"	966	"	"A/T"	"65,3/34,7"	"77/41"	118
stress_42	"POPTR_0006s13310.1"	66	"	"C/A"	"57,8/42,2"	"74/54"	128	stress_45	"POPTR_0006s13310.1"	66	"	"C/A"	"62,1/37,9"	"167/102"	269
stress_42	"POPTR_0014s02550.1"	1761	"	"G/A"	"56,5/43,5"	"74/57"	131	stress_45	"POPTR_0014s02550.1"	1761	"	"G/A"	"52,2/47,2"	"94/85"	180
stress_42	"POPTR_0010s07340.1"	1541	"	"G/A"	"53,2/46,8"	"74/65"	139	stress_45	"POPTR_0010s07340.1"	1541	"	"G/A"	"52,5/47,5"	"53/48"	101
stress_42	"POPTR_0019s14100.1"	296	"	"C/G"	"52,5/47,5"	"74/67"	141	stress_45	"POPTR_0019s14100.1"	296	"	"C/G"	"51,2/48,8"	"83/79"	162
stress_42	"POPTR_0013s15560.1"	141	"	"G/A"	"51,7/48,3"	"74/69"	143	stress_45	"POPTR_0013s15560.1"	141	"	"G/A"	"55,8/43,6"	"92/72"	165
stress_42	"POPTR_0011s12400.1"	554	"	"G/C"	"51,7/48,3"	"74/69"	143	stress_45	"POPTR_0011s12400.1"	554	"	"C/G"	"55,2/44,8"	"79/64"	143
stress_42	"POPTR_0006s28990.1"	2259	"	"T/A"	"50,7/49,3"	"74/72"	146	stress_45	"POPTR_0006s28990.1"	2259	"	"T/A"	"56,1/43,9"	"87/68"	155
stress_42	"POPTR_0017s14470.1"	1299	"	"T/A"	"81,5/18,5"	"75/17"	92	stress_45	"POPTR_0017s14470.1"	1299	"	"T/A"	"82,6/16,5"	"100/20"	121
stress_42	"POPTR_0001s09000.1"	71	"	"C/G"	"79,8/19,1"	"75/18"	94	stress_45	"POPTR_0001s09000.1"	71	"	"C/G"	"75,9/24,1"	"208/66"	274
stress_42	"POPTR_0009s05240.1"	939	"	"C/T"	"77,3/22,7"	"75/22"	97	stress_45	"POPTR_0009s05240.1"	939	"	"C/T"	"64,4/35,6"	"65/36"	101
stress_42	"POPTR_0005s27300.1"	1020	"	"G/T"	"76,5/23,5"	"75/23"	98	stress_45	"POPTR_0005s27300.1"	1020	"	"G/T"	"78,8/21,2"	"108/29"	137
stress_42	"POPTR_0011s08940.1"	1207	"	"T/A"	"68,8/31,2"	"75/34"	109	stress_45	"POPTR_0011s08940.1"	1207	"	"T/A"	"57,2/42,2"	"107/79"	187
stress_42	"POPTR_0012s08330.1"	231	"	"A/T"	"65,8/34,2"	"75/39"	114	stress_45	"POPTR_0012s08330.1"	231	"	"A/T"	"61,7/38,3"	"58/36"	94
stress_42	"POPTR_0018s02230.1"	483	"	"A/G"	"64,1/35,9"	"75/42"	117	stress_45	"POPTR_0018s02230.1"	483	"	"A/G"	"59,6/40,4"	"68/46"	114
stress_42	"POPTR_0012s09570.1"	963	"	"A/C"	"63,0/37,0"	"75/44"	119	stress_45	"POPTR_0012s09570.1"	963	"	"A/C"	"71,2/28,8"	"94/38"	132
stress_42	"POPTR_0005s26610.1"	783	"	"C/T"	"62,5/37,5"	"75/45"	120	stress_45	"POPTR_0005s26610.1"	783	"	"T/C"	"53,3/46,7"	"48/42"	90
stress_42	"POPTR_0008s06720.1"	211	"	"A/T"	"61,5/38,5"	"75/47"	122	stress_45	"POPTR_0008s06720.1"	211	"	"A/T"	"66,9/33,1"	"89/44"	133
stress_42	"POPTR_0010s07340.1"	1141	"	"C/T"	"60,5/39,5"	"75/49"	124	stress_45	"POPTR_0010s07340.1"	1141	"	"T/C"	"52,4/47,6"	"66/60"	126
stress_42	"POPTR_0008s06720.1"	552	"	"T/C"	"54,3/45,7"	"75/63"	138	stress_45	"POPTR_0008s06720.1"	552	"	"T/C"	"64,5/35,5"	"69/38"	107
stress_42	"POPTR_0008s15100.1"	408	"	"T/C"	"54,0/46,0"	"75/64"	139	stress_45	"POPTR_0008s15100.1"	408	"	"C/T"	"53,2/46,8"	"66/58"	124
stress_42	"POPTR_0006s28990.1"	2263	"	"G/A"	"51,7/48,3"	"75/70"	145	stress_45	"POPTR_0006s28990.1"	2263	"	"A/G"	"54,7/45,3"	"88/73"	161
stress_42	"POPTR_0001s35230.1"	87	"	"G/A"	"51,4/48,6"	"75/71"	146	stress_45	"POPTR_0001s35230.1"	87	"	"G/A"	"51,3/48,7"	"97/92"	189
stress_42	"POPTR_0006s06770.1"	834	"	"T/G"	"80,9/19,1"	"76/18"	94	stress_45	"POPTR_0006s06770.1"	834	"	"T/G"	"70,8/29,2"	"109/45"	154
stress_42	"POPTR_0002s14730.1"	1088	"	"T/A"	"73,1/26,9"	"76/28"	104	stress_45	"POPTR_0002s14730.1"	1088	"	"T/A"	"71,8/28,2"	"130/51"	181
stress_42	"POPTR_0005s26740.1"	72	"	"C/T"	"71,0/29,0"	"76/31"	107	stress_45	"POPTR_0005s26740.1"	72	"	"C/T"	"78,7/21,3"	"122/33"	155
stress_42	"POPTR_0003s01090.1"	225	"	"C/T"	"63,9/36,1"	"76/43"	119	stress_45	"POPTR_0003s01090.1"	225	"	"C/T"	"66,1/33,9"	"80/41"	121
stress_42	"POPTR_0011s12400.1"	763	"	"G/T"	"63,3/36,7"	"76/44"	120	stress_45	"POPTR_0011s12400.1"	763	"	"T/G"	"50,6/49,4"	"78/76"	154
stress_42	"POPTR_0014s02410.1"	320	"	"T/A"	"61,8/38,2"	"76/47"	123	stress_45	"POPTR_0014s02410.1"	320	"	"T/A"	"55,2/44,5"	"176/142"	319
stress_42	"POPTR_0018s09730.1"	537	"	"C/G"	"58,9/41,1"	"76/53"	129	stress_45	"POPTR_0018s09730.1"	537	"	"C/G"	"54,9/45,1"	"107/88"	195
stress_42	"POPTR_0018s09730.1"	594	"	"T/C"	"56,7/43,3"	"76/58"	134	stress_45	"POPTR_0018s09730.1"	594	"	"T/C"	"58,2/41,8"	"138/99"	237
stress_42	"POPTR_0012s11630.1"	219	"	"G/A"	"55,1/44,9"	"76/62"	138	stress_45	"POPTR_0012s11630.1"	219	"	"G/A"	"61,3/38,7"	"92/58"	150
stress_42	"POPTR_0001s31700.1"	972	"	"T/A"	"53,1/46,2"	"76/66"	143	stress_45	"POPTR_0001s31700.1"	972	"	"T/A"	"52,3/47,2"	"101/91"	193
stress_42	"POPTR_0015s06060.1"	345	"	"C/T"	"52,1/47,9"	"76/70"	146	stress_45	"POPTR_0015s06060.1"	345	"	"C/T"	"61,3/38,7"	"68/43"	111
stress_42	"POPTR_0005s15660.1"	195	"	"A/T"	"59,2/40,8"	"760/523"	1283	stress_45	"POPTR_0005s15660.1"	195	"	"A/T"	"60,7/39,2"	"648/419"	1068
stress_42	"POPTR_0014s13560.1"	2022	"	"T/C"	"74,0/26,0"	"77/27"	104	stress_45	"POPTR_0014s13560.1"	2022	"	"T/C"	"64,7/35,3"	"75/41"	116
stress_42	"POPTR_0007s15300.1"	1087	"	"T/C"	"72,0/28,0"	"77/30"	107	stress_45	"POPTR_0007s15300.1"	1087	"	"T/C"	"60,0/40,0"	"57/38"	95
stress_42	"POPTR_0008s18230.1"	357	"	"T/A"	"64,2/35,8"	"77/43"	120	stress_45	"POPTR_0008s18230.1"	357	"	"T/A"	"56,7/43,3"	"55/42"	97
stress_42	"POPTR_0012s09570.1"	837	"	"A/T"	"53,1/46,9"	"77/68"	145	stress_45	"POPTR_0012s09570.1"	837	"	"T/A"	"54,9/45,1"	"96/79"	175
stress_42	"POPTR_0008s15100.1"	566	"	"T/C"	"52,4/47,6"	"77/70"	147	stress_45	"POPTR_0008s15100.1"	566	"	"T/C"	"52,7/47,3"	"68/61"	129
stress_42	"POPTR_0001s32780.1"	834	"	"T/C"	"78,0/22,0"	"78/22"	100	stress_45	"POPTR_0001s32780.1"	834	"	"T/C"	"77,8/22,2"	"130/37"	167
stress_42	"POPTR_0009s12420.1"	108	"	"T/A"	"70,3/29,7"	"78/33"	111	stress_45	"POPTR_0009s12420.1"	108	"	"T/A"	"66,4/33,6"	"85/43"	128
stress_42	"POPTR_0011s17170.1"	128	"	"A/T"	"65,5/34,5"	"78/41"	119	stress_45	"POPTR_0011s17170.1"	128	"	"A/T"	"64,2/35,8"	"61/34"	95
stress_42	"POPTR_0002s19710.1"	360	"	"A/T"	"64,5/34,7"	"78/42"	121	stress_45	"POPTR_0002s19710.1"	360	"	"A/T"	"53,3/46,7"	"48/42"	90
stress_42	"POPTR_0014s00810.1"	89	"	"T/G"	"61,9/38,1"	"78/48"	126	stress_45	"POPTR_0014s00810.1"	89	"	"G/T"	"53,4/46,6"	"47/41"	88
stress_42	"POPTR_0009s06690.1"	834	"	"A/G"	"60,0/40,0"	"78/52"	130	stress_45	"POPTR_0009s06690.1"	834	"	"G/A"	"54,7/45,3"	"122/101"	223
stress_42	"POPTR_0005s24030.1"	126	"	"G/A"	"59,5/40,5"	"78/53"	131	stress_45	"POPTR_0005s24030.1"	126	"	"G/A"	"57,3/42,7"	"63/47"	110
stress_42	"POPTR_0002s22600.1"	1158	"	"G/T"	"59,1/40,9"	"78/54"	132	stress_45	"POPTR_0002s22600.1"	1158	"	"G/T"	"63,9/36,1"	"108/61"	169
stress_42	"POPTR_0008s15780.1"	366	"	"T/C"	"56,5/43,5"	"78/60"	138	stress_45	"POPTR_0008s15780.1"	366	"	"T/C"	"75,5/24,5"	"80/26"	106
stress_42	"POPTR_0003s13880.1"	496	"	"T/C"	"54,5/45,5"	"78/65"	143	stress_45	"POPTR_0003s13880.1"	496	"	"T/C"	"50,3/49,7"	"74/73"	147
stress_42	"POPTR_0001s10700.1"	996	"	"C/A"	"53,4/46,6"	"78/68"	146	stress_45	"POPTR_0001s10700.1"	996	"	"A/C"	"50,9/49,1"	"54/52"	106
stress_42	"POPTR_0001s47590.1"	136	"	"A/G"	"52,0/48,0"	"78/72"	150	stress_45	"POPTR_0001s47590.1"	136	"	"A/G"	"55,9/44,1"	"76/60"	136
stress_42	"POPTR_0013s15560.1"	207	"	"A/T"	"51,7/48,3"	"78/73"	151	stress_45	"POPTR_0013s15560.1"	207	"	"T/A"	"54,7/45,3"	"98/81"	179
stress_42	"POPTR_0005s15660.1"	257	"	"G/A"	"71,1/28,9"	"787/320"	1107	stress_45	"POPTR_0005s15660.1"	257	"	"G/A"	"64,7/35,3"	"580/316"	896
stress_42	"POPTR_0010s12680.1"	1530	"	"T/C"	"83,2/16,8"	"79/16"	95	stress_45	"POPTR_0010s12680.1"	1530	"	"T/C"	"80,1/19,9"	"109/27"	136
stress_42	"POPTR_0008s06720.1"	315	"	"G/A"	"73,8/26,2"	"79/28"	107	stress_45	"POPTR_0008s06720.1"	315	"	"G/A"	"70,5/29,5"	"86/36"	122
stress_42	"POPTR_0010s07730.1"	264	"	"C/T"	"72,5/27,5"	"79/30"	109	stress_45	"POPTR_0010s07730.1"	264	"	"C/T"	"65,5/34,5"	"57/30"	87
stress_42	"POPTR_0014s11210.1"	975	"	"T/A"	"68,7/30,4"	"79/35"	115	stress_45	"POPTR_0014s11210.1"	975	"	"T/A"	"62,6/36,5"	"72/42"	115
stress_42	"POPTR_0011s08940.1"	1203	"	"T/C"	"68,1/31,9"	"79/37"	116	stress_45	"POPTR_0011s08940.1"	1203	"	"T/C"	"59,1/40,9"	"110/76"	186
stress_42	"POPTR_0004s17020.1"	1419	"	"A/T"	"67,5/32,5"	"79/38"	117	stress_45	"POPTR_0004s17020.1"	1419	"	"A/T"	"63,5/36,5"	"101/58"	159
stress_42	"POPTR_0005s22660.1"	299	"	"C/T"	"66,4/33,6"	"79/40"	119	stress_45	"POPTR_0005s22660.1"	299	"	"C/T"	"57,6/42,4"	"53/39"	92
stress_42	"POPTR_0004s18190.1"	903	"	"C/T"	"59,4/40,6"	"79/54"	133	stress_45	"POPTR_0004s18190.1"	903	"	"C/T"	"56,6/43,4"	"73/56"	129
stress_42	"POPTR_0004s10660.1"	459	"	"T/G"	"58,5/41,5"	"79/56"	135	stress_45	"POPTR_0004s10660.1"	459	"	"T/G"	"57,1/42,9"	"101/76"	177
stress_42	"POPTR_0009s06690.1"	837	"	"T/C"	"58,5/41,5"	"79/56"	135	stress_45	"POPTR_0009s06690.1"	837	"	"C/T"	"55,6/44,4"	"124/99"	223
stress_42	"POPTR_0011s11390.1"	969	"	"T/G"	"56,0/44,0"	"79/62"	141	stress_45	"POPTR_0011s11390.1"	969	"	"T/G"	"51,6/48,4"	"66/62"	128
stress_42	"POPTR_0008s20770.1"	165	"	"C/A"	"55,2/44,8"	"79/64"	143	stress_45	"POPTR_0008s20770.1"	165	"	"C/A"	"60,0/40,0"	"102/68"	170
stress_42	"POPTR_0014s02410.1"	929	"	"T/A"	"54,9/45,1"	"79/65"	144	stress_45	"POPTR_0014s02410.1"	929	"	"A/T"	"54,9/45,1"	"145/119"	264
stress_42	"POPTR_0014s02410.1"	945	"	"T/G"	"54,5/45,5"	"79/66"	145	stress_45	"POPTR_0014s02410.1"	945	"	"G/T"	"54,1/45,9"	"180/153"	333
stress_42	"POPTR_0008s15760.1"	367	"	"C/G"	"50,3/49,7"	"79/78"	157	stress_45	"POPTR_0008s15760.1"	367	"	"C/G"	"67,6/32,4"	"144/69"	213
stress_42	"POPTR_0005s15660.1"	343	"	"C/A"	"56,5/43,4"	"790/607"	1398	stress_45	"POPTR_0005s15660.1"	343	"	"C/A"	"50,2/49,8"	"574/569"	1143
stress_42	"POPTR_0005s15660.1"	344	"	"A/G"	"56,5/43,5"	"790/608"	1398	stress_45	"POPTR_0005s15660.1"	344	"	"A/G"	"50,5/49,5"	"579/568"	1147
stress_42	"POPTR_0006s14400.1"	939	"	"A/T"	"79,9/20,1"	"791/199"	990	stress_45	"POPTR_0006s14400.1"	939	"	"A/T"	"78,8/21,1"	"946/254"	1201
stress_42	"POPTR_0006s14400.1"	993	"	"T/C"	"75,8/24,1"	"797/253"	1051	stress_45	"POPTR_0006s14400.1"	993	"	"T/C"	"75,5/24,4"	"982/317"	1301
stress_42	"POPTR_0014s13560.1"	1320	"	"C/T"	"73,4/26,6"	"80/29"	109	stress_45	"POPTR_0014s13560.1"	1320	"	"C/T"	"73,7/26,3"	"98/35"	133
stress_42	"POPTR_0011s11390.1"	611	"	"C/G"	"69,0/31,0"	"80/36"	116	stress_45	"POPTR_0011s11390.1"	611	"	"C/G"	"71,2/28,8"	"89/36"	125
stress_42	"POPTR_0003s13880.1"	414	"	"T/C"	"60,6/39,4"	"80/52"	132	stress_45	"POPTR_0003s13880.1"	414	"	"T/C"	"52,1/47,3"	"76/69"	146
stress_42	"POPTR_0001s12630.1"	423	"	"G/T"	"59,7/40,3"	"80/54"	134	stress_45	"POPTR_0001s12630.1"	423	"	"G/T"	"64,4/35,6"	"76/42"	118
stress_42	"POPTR_0014s02550.1"	1810	"	"C/T"	"54,4/45,6"	"80/67"	147	stress_45	"POPTR_0014s02550.1"	1810	"	"C/T"	"50,6/49,4"	"85/83"	168
stress_42	"POPTR_0010s00900.1"	575	"	"G/C"	"53,3/46,7"	"80/70"	150	stress_45	"POPTR_0010s00900.1"	575	"	"G/C"	"64,0/36,0"	"105/59"	164
stress_42	"POPTR_0012s09570.1"	840	"	"T/C"	"52,6/47,4"	"80/72"	152	stress_45	"POPTR_0012s09570.1"	840	"	"C/T"	"55,9/44,1"	"104/82"	186
stress_42	"POPTR_0012s09570.1"	877	"	"C/A"	"52,6/47,4"	"80/72"	152	stress_45	"POPTR_0012s09570.1"	877	"	"A/C"	"51,8/47,6"	"88/81"	170
stress_42	"POPTR_0008s05480.1"	1213	"	"C/T"	"50,0/50,0"	"80/80"	160	stress_45	"POPTR_0008s05480.1"	1213	"	"T/C"	"51,4/48,6"	"170/161"	331
stress_42	"POPTR_0014s13560.1"	1491	"	"T/C"	"75,7/22,4"	"81/24"	107	stress_45	"POPTR_0014s13560.1"	1491	"	"T/C"	"66,3/33,7"	"65/33"	98
stress_42	"POPTR_0005s13860.1"	541	"	"C/T"	"76,4/23,6"	"81/25"	106	stress_45	"POPTR_0005s13860.1"	541	"	"C/T"	"81,5/18,5"	"101/23"	124
stress_42	"POPTR_0002s07290.1"	645	"	"A/C"	"71,1/28,9"	"81/33"	114	stress_45	"POPTR_0002s07290.1"	645	"	"A/C"	"68,8/31,2"	"95/43"	138
stress_42	"POPTR_0014s13560.1"	1959	"	"C/G"	"65,9/34,1"	"81/42"	123	stress_45	"POPTR_0014s13560.1"	1959	"	"C/G"	"69,8/30,2"	"97/42"	139
stress_42	"POPTR_0014s11210.1"	483	"	"T/C"	"61,8/38,2"	"81/50"	131	stress_45	"POPTR_0014s11210.1"	483	"	"T/C"	"70,5/29,5"	"117/49"	166
stress_42	"POPTR_0005s21750.1"	408	"	"C/T"	"60,9/39,1"	"81/52"	133	stress_45	"POPTR_0005s21750.1"	408	"	"C/T"	"57,8/42,2"	"89/65"	154
stress_42	"POPTR_0006s12350.1"	462	"	"T/G"	"60,4/39,6"	"81/53"	134	stress_45	"POPTR_0006s12350.1"	462	"	"T/G"	"68,5/31,5"	"76/35"	111
stress_42	"POPTR_0010s19930.1"	518	"	"A/C"	"58,3/41,7"	"81/58"	139	stress_45	"POPTR_0010s19930.1"	518	"	"A/C"	"54,7/45,3"	"70/58"	128
stress_42	"POPTR_0008s05480.1"	1353	"	"T/C"	"54,7/45,3"	"81/67"	148	stress_45	"POPTR_0008s05480.1"	1353	"	"T/C"	"54,0/46,0"	"208/177"	385
stress_42	"POPTR_0013s15560.1"	558	"	"C/A"	"53,3/46,7"	"81/71"	152	stress_45	"POPTR_0013s15560.1"	558	"	"C/A"	"55,7/44,3"	"112/89"	201
stress_42	"POPTR_0006s14400.1"	948	"	"C/T"	"78,8/21,0"	"812/217"	1031	stress_45	"POPTR_0006s14400.1"	948	"	"C/T"	"80,3/19,2"	"973/233"	1211
stress_42	"POPTR_0019s08450.1"	1006	"	"T/C"	"78,8/21,2"	"82/22"	104	stress_45	"POPTR_0019s08450.1"	1006	"	"T/C"	"80,6/19,4"	"79/19"	98
stress_42	"POPTR_0005s26170.1"	174	"	"C/G"	"73,2/26,8"	"82/30"	112	stress_45	"POPTR_0005s26170.1"	174	"	"C/G"	"76,4/23,6"	"97/30"	127
stress_42	"POPTR_0006s06770.1"	1290	"	"T/C"	"71,9/28,1"	"82/32"	114	stress_45	"POPTR_0006s06770.1"	1290	"	"T/C"	"70,8/29,2"	"121/50"	171
stress_42	"POPTR_0001s31220.1"	552	"	"T/G"	"67,2/32,8"	"82/40"	122	stress_45	"POPTR_0001s31220.1"	552	"	"T/G"	"68,8/30,1"	"64/28"	93
stress_42	"POPTR_0014s13560.1"	1860	"	"A/G"	"66,7/33,3"	"82/41"	123	stress_45	"POPTR_0014s13560.1"	1860	"	"A/G"	"55,5/44,5"	"66/53"	119
stress_42	"POPTR_0002s05840.1"	600	"	"G/A"	"65,6/34,4"	"82/43"	125	stress_45	"POPTR_0002s05840.1"	600	"	"G/A"	"66,0/33,3"	"107/54"	162
stress_42	"POPTR_0004s17020.1"	1710	"	"T/A"	"62,1/37,9"	"82/50"	132	stress_45	"POPTR_0004s17020.1"	1710	"	"T/A"	"61,5/38,5"	"99/62"	161
stress_42	"POPTR_0004s10660.1"	447	"	"T/A"	"60,3/38,2"	"82/52"	136	stress_45	"POPTR_0004s10660.1"	447	"	"T/A"	"56,7/43,3"	"106/81"	187
stress_42	"POPTR_0005s26610.1"	924	"	"T/C"	"55,8/44,2"	"82/65"	147	stress_45	"POPTR_0005s26610.1"	924	"	"T/C"	"57,7/42,3"	"71/52"	123
stress_42	"POPTR_0002s23690.1"	194	"	"T/C"	"82,2/17,8"	"83/18"	101	stress_45	"POPTR_0002s23690.1"	194	"	"T/C"	"82,1/17,9"	"32/7"	39
stress_42	"POPTR_0001s42970.1"	138	"	"C/T"	"79,8/20,2"	"83/21"	104	stress_45	"POPTR_0001s42970.1"	138	"	"C/T"	"63,2/36,8"	"36/21"	57
stress_42	"POPTR_0006s19870.1"	84	"	"T/C"	"79,0/21,0"	"83/22"	105	stress_45	"POPTR_0006s19870.1"	84	"	"T/C"	"76,1/23,9"	"83/26"	109
stress_42	"POPTR_0001s38810.1"	123	"	"A/G"	"70,3/29,7"	"83/35"	118	stress_45	"POPTR_0001s38810.1"	123	"	"A/G"	"75,0/25,0"	"135/45"	180
stress_42	"POPTR_0012s08330.1"	207	"	"A/G"	"66,4/33,6"	"83/42"	125	stress_45	"POPTR_0012s08330.1"	207	"	"A/G"	"59,5/40,5"	"69/47"	116
stress_42	"POPTR_0008s06720.1"	339	"	"A/G"	"65,4/34,6"	"83/44"	127	stress_45	"POPTR_0008s06720.1"	339	"	"A/G"	"75,9/24,1"	"88/28"	116
stress_42	"POPTR_0016s12370.1"	690	"	"A/G"	"64,3/35,7"	"83/46"	129	stress_45	"POPTR_0016s12370.1"	690	"	"A/G"	"80,2/19,8"	"130/32"	162
stress_42	"POPTR_0001s42970.1"	198	"	"T/A"	"57,2/42,8"	"83/62"	145	stress_45	"POPTR_0001s42970.1"	198	"	"A/T"	"52,3/46,5"	"45/40"	86
stress_42	"POPTR_0008s05480.1"	1575	"	"C/G"	"56,8/43,2"	"83/63"	146	stress_45	"POPTR_0008s05480.1"	1575	"	"C/G"	"57,1/42,9"	"212/159"	371
stress_42	"POPTR_0017s14470.1"	1092	"	"G/A"	"78,5/21,5"	"84/23"	107	stress_45	"POPTR_0017s14470.1"	1092	"	"G/A"	"74,0/26,0"	"97/34"	131
stress_42	"POPTR_0014s13560.1"	1482	"	"T/A"	"76,4/20,9"	"84/23"	110	stress_45	"POPTR_0014s13560.1"	1482	"	"T/A"	"72,3/26,7"	"73/27"	101
stress_42	"POPTR_0019s04750.1"	784	"	"A/G"	"73,0/27,0"	"84/31"	115	stress_45	"POPTR_0019s04750.1"	784	"	"A/G"	"77,6/22,4"	"59/17"	76
stress_42	"POPTR_0007s08400.1"	1464	"	"C/T"	"68,9/31,1"	"84/38"	122	stress_45	"POPTR_0007s08400.1"	1464	"	"C/T"	"57,4/42,6"	"148/110"	258
stress_42	"POPTR_0002s14730.1"	1026	"	"C/A"	"67,7/32,3"	"84/40"	124	stress_45	"POPTR_0002s14730.1"	1026	"	"C/A"	"78,8/21,2"	"167/45"	212
stress_42	"POPTR_0004s16740.1"	882	"	"A/G"	"62,2/37,0"	"84/50"	135	stress_45	"POPTR_0004s16740.1"	882	"	"A/G"	"61,6/38,4"	"90/56"	146
stress_42	"POPTR_0014s11210.1"	717	"	"C/T"	"59,2/40,8"	"84/58"	142	stress_45	"POPTR_0014s11210.1"	717	"	"C/T"	"76,2/23,8"	"112/35"	147
stress_42	"POPTR_0003s01090.1"	352	"	"G/A"	"57,5/42,5"	"84/62"	146	stress_45	"POPTR_0003s01090.1"	352	"	"G/A"	"54,5/45,5"	"73/61"	134
stress_42	"POPTR_0004s18190.1"	1098	"	"A/T"	"56,8/43,2"	"84/64"	148	stress_45	"POPTR_0004s18190.1"	1098	"	"A/T"	"50,6/49,4"	"44/43"	87
stress_42	"POPTR_0008s20770.1"	378	"	"T/C"	"54,5/45,5"	"84/70"	154	stress_45	"POPTR_0008s20770.1"	378	"	"T/C"	"55,5/44,5"	"131/105"	236
stress_42	"POPTR_0001s14280.1"	768	"	"A/G"	"51,5/48,5"	"84/79"	163	stress_45	"POPTR_0001s14280.1"	768	"	"A/G"	"55,1/44,9"	"97/79"	176
stress_42	"POPTR_0010s24290.1"	39	"	"T/C"	"55,2/44,7"	"843/682"	1526	stress_45	"POPTR_0010s24290.1"	39	"	"T/C"	"58,8/41,2"	"700/491"	1191
stress_42	"POPTR_0009s05240.1"	1059	"	"C/T"	"73,3/26,7"	"85/31"	116	stress_45	"POPTR_0009s05240.1"	1059	"	"C/T"	"68,9/31,1"	"82/37"	119
stress_42	"POPTR_0010s19930.1"	515	"	"A/G"	"62,0/38,0"	"85/52"	137	stress_45	"POPTR_0010s19930.1"	515	"	"A/G"	"57,4/42,6"	"70/52"	122
stress_42	"POPTR_0001s31700.1"	960	"	"C/T"	"59,4/40,6"	"85/58"	143	stress_45	"POPTR_0001s31700.1"	960	"	"C/T"	"56,4/43,6"	"115/89"	204
stress_42	"POPTR_0002s25260.1"	29	"	"C/G"	"56,7/43,3"	"85/65"	150	stress_45	"POPTR_0002s25260.1"	29	"	"C/G"	"50,6/49,4"	"118/115"	233
stress_42	"POPTR_0004s09910.1"	466	"	"G/T"	"56,3/43,7"	"85/66"	151	stress_45	"POPTR_0004s09910.1"	466	"	"G/T"	"57,7/42,3"	"97/71"	168
stress_42	"POPTR_0002s01080.1"	42	"	"T/C"	"56,3/43,7"	"85/66"	151	stress_45	"POPTR_0002s01080.1"	42	"	"C/T"	"50,2/49,8"	"119/118"	237
stress_42	"POPTR_0001s14280.1"	159	"	"A/T"	"51,8/47,6"	"85/78"	164	stress_45	"POPTR_0001s14280.1"	159	"	"A/T"	"51,2/48,8"	"123/117"	240
stress_42	"POPTR_0008s09150.1"	144	"	"T/C"	"52,1/47,9"	"85/78"	163	stress_45	"POPTR_0008s09150.1"	144	"	"T/C"	"53,2/46,8"	"123/108"	231
stress_42	"POPTR_0006s13310.1"	102	"	"T/C"	"51,8/48,2"	"85/79"	164	stress_45	"POPTR_0006s13310.1"	102	"	"T/C"	"55,7/44,3"	"220/175"	395
stress_42	"POPTR_0014s17070.1"	699	"	"T/A"	"51,2/48,8"	"85/81"	166	stress_45	"POPTR_0014s17070.1"	699	"	"T/A"	"55,6/44,4"	"94/75"	169
stress_42	"POPTR_0005s15660.1"	228	"	"C/T"	"58,4/41,6"	"855/608"	1463	stress_45	"POPTR_0005s15660.1"	228	"	"C/T"	"58,8/41,1"	"738/516"	1255
stress_42	"POPTR_0011s12400.1"	781	"	"A/G"	"76,1/23,9"	"86/27"	113	stress_45	"POPTR_0011s12400.1"	781	"	"A/G"	"70,3/29,7"	"83/35"	118
stress_42	"POPTR_0016s10400.1"	871	"	"G/C"	"76,1/23,9"	"86/27"	113	stress_45	"POPTR_0016s10400.1"	871	"	"G/C"	"82,1/17,9"	"92/20"	112
stress_42	"POPTR_0002s03020.1"	24	"	"A/T"	"74,1/25,9"	"86/30"	116	stress_45	"POPTR_0002s03020.1"	24	"	"A/T"	"74,0/26,0"	"216/76"	292
stress_42	"POPTR_0001s40250.1"	2769	"	"A/T"	"71,1/28,9"	"86/35"	121	stress_45	"POPTR_0001s40250.1"	2769	"	"A/T"	"78,0/22,0"	"199/56"	255
stress_42	"POPTR_0002s14730.1"	1017	"	"A/T"	"67,7/32,3"	"86/41"	127	stress_45	"POPTR_0002s14730.1"	1017	"	"A/T"	"79,4/20,1"	"158/40"	199
stress_42	"POPTR_0003s13880.1"	365	"	"G/A"	"61,0/39,0"	"86/55"	141	stress_45	"POPTR_0003s13880.1"	365	"	"G/A"	"52,3/47,7"	"102/93"	195
stress_42	"POPTR_0005s26740.1"	182	"	"T/C"	"58,1/41,9"	"86/62"	148	stress_45	"POPTR_0005s26740.1"	182	"	"T/C"	"54,9/45,1"	"113/93"	206
stress_42	"POPTR_0002s19710.1"	216	"	"T/G"	"56,6/42,8"	"86/65"	152	stress_45	"POPTR_0002s19710.1"	216	"	"G/T"	"50,3/49,0"	"78/76"	155
stress_42	"POPTR_0005s21750.1"	546	"	"G/A"	"55,1/44,9"	"86/70"	156	stress_45	"POPTR_0005s21750.1"	546	"	"G/A"	"53,4/46,6"	"79/69"	148
stress_42	"POPTR_0008s15760.1"	369	"	"G/C"	"51,5/48,5"	"86/81"	167	stress_45	"POPTR_0008s15760.1"	369	"	"C/G"	"64,9/35,1"	"137/74"	211
stress_42	"POPTR_0009s05240.1"	930	"	"T/A"	"80,6/19,4"	"87/21"	108	stress_45	"POPTR_0009s05240.1"	930	"	"T/A"	"69,6/30,4"	"78/34"	112
stress_42	"POPTR_0001s42970.1"	150	"	"T/C"	"69,6/30,4"	"87/38"	125	stress_45	"POPTR_0001s42970.1"	150	"	"T/C"	"60,5/39,5"	"46/30"	76
stress_42	"POPTR_0004s10660.1"	350	"	"G/C"	"63,0/37,0"	"87/51"	138	stress_45	"POPTR_0004s10660.1"	350	"	"G/C"	"57,8/42,2"	"100/73"	173
stress_42	"POPTR_0012s09570.1"	510	"	"C/T"	"58,4/41,6"	"87/62"	149	stress_45	"POPTR_0012s09570.1"	510	"	"C/T"	"58,6/41,4"	"126/89"	215
stress_42	"POPTR_0002s22560.1"	1749	"	"G/A"	"55,8/44,2"	"87/69"	156	stress_45	"POPTR_0002s22560.1"	1749	"	"G/A"	"52,7/47,3"	"79/71"	150
stress_42	"POPTR_0008s15100.1"	394	"	"T/C"	"53,4/46,6"	"87/76"	163	stress_45	"POPTR_0008s15100.1"	394	"	"C/T"	"54,5/45,5"	"73/61"	134
stress_42	"POPTR_0008s06720.1"	630	"	"A/T"	"50,9/49,1"	"87/84"	171	stress_45	"POPTR_0008s06720.1"	630	"	"A/T"	"64,1/35,9"	"91/51"	142
stress_42	"POPTR_0019s09140.1"	369	"	"C/T"	"50,6/49,4"	"87/85"	172	stress_45	"POPTR_0019s09140.1"	369	"	"C/T"	"51,6/48,4"	"97/91"	188
stress_42	"POPTR_0002s07290.1"	291	"	"C/T"	"83,8/16,2"	"88/17"	105	stress_45	"POPTR_0002s07290.1"	291	"	"C/T"	"75,8/24,2"	"91/29"	120
stress_42	"POPTR_0015s09000.1"	231	"	"T/G"	"72,7/27,3"	"88/33"	121	stress_45	"POPTR_0015s09000.1"	231	"	"T/G"	"69,1/30,9"	"47/21"	68
stress_42	"POPTR_0005s21750.1"	700	"	"G/A"	"72,1/27,9"	"88/34"	122	stress_45	"POPTR_0005s21750.1"	700	"	"G/A"	"72,7/27,3"	"72/27"	99
stress_42	"POPTR_0002s05840.1"	610	"	"T/G"	"67,7/32,3"	"88/42"	130	stress_45	"POPTR_0002s05840.1"	610	"	"T/G"	"65,5/34,5"	"110/58"	168
stress_42	"POPTR_0008s06720.1"	351	"	"G/T"	"66,7/31,8"	"88/42"	132	stress_45	"POPTR_0008s06720.1"	351	"	"G/T"	"71,7/28,3"	"71/28"	99
stress_42	"POPTR_0001s40250.1"	2745	"	"T/C"	"65,7/34,3"	"88/46"	134	stress_45	"POPTR_0001s40250.1"	2745	"	"T/C"	"78,3/21,7"	"217/60"	277
stress_42	"POPTR_0013s15560.1"	428	"	"G/A"	"59,5/40,5"	"88/60"	148	stress_45	"POPTR_0013s15560.1"	428	"	"A/G"	"55,1/44,9"	"76/62"	138
stress_42	"POPTR_0010s07340.1"	1674	"	"C/T"	"52,7/47,3"	"88/79"	167	stress_45	"POPTR_0010s07340.1"	1674	"	"C/T"	"57,8/42,2"	"63/46"	109
stress_42	"POPTR_0002s01080.1"	357	"	"A/G"	"50,9/49,1"	"88/85"	173	stress_45	"POPTR_0002s01080.1"	357	"	"A/G"	"51,3/48,7"	"157/149"	306
stress_42	"POPTR_0013s03320.1"	333	"	"A/T"	"84,8/15,2"	"89/16"	105	stress_45	"POPTR_0013s03320.1"	333	"	"A/T"	"77,1/22,9"	"91/27"	118
stress_42	"POPTR_0004s01470.1"	765	"	"T/G"	"66,9/32,3"	"89/43"	133	stress_45	"POPTR_0004s01470.1"	765	"	"T/G"	"52,9/47,1"	"64/57"	121
stress_42	"POPTR_0018s09030.1"	216	"	"A/T"	"58,9/41,1"	"89/62"	151	stress_45	"POPTR_0018s09030.1"	216	"	"T/A"	"51,2/48,8"	"63/60"	123
stress_42	"POPTR_0001s14280.1"	975	"	"C/T"	"52,7/47,3"	"89/80"	169	stress_45	"POPTR_0001s14280.1"	975	"	"C/T"	"54,2/45,8"	"129/109"	238
stress_42	"POPTR_0008s15780.1"	186	"	"C/T"	"52,4/47,6"	"898/815"	1713	stress_45	"POPTR_0008s15780.1"	186	"	"C/T"	"51,7/48,2"	"1069/996"	2066
stress_42	"POPTR_0013s03320.1"	88	"	"T/C"	"78,9/21,1"	"90/24"	114	stress_45	"POPTR_0013s03320.1"	88	"	"T/C"	"77,3/22,7"	"75/22"	97
stress_42	"POPTR_0006s06770.1"	1530	"	"G/T"	"72,0/28,0"	"90/35"	125	stress_45	"POPTR_0006s06770.1"	1530	"	"G/T"	"78,2/21,8"	"179/50"	229
stress_42	"POPTR_0002s22600.1"	882	"	"A/G"	"54,9/45,1"	"90/74"	164	stress_45	"POPTR_0002s22600.1"	882	"	"A/G"	"56,8/43,2"	"117/89"	206
stress_42	"POPTR_0002s05660.1"	558	"	"A/G"	"53,3/46,7"	"90/79"	169	stress_45	"POPTR_0002s05660.1"	558	"	"A/G"	"57,1/42,9"	"92/69"	161
stress_42	"POPTR_0002s01080.1"	658	"	"T/C"	"51,4/48,6"	"90/85"	175	stress_45	"POPTR_0002s01080.1"	658	"	"C/T"	"50,9/48,3"	"117/111"	230
stress_42	"POPTR_0006s14400.1"	825	"	"G/A"	"78,3/21,7"	"902/250"	1152	stress_45	"POPTR_0006s14400.1"	825	"	"G/A"	"77,9/22,1"	"1112/316"	1428
stress_42	"POPTR_0013s03320.1"	584	"	"G/A"	"81,2/18,8"	"91/21"	112	stress_45	"POPTR_0013s03320.1"	584	"	"G/A"	"79,5/20,5"	"70/18"	88
stress_42	"POPTR_0005s26170.1"	481	"	"C/A"	"77,1/22,9"	"91/27"	118	stress_45	"POPTR_0005s26170.1"	481	"	"C/A"	"66,7/33,3"	"66/33"	99
stress_42	"POPTR_0001s14280.1"	306	"	"A/G"	"59,1/40,9"	"91/63"	154	stress_45	"POPTR_0001s14280.1"	306	"	"A/G"	"53,5/46,5"	"115/100"	215
stress_42	"POPTR_0284s00200.1"	396	"	"G/A"	"56,2/43,8"	"91/71"	162	stress_45	"POPTR_0284s00200.1"	396	"	"G/A"	"60,1/39,9"	"104/69"	173
stress_42	"POPTR_0006s13310.1"	201	"	"T/A"	"55,2/44,2"	"91/73"	165	stress_45	"POPTR_0006s13310.1"	201	"	"T/A"	"55,9/43,8"	"204/160"	365
stress_42	"POPTR_0013s15560.1"	192	"	"T/C"	"54,5/45,5"	"91/76"	167	stress_45	"POPTR_0013s15560.1"	192	"	"T/C"	"57,4/42,6"	"105/78"	183
stress_42	"POPTR_0019s14100.1"	388	"	"T/A"	"52,6/47,4"	"91/82"	173	stress_45	"POPTR_0019s14100.1"	388	"	"T/A"	"50,7/49,3"	"112/109"	221
stress_42	"POPTR_0004s17610.1"	381	"	"G/A"	"52,6/47,4"	"91/82"	173	stress_45	"POPTR_0004s17610.1"	381	"	"G/A"	"54,0/46,0"	"128/109"	237
stress_42	"POPTR_0014s17070.1"	240	"	"T/C"	"51,4/48,6"	"91/86"	177	stress_45	"POPTR_0014s17070.1"	240	"	"T/C"	"54,6/45,4"	"118/98"	216
stress_42	"POPTR_0009s12420.1"	219	"	"G/T"	"69,7/29,5"	"92/39"	132	stress_45	"POPTR_0009s12420.1"	219	"	"G/T"	"60,6/39,4"	"94/61"	155
stress_42	"POPTR_0010s00900.1"	549	"	"T/C"	"69,2/30,8"	"92/41"	133	stress_45	"POPTR_0010s00900.1"	549	"	"T/C"	"80,2/19,8"	"130/32"	162
stress_42	"POPTR_0007s08400.1"	1473	"	"G/C"	"66,2/33,8"	"92/47"	139	stress_45	"POPTR_0007s08400.1"	1473	"	"G/C"	"53,9/46,1"	"158/135"	293
stress_42	"POPTR_0005s26220.1"	77	"	"G/A"	"63,9/36,1"	"92/52"	144	stress_45	"POPTR_0005s26220.1"	77	"	"G/A"	"60,6/39,4"	"66/43"	109
stress_42	"POPTR_0003s13880.1"	64	"	"C/T"	"61,3/38,7"	"92/58"	150	stress_45	"POPTR_0003s13880.1"	64	"	"T/C"	"51,5/48,5"	"103/97"	200
stress_42	"POPTR_0002s05840.1"	657	"	"G/A"	"56,8/43,2"	"92/70"	162	stress_45	"POPTR_0002s05840.1"	657	"	"G/A"	"60,8/39,2"	"107/69"	176
stress_42	"POPTR_0002s05840.1"	1278	"	"T/C"	"55,1/44,3"	"92/74"	167	stress_45	"POPTR_0002s05840.1"	1278	"	"T/C"	"57,6/42,4"	"91/67"	158
stress_42	"POPTR_0008s05480.1"	1239	"	"A/G"	"54,1/45,9"	"92/78"	170	stress_45	"POPTR_0008s05480.1"	1239	"	"A/G"	"55,3/44,7"	"205/166"	371
stress_42	"POPTR_0008s05480.1"	1852	"	"C/A"	"52,6/47,4"	"92/83"	175	stress_45	"POPTR_0008s05480.1"	1852	"	"C/A"	"51,8/48,2"	"189/176"	365
stress_42	"POPTR_0009s12420.1"	1059	"	"C/A"	"59,2/40,8"	"93/64"	157	stress_45	"POPTR_0009s12420.1"	1059	"	"A/C"	"50,0/50,0"	"72/72"	144
stress_42	"POPTR_0014s11210.1"	932	"	"T/C"	"58,1/41,9"	"93/67"	160	stress_45	"POPTR_0014s11210.1"	932	"	"T/C"	"60,1/39,9"	"98/65"	163
stress_42	"POPTR_0014s17070.1"	255	"	"C/T"	"55,7/44,3"	"93/74"	167	stress_45	"POPTR_0014s17070.1"	255	"	"C/T"	"56,7/43,3"	"114/87"	201
stress_42	"POPTR_0010s00900.1"	259	"	"A/G"	"52,8/47,2"	"93/83"	176	stress_45	"POPTR_0010s00900.1"	259	"	"A/G"	"57,8/42,2"	"107/78"	185
stress_42	"POPTR_0019s09140.1"	749	"	"A/T"	"51,4/48,6"	"93/88"	181	stress_45	"POPTR_0019s09140.1"	749	"	"A/T"	"59,5/40,5"	"113/77"	190
stress_42	"POPTR_0011s11960.1"	77	"	"A/G"	"80,5/19,5"	"9321/2262"	11586	stress_45	"POPTR_0011s11960.1"	77	"	"A/G"	"77,7/22,3"	"7618/2186"	9804
stress_42	"POPTR_0011s11390.1"	714	"	"G/A"	"70,1/29,9"	"94/40"	134	stress_45	"POPTR_0011s11390.1"	714	"	"G/A"	"62,2/37,8"	"97/59"	156
stress_42	"POPTR_0017s08610.1"	1095	"	"T/C"	"65,7/34,3"	"94/49"	143	stress_45	"POPTR_0017s08610.1"	1095	"	"T/C"	"60,1/39,9"	"161/107"	268
stress_42	"POPTR_0009s12710.1"	754	"	"T/A"	"63,5/36,5"	"94/54"	148	stress_45	"POPTR_0009s12710.1"	754	"	"T/A"	"61,3/38,7"	"111/70"	181
stress_42	"POPTR_0004s10660.1"	363	"	"T/C"	"56,0/44,0"	"94/74"	168	stress_45	"POPTR_0004s10660.1"	363	"	"T/C"	"53,8/46,2"	"100/86"	186
stress_42	"POPTR_0019s09140.1"	345	"	"C/A"	"54,7/45,3"	"94/78"	172	stress_45	"POPTR_0019s09140.1"	345	"	"C/A"	"55,5/44,5"	"116/93"	209
stress_42	"POPTR_0008s05480.1"	1833	"	"C/T"	"54,3/45,7"	"94/79"	173	stress_45	"POPTR_0008s05480.1"	1833	"	"C/T"	"52,4/47,6"	"188/171"	359
stress_42	"POPTR_0004s17610.1"	99	"	"C/T"	"69,3/30,7"	"95/42"	137	stress_45	"POPTR_0004s17610.1"	99	"	"C/T"	"65,3/33,9"	"162/84"	248
stress_42	"POPTR_0010s19930.1"	468	"	"C/T"	"63,8/36,2"	"95/54"	149	stress_45	"POPTR_0010s19930.1"	468	"	"C/T"	"59,0/41,0"	"72/50"	122
stress_42	"POPTR_0001s42970.1"	346	"	"G/A"	"60,5/39,5"	"95/62"	157	stress_45	"POPTR_0001s42970.1"	346	"	"G/A"	"57,0/43,0"	"45/34"	79
stress_42	"POPTR_0008s15100.1"	117	"	"C/T"	"56,5/43,5"	"95/73"	168	stress_45	"POPTR_0008s15100.1"	117	"	"T/C"	"52,8/47,2"	"86/77"	163
stress_42	"POPTR_0019s09140.1"	753	"	"A/C"	"51,4/48,6"	"95/90"	185	stress_45	"POPTR_0019s09140.1"	753	"	"C/A"	"62,1/37,9"	"113/69"	182
stress_42	"POPTR_0010s19930.1"	402	"	"T/C"	"68,1/27,0"	"96/38"	141	stress_45	"POPTR_0010s19930.1"	402	"	"T/C"	"75,5/23,6"	"80/25"	106
stress_42	"POPTR_0004s10660.1"	330	"	"T/C"	"64,9/35,1"	"96/52"	148	stress_45	"POPTR_0004s10660.1"	330	"	"T/C"	"62,3/37,7"	"104/63"	167
stress_42	"POPTR_0009s12420.1"	941	"	"C/G"	"64,4/35,6"	"96/53"	149	stress_45	"POPTR_0009s12420.1"	941	"	"C/G"	"61,0/39,0"	"86/55"	141
stress_42	"POPTR_0006s28990.1"	2478	"	"A/C"	"60,8/39,2"	"96/62"	158	stress_45	"POPTR_0006s28990.1"	2478	"	"A/C"	"61,2/38,8"	"98/62"	160
stress_42	"POPTR_0002s08410.1"	786	"	"C/T"	"58,2/41,2"	"96/68"	165	stress_45	"POPTR_0002s08410.1"	786	"	"T/C"	"54,5/45,5"	"102/85"	187
stress_42	"POPTR_0004s16920.1"	895	"	"G/T"	"53,3/46,1"	"96/83"	180	stress_45	"POPTR_0004s16920.1"	895	"	"G/T"	"50,4/49,6"	"116/114"	230
stress_42	"POPTR_0013s03320.1"	209	"	"A/G"	"80,2/19,8"	"97/24"	121	stress_45	"POPTR_0013s03320.1"	209	"	"A/G"	"72,4/27,6"	"76/29"	105
stress_42	"POPTR_0017s08610.1"	408	"	"T/C"	"73,5/26,5"	"97/35"	132	stress_45	"POPTR_0017s08610.1"	408	"	"T/C"	"63,2/36,8"	"184/107"	291
stress_42	"POPTR_0002s08410.1"	379	"	"T/C"	"52,4/47,6"	"97/88"	185	stress_45	"POPTR_0002s08410.1"	379	"	"T/C"	"50,4/49,6"	"123/121"	244
stress_42	"POPTR_0004s16740.1"	946	"	"T/G"	"76,0/24,0"	"98/31"	129	stress_45	"POPTR_0004s16740.1"	946	"	"T/G"	"73,8/26,2"	"90/32"	122
stress_42	"POPTR_0006s23890.1"	84	"	"T/G"	"66,2/33,8"	"98/50"	148	stress_45	"POPTR_0006s23890.1"	84	"	"T/G"	"76,7/23,3"	"102/31"	133
stress_42	"POPTR_0009s12420.1"	951	"	"C/T"	"60,9/39,1"	"98/63"	161	stress_45	"POPTR_0009s12420.1"	951	"	"C/T"	"52,4/47,6"	"86/78"	164
stress_42	"POPTR_0002s05840.1"	627	"	"T/G"	"59,8/40,2"	"98/66"	164	stress_45	"POPTR_0002s05840.1"	627	"	"T/G"	"65,4/34,6"	"117/62"	179
stress_42	"POPTR_0019s09140.1"	109	"	"T/A"	"59,4/40,6"	"98/67"	165	stress_45	"POPTR_0019s09140.1"	109	"	"A/T"	"53,8/46,2"	"120/103"	223
stress_42	"POPTR_0002s01080.1"	1455	"	"G/T"	"52,7/47,3"	"98/88"	186	stress_45	"POPTR_0002s01080.1"	1455	"	"T/G"	"50,4/49,1"	"114/111"	226
stress_42	"POPTR_0019s04750.1"	777	"	"A/C"	"77,3/22,7"	"99/29"	128	stress_45	"POPTR_0019s04750.1"	777	"	"A/C"	"76,5/23,5"	"52/16"	68
stress_42	"POPTR_0284s00200.1"	363	"	"G/A"	"75,6/23,7"	"99/31"	131	stress_45	"POPTR_0284s00200.1"	363	"	"G/A"	"75,8/24,2"	"116/37"	153
stress_42	"POPTR_0002s25260.1"	418	"	"T/A"	"58,2/41,8"	"99/71"	170	stress_45	"POPTR_0002s25260.1"	418	"	"A/T"	"51,3/48,7"	"119/113"	232
